LAMMPS (19 Nov 2024)
OMP_NUM_THREADS environment is not set. Defaulting to 1 thread. (src/comm.cpp:99)
  using 1 OpenMP thread(s) per MPI task
using multi-threaded neighbor list subroutines
Reading data file ...
  orthogonal box = (0 0 0) to (51.724067 51.724067 51.724067)
  2 by 2 by 2 MPI processor grid
  reading atoms ...
  1500 atoms
  scanning bonds ...
  1 = max bonds/atom
  scanning angles ...
  1 = max angles/atom
  orthogonal box = (0 0 0) to (51.724067 51.724067 51.724067)
  2 by 2 by 2 MPI processor grid
  reading bonds ...
  1000 bonds
  reading angles ...
  500 angles
Finding 1-2 1-3 1-4 neighbors ...
  special bond factors lj:    0        0        0       
  special bond factors coul:  0        0        0       
     2 = max # of 1-2 neighbors
     1 = max # of 1-3 neighbors
     1 = max # of 1-4 neighbors
     2 = max # of special neighbors
  special bonds CPU = 0.000 seconds
  read_data CPU = 1.641 seconds
Setting atom values ...
  1000 settings made for charge
Setting atom values ...
  500 settings made for charge
1000 atoms in group oxy
500 atoms in group carb
PPPM initialization ...
  using 12-bit tables for long-range coulomb (src/kspace.cpp:342)
  G vector (1/distance) = 0.26873989
  grid = 48 48 48
  stencil order = 5
  estimated absolute RMS force accuracy = 0.00039673335
  estimated relative force accuracy = 1.1947507e-06
  using single precision FFTW3
  3d grid and FFT values/proc = 29791 13824
Generated 1 of 1 mixed pair_coeff terms from arithmetic mixing rule
Last active /omp style is kspace_style pppm/omp
Neighbor list info ...
  update: every = 1 steps, delay = 0 steps, check = yes
  max neighbors/atom: 2000, page size: 100000
  master list distance cutoff = 15
  ghost atom cutoff = 15
  binsize = 7.5, bins = 7 7 7
  1 neighbor lists, perpetual/occasional/extra = 1 0 0
  (1) pair lj/cut/coul/long/omp, perpetual
      attributes: half, newton on, omp
      pair build: half/bin/newton/omp
      stencil: half/bin/3d
      bin: standard
Setting up cg style minimization ...
  Unit style    : real
  Current step  : 0
Per MPI rank memory allocation (min/avg/max) = 9.589 | 9.598 | 9.606 Mbytes
   Step          Temp          E_pair         E_mol          TotEng         Press     
         0   0              28.434711      1.5236362e-05  28.434727      388.82384    
      9001   0             -543.99967      0.32216215    -543.6775      -14.66071     
Loop time of 41.6776 on 8 procs for 9001 steps with 1500 atoms

99.3% CPU use with 8 MPI tasks x 1 OpenMP threads

Minimization stats:
  Stopping criterion = energy tolerance
  Energy initial, next-to-last, final = 
      28.4347266566101  -543.677392908831  -543.677503133579
  Force two-norm initial, final = 108.91174 0.53436756
  Force max component initial, final = 14.210619 0.10736041
  Final line search alpha, max atom move = 0.5812229 0.06240033
  Iterations, force evaluations = 9001 17999

MPI task timing breakdown:
Section |  min time  |  avg time  |  max time  |%varavg| %total
---------------------------------------------------------------
Pair    | 4.3955     | 8.0532     | 10.793     |  84.3 | 19.32
Bond    | 0.13884    | 0.16441    | 0.20283    |   5.4 |  0.39
Kspace  | 28.83      | 31.61      | 35.298     |  43.0 | 75.84
Neigh   | 0.02356    | 0.023775   | 0.024001   |   0.1 |  0.06
Comm    | 1.3358     | 1.3724     | 1.3954     |   1.8 |  3.29
Output  | 0          | 0          | 0          |   0.0 |  0.00
Modify  | 0.061605   | 0.06423    | 0.069553   |   1.0 |  0.15
Other   |            | 0.3892     |            |       |  0.93

Nlocal:          187.5 ave         269 max         117 min
Histogram: 2 0 2 0 0 1 1 0 0 2
Nghost:           1910 ave        1978 max        1790 min
Histogram: 1 0 1 0 0 0 1 3 1 1
Neighs:        21072.8 ave       35939 max        6855 min
Histogram: 1 1 1 0 1 1 0 2 0 1

Total # of neighbors = 168582
Ave neighs/atom = 112.388
Ave special neighs/atom = 2
Neighbor list builds = 38
Dangerous builds = 0
PPPM initialization ...
  using 12-bit tables for long-range coulomb (src/kspace.cpp:342)
  G vector (1/distance) = 0.26873989
  grid = 48 48 48
  stencil order = 5
  estimated absolute RMS force accuracy = 0.00039673335
  estimated relative force accuracy = 1.1947507e-06
  using single precision FFTW3
  3d grid and FFT values/proc = 29791 13824
Generated 1 of 1 mixed pair_coeff terms from arithmetic mixing rule
Last active /omp style is kspace_style pppm/omp
Setting up Verlet run ...
  Unit style    : real
  Current step  : 9001
  Time step     : 0.1
Per MPI rank memory allocation (min/avg/max) = 8.482 | 8.483 | 8.485 Mbytes
   Step         PotEng         KinEng         TotEng         Press           Temp        v_Density   
      9001  -543.6775       1340.4703      796.79278      428.14381      300            0.16747647   
     10000   324.96513      1133.8646      1458.8297      271.84404      253.76122      0.13793271   
     11000   132.42328      1418.1839      1550.6072      223.93096      317.39246      0.12012096   
     12000   255.21544      1302.4477      1557.6632      127.60673      291.49048      0.11849491   
     13000   239.00431      1332.345       1571.3493      146.7507       298.18155      0.11921316   
     14000   199.07951      1402.4655      1601.545       185.9187       313.87465      0.12320513   
     15000   306.37497      1276.9539      1583.3289      108.98756      285.78491      0.12589916   
     16000   230.03554      1384.7192      1614.7547      194.21127      309.903        0.13286149   
     17000   347.79306      1260.2199      1608.013       109.40381      282.03981      0.13506708   
     18000   225.67159      1374.5053      1600.1769      181.55683      307.61712      0.14233137   
     19000   306.61217      1319.0899      1625.7021      134.99445      295.21503      0.14948042   
     20000   279.02384      1355.1825      1634.2063      153.3953       303.29262      0.15315564   
     21000   293.28849      1343.8939      1637.1824      153.32933      300.76622      0.15911522   
     22000   302.54798      1302.3076      1604.8556      142.16875      291.45912      0.15952952   
     23000   273.34701      1360.9142      1634.2613      181.7147       304.5754       0.16458443   
     24000   329.93173      1320.8413      1650.7731      164.34301      295.607        0.16994965   
     25000   295.37821      1369.6153      1664.9935      158.85756      306.52271      0.1613432    
     26000   368.36802      1304.8387      1673.2067      119.46679      292.02559      0.16018149   
     27000   303.32203      1421.4168      1724.7388      165.40472      318.11599      0.16559094   
     28000   335.99037      1334.5074      1670.4978      157.86939      298.66551      0.16283071   
     29000   337.41509      1333.5987      1671.0138      180.05092      298.46212      0.16096613   
     30000   353.03261      1336.7378      1689.7704      119.17242      299.16467      0.15611589   
     31000   365.59579      1380.7152      1746.311       150.5006       309.0069       0.14867625   
     32000   344.32422      1356.7492      1701.0734      210.65121      303.64326      0.14665173   
     33000   368.11321      1327.5138      1695.627       138.2298       297.10031      0.15371862   
     34000   302.06185      1322.8364      1624.8982      131.0522       296.0535       0.16349205   
     35000   335.82586      1308.7013      1644.5272      195.35804      292.89004      0.16727812   
     36000   341.29108      1314.6673      1655.9583      196.55378      294.22523      0.15898533   
     37000   357.36979      1291.2291      1648.5989      143.12366      288.97972      0.15667666   
     38000   351.69688      1338.7644      1690.4612      137.4006       299.61821      0.15340174   
     39000   385.09595      1322.8556      1707.9516      145.30081      296.05781      0.15038859   
     40000   345.71502      1345.3141      1691.0291      221.16731      301.08406      0.15645461   
     41000   341.94092      1270.8031      1612.744       158.50579      284.40835      0.15869417   
     42000   358.12828      1322.8183      1680.9466      120.70837      296.04945      0.15444748   
     43000   360.95179      1336.5964      1697.5482      165.68807      299.13302      0.15312272   
     44000   373.29573      1349.571       1722.8668      199.41571      302.03677      0.15412684   
     45000   360.28143      1372.9539      1733.2353      179.92519      307.2699       0.14981119   
     46000   390.31478      1354.5757      1744.8904      90.587774      303.15681      0.14380928   
     47000   379.41901      1346.1641      1725.5831      146.44628      301.27429      0.1511378    
     48000   394.52454      1324.1461      1718.6706      225.40531      296.34661      0.14954447   
     49000   400.05693      1302.2283      1702.2852      129.02009      291.44136      0.14259714   
     50000   356.44678      1288.9281      1645.3749      104.09774      288.46476      0.15185463   
     51000   373.3701       1309.9151      1683.2852      162.50875      293.16168      0.15663341   
     52000   335.34217      1300.7821      1636.1243      175.5166       291.11771      0.14961221   
     53000   396.82489      1303.5756      1700.4005      139.91854      291.74289      0.14664687   
     54000   371.05683      1326.1271      1697.184       131.46096      296.78997      0.14594937   
     55000   406.5499       1345.9219      1752.4717      153.87711      301.22007      0.14026478   
     56000   399.46288      1392.6088      1792.0717      190.05558      311.66871      0.13428932   
     57000   398.40016      1327.5276      1725.9278      127.89059      297.1034       0.14126193   
     58000   386.23677      1337.4053      1723.6421      133.31956      299.31405      0.14819103   
     59000   378.16151      1360.1013      1738.2628      171.68593      304.39346      0.14574827   
     59001   368.94438      1369.3222      1738.2666      177.41915      306.45712      0.14574923   
Loop time of 226.204 on 8 procs for 50000 steps with 1500 atoms

Performance: 1.910 ns/day, 12.567 hours/ns, 221.039 timesteps/s, 331.559 katom-step/s
99.3% CPU use with 8 MPI tasks x 1 OpenMP threads

MPI task timing breakdown:
Section |  min time  |  avg time  |  max time  |%varavg| %total
---------------------------------------------------------------
Pair    | 7.7436     | 10.5       | 13.683     |  64.5 |  4.64
Bond    | 0.48966    | 0.54698    | 0.64525    |   6.9 |  0.24
Kspace  | 93.455     | 96.712     | 99.497     |  21.6 | 42.75
Neigh   | 0.047273   | 0.047603   | 0.04803    |   0.1 |  0.02
Comm    | 4.1289     | 4.1824     | 4.2598     |   2.0 |  1.85
Output  | 0.0024927  | 0.0027761  | 0.0046693  |   1.4 |  0.00
Modify  | 110.1      | 111.99     | 113.31     |  10.3 | 49.51
Other   |            | 2.223      |            |       |  0.98

Nlocal:          187.5 ave         209 max         153 min
Histogram: 1 0 0 1 0 2 1 0 1 2
Nghost:         1611.5 ave        1664 max        1548 min
Histogram: 1 0 0 2 1 1 0 0 1 2
Neighs:        12892.9 ave       15840 max        9288 min
Histogram: 1 0 0 2 1 1 0 1 0 2

Total # of neighbors = 103143
Ave neighs/atom = 68.762
Ave special neighs/atom = 2
Neighbor list builds = 86
Dangerous builds = 0
PPPM initialization ...
  using 12-bit tables for long-range coulomb (src/kspace.cpp:342)
  G vector (1/distance) = 0.26834742
  grid = 50 50 50
  stencil order = 5
  estimated absolute RMS force accuracy = 0.00038007198
  estimated relative force accuracy = 1.1445755e-06
  using single precision FFTW3
  3d grid and FFT values/proc = 32768 16250
Generated 1 of 1 mixed pair_coeff terms from arithmetic mixing rule
Last active /omp style is kspace_style pppm/omp
Setting up Verlet run ...
  Unit style    : real
  Current step  : 59001
  Time step     : 0.25
Per MPI rank memory allocation (min/avg/max) = 8.667 | 8.689 | 8.711 Mbytes
   Step         PotEng         KinEng         TotEng         Press           Temp        v_Density   
     59001   368.94275      1369.3222      1738.2649      177.42104      306.45712      0.14574923   
     60000   376.71224      1373.1359      1749.8481      228.15521      307.31063      0.15390725   
     61000   408.54083      1358.832       1767.3729      172.13478      304.1094       0.14140894   
     62000   422.17628      1323.5132      1745.6895      135.97784      296.20497      0.14633077   
     63000   430.79466      1301.858       1732.6527      115.08742      291.35849      0.14525108   
     64000   430.37229      1380.863       1811.2352      148.51121      309.03996      0.15726376   
     65000   406.7516       1319.6473      1726.3989      121.24385      295.33976      0.14950209   
     66000   403.49925      1319.6525      1723.1518      169.14246      295.34094      0.15305669   
     67000   392.32278      1330.3741      1722.6969      248.00879      297.74045      0.16659164   
     68000   380.23656      1323.5033      1703.7399      176.43045      296.20276      0.15123836   
     69000   398.83966      1307.787       1706.6266      132.71365      292.68541      0.15946853   
     70000   404.02477      1346.4651      1750.4899      102.97025      301.34165      0.15328896   
     71000   399.53337      1366.4268      1765.9602      149.85656      305.80913      0.157507     
     72000   417.43343      1350.8955      1768.3289      163.4304       302.33319      0.14198184   
     73000   418.07493      1319.6023      1737.6772      166.13926      295.3297       0.14266077   
     74000   408.58745      1315.4976      1724.085       168.32164      294.41105      0.14774912   
     75000   392.27282      1329.3053      1721.5782      215.05394      297.50126      0.1532204    
     76000   435.04685      1353.635       1788.6818      160.49382      302.94628      0.14503461   
     77000   447.71076      1338.537       1786.2477      118.45452      299.56732      0.15205586   
     78000   407.78082      1313.8016      1721.5824      81.083397      294.03149      0.15612457   
     79000   408.31498      1331.3585      1739.6735      127.96492      297.96076      0.15910085   
     80000   433.35051      1333.5255      1766.876       196.28985      298.44574      0.15434934   
     81000   416.36952      1325.2535      1741.623       192.83426      296.59445      0.15011895   
     82000   424.88217      1349.8806      1774.7628      178.60464      302.10605      0.15195879   
     83000   396.49308      1379.7509      1776.244       161.64794      308.79109      0.15611557   
     84000   391.67659      1359.3927      1751.0693      146.84285      304.23488      0.15139328   
     85000   377.72869      1333.6418      1711.3705      215.11322      298.47178      0.15062625   
     86000   407.02769      1352.9049      1759.9326      245.42305      302.78289      0.15432672   
     87000   406.23394      1364.0979      1770.3318      174.31737      305.2879       0.1530109    
     88000   392.10561      1400.398       1792.5036      123.37714      313.41194      0.15172951   
     89000   394.98469      1315.3398      1710.3245      63.181597      294.37575      0.14470246   
     90000   390.32777      1328.5904      1718.9181      134.28867      297.34125      0.14833283   
     91000   424.9302       1304.6087      1729.5389      204.45171      291.9741       0.15553063   
     92000   408.96693      1303.3509      1712.3178      232.81136      291.6926       0.15013277   
     93000   393.10525      1295.7464      1688.8516      203.22392      289.9907       0.16277615   
     94000   400.37147      1319.398       1719.7695      96.995105      295.28398      0.1621696    
     95000   414.73296      1341.3892      1756.1222      64.369078      300.20566      0.14892542   
     96000   425.78545      1346.1263      1771.9118      100.08954      301.26584      0.1499725    
     97000   400.50437      1327.3945      1727.8988      158.83819      297.07361      0.15033462   
     98000   391.07419      1342.2004      1733.2746      197.95874      300.38721      0.15820139   
     99000   387.82184      1373.7828      1761.6046      196.23485      307.4554       0.15840284   
    100000   389.3105       1343.0646      1732.3751      189.03755      300.58061      0.15232349   
    101000   412.94241      1310.9163      1723.8587      118.41089      293.38575      0.14375864   
    102000   421.88333      1364.2932      1786.1765      87.744133      305.33162      0.15055734   
    103000   439.6254       1325.5064      1765.1318      101.30303      296.65105      0.14269341   
    104000   427.04768      1322.8363      1749.884       173.17548      296.05349      0.15376096   
    105000   430.16917      1367.48        1797.6492      244.01289      306.04484      0.14658608   
    106000   427.09673      1355.434       1782.5307      219.86683      303.34891      0.14590649   
    107000   380.86983      1339.6406      1720.5104      143.93608      299.81432      0.15676282   
    108000   390.36312      1329.6296      1719.9927      121.02562      297.57383      0.15278975   
    109000   407.52201      1298.0047      1705.5267      114.50245      290.49611      0.15310913   
    109001   394.39803      1310.4598      1704.8578      122.07334      293.2836       0.15309862   
Loop time of 256.304 on 8 procs for 50000 steps with 1500 atoms

Performance: 4.214 ns/day, 5.696 hours/ns, 195.081 timesteps/s, 292.622 katom-step/s
99.4% CPU use with 8 MPI tasks x 1 OpenMP threads

MPI task timing breakdown:
Section |  min time  |  avg time  |  max time  |%varavg| %total
---------------------------------------------------------------
Pair    | 7.8619     | 9.0004     | 10.465     |  25.3 |  3.51
Bond    | 0.52394    | 0.54766    | 0.57948    |   2.2 |  0.21
Kspace  | 110.51     | 112.02     | 113.19     |   7.4 | 43.71
Neigh   | 0.091417   | 0.091704   | 0.092015   |   0.1 |  0.04
Comm    | 3.8628     | 3.8937     | 3.9101     |   0.7 |  1.52
Output  | 0.0021236  | 0.0023047  | 0.0035366  |   1.0 |  0.00
Modify  | 116.8      | 124.01     | 130.31     |  47.6 | 48.38
Other   |            | 6.74       |            |       |  2.63

Nlocal:          187.5 ave         213 max         172 min
Histogram: 2 1 1 1 0 1 1 0 0 1
Nghost:         1611.5 ave        1658 max        1565 min
Histogram: 1 0 0 2 2 1 0 0 1 1
Neighs:          13412 ave       16931 max       11150 min
Histogram: 1 0 2 1 3 0 0 0 0 1

Total # of neighbors = 107296
Ave neighs/atom = 71.530667
Ave special neighs/atom = 2
Neighbor list builds = 194
Dangerous builds = 0
PPPM initialization ...
  using 12-bit tables for long-range coulomb (src/kspace.cpp:342)
  G vector (1/distance) = 0.26918853
  grid = 50 50 50
  stencil order = 5
  estimated absolute RMS force accuracy = 0.00036317521
  estimated relative force accuracy = 1.0936914e-06
  using single precision FFTW3
  3d grid and FFT values/proc = 32768 16250
Generated 1 of 1 mixed pair_coeff terms from arithmetic mixing rule
Last active /omp style is kspace_style pppm/omp
Setting up Verlet run ...
  Unit style    : real
  Current step  : 109001
  Time step     : 0.5
Per MPI rank memory allocation (min/avg/max) = 8.667 | 8.689 | 8.711 Mbytes
   Step         PotEng         KinEng         TotEng         Press           Temp        v_Density   
    109001   394.39754      1310.4598      1704.8574      122.07266      293.2836       0.15309862   
    110000   504.83805      1369.4327      1874.2707      204.40712      306.48185      0.1725715    
    111000   469.40823      1371.6101      1841.0183      233.04545      306.96915      0.18262277   
    112000   521.8902       1300.1614      1822.0516      11.712873      290.9788       0.17719806   
    113000   524.96571      1348.6682      1873.6339      154.29618      301.83472      0.17873227   
    114000   510.41675      1325.1789      1835.5957      218.98627      296.57776      0.15985469   
    115000   491.88272      1318.5352      1810.4179      29.230883      295.09088      0.17292221   
    116000   508.77145      1324.9558      1833.7272      174.88051      296.52782      0.18117414   
    117000   523.48753      1341.9112      1865.3987      174.07204      300.32248      0.17460447   
    118000   496.29956      1381.9391      1878.2387      116.53309      309.28081      0.17278557   
    119000   448.94051      1365.6346      1814.5751      176.78585      305.63182      0.17671167   
    120000   467.48707      1320.0186      1787.5057      168.94915      295.42288      0.17580165   
    121000   502.41078      1320.2595      1822.6703      182.08993      295.47678      0.1878282    
    122000   486.32239      1335.258       1821.5804      206.27749      298.83349      0.19129434   
    123000   476.62649      1318.1468      1794.7733      90.355038      295.00397      0.1812218    
    124000   497.02062      1377.396       1874.4166      153.38786      308.26405      0.18488753   
    125000   536.99934      1370.7527      1907.752       219.29023      306.77727      0.18545759   
    126000   483.74614      1326.3058      1810.052       86.494214      296.82997      0.1963048    
    127000   473.47169      1330.754       1804.2257      125.05252      297.82548      0.18482095   
    128000   485.38578      1318.9802      1804.366       210.40587      295.19048      0.18790789   
    129000   508.12385      1339.1626      1847.2865      157.08714      299.70734      0.18399905   
    130000   456.81136      1340.7045      1797.5159      87.010026      300.05243      0.18690995   
    131000   497.54871      1358.6608      1856.2095      194.02087      304.07107      0.1769753    
    132000   497.83357      1329.4626      1827.2962      160.78641      297.53647      0.1720023    
    133000   507.42898      1349.6837      1857.1127      104.72775      302.06199      0.18619112   
    134000   483.55129      1345.2364      1828.7877      176.59309      301.06668      0.18198402   
    135000   480.52725      1338.2344      1818.7617      233.00702      299.49961      0.1850411    
    136000   502.81391      1313.9423      1816.7562      32.071108      294.06299      0.17934777   
    137000   492.91997      1306.2859      1799.2059      126.92524      292.34947      0.16876996   
    138000   492.81494      1357.734       1850.549       203.06744      303.86366      0.1841578    
    139000   487.98085      1319.861       1807.8419      147.34011      295.38761      0.17675657   
    140000   482.01539      1364.1491      1846.1644      92.845155      305.29936      0.18576634   
    141000   499.52456      1414.9351      1914.4596      364.9198       316.66537      0.18516489   
    142000   472.46478      1352.715       1825.1798      143.25346      302.7404       0.18455428   
    143000   518.48944      1345.1922      1863.6817      14.689467      301.05678      0.17803633   
    144000   499.23553      1366.9541      1866.1896      419.44098      305.92713      0.18939516   
    145000   523.74996      1360.8183      1884.5682      180.34527      304.55392      0.18630095   
    146000   513.06517      1331.0343      1844.0995      91.165547      297.88822      0.17784091   
    147000   519.89861      1334.6359      1854.5345      173.2032       298.69424      0.17669688   
    148000   511.43789      1300.4742      1811.9121      184.8516       291.0488       0.17102984   
    149000   504.66415      1337.7335      1842.3976      142.35279      299.3875       0.18752043   
    150000   521.87442      1364.4669      1886.3413      164.37901      305.3705       0.18529897   
    151000   476.09361      1340.5626      1816.6562      262.29559      300.02065      0.1912434    
    152000   479.8699       1304.0224      1783.8923      102.00662      291.84288      0.18263482   
    153000   483.01366      1313.4263      1796.44        90.851635      293.9475       0.17713986   
    154000   516.2717       1315.0549      1831.3266      221.11998      294.31198      0.16973359   
    155000   509.1325       1383.1374      1892.2699      169.37409      309.549        0.18256489   
    156000   506.02753      1335.9756      1842.0031      140.39063      298.99407      0.17232225   
    157000   488.10799      1338.1579      1826.2659      185.45003      299.48249      0.1714585    
    158000   498.19899      1392.7601      1890.9591      183.14727      311.70256      0.17279142   
    159000   502.46115      1320.0505      1822.5116      134.83103      295.43001      0.17592129   
    159001   498.31537      1320.8327      1819.1481      134.58575      295.60507      0.17588891   
Loop time of 263.021 on 8 procs for 50000 steps with 1500 atoms

Performance: 8.212 ns/day, 2.922 hours/ns, 190.099 timesteps/s, 285.149 katom-step/s
99.4% CPU use with 8 MPI tasks x 1 OpenMP threads

MPI task timing breakdown:
Section |  min time  |  avg time  |  max time  |%varavg| %total
---------------------------------------------------------------
Pair    | 9.695      | 10.629     | 11.169     |  13.7 |  4.04
Bond    | 0.55629    | 0.56684    | 0.57745    |   0.8 |  0.22
Kspace  | 114.85     | 115.4      | 116.37     |   4.3 | 43.88
Neigh   | 0.21979    | 0.22042    | 0.22098    |   0.1 |  0.08
Comm    | 4.4451     | 4.4972     | 4.5488     |   1.4 |  1.71
Output  | 0.0021004  | 0.0022856  | 0.0035614  |   1.0 |  0.00
Modify  | 117.93     | 124.97     | 131.28     |  47.5 | 47.51
Other   |            | 6.736      |            |       |  2.56

Nlocal:          187.5 ave         203 max         151 min
Histogram: 1 0 0 0 0 2 1 0 0 4
Nghost:        1747.62 ave        1798 max        1705 min
Histogram: 2 1 0 1 1 0 1 0 1 1
Neighs:        15123.4 ave       16960 max       12179 min
Histogram: 1 0 0 1 0 0 2 2 1 1

Total # of neighbors = 120987
Ave neighs/atom = 80.658
Ave special neighs/atom = 2
Neighbor list builds = 386
Dangerous builds = 0
PPPM initialization ...
  using 12-bit tables for long-range coulomb (src/kspace.cpp:342)
  G vector (1/distance) = 0.2695953
  grid = 48 48 48
  stencil order = 5
  estimated absolute RMS force accuracy = 0.00037894815
  estimated relative force accuracy = 1.1411911e-06
  using single precision FFTW3
  3d grid and FFT values/proc = 29791 13824
Generated 1 of 1 mixed pair_coeff terms from arithmetic mixing rule
Last active /omp style is kspace_style pppm/omp
Setting up Verlet run ...
  Unit style    : real
  Current step  : 0
  Time step     : 0.5
Per MPI rank memory allocation (min/avg/max) = 8.483 | 8.485 | 8.486 Mbytes
   Step         PotEng         KinEng         TotEng         Press           Temp        v_Density   
         0   498.31458      1320.8327      1819.1473      134.58612      295.60507      0.17588891   
      1000   494.49417      1322.1271      1816.6212      110.70596      295.89475      0.17663151   
      2000   509.34383      1304.9488      1814.2926      138.9061       292.05022      0.17721049   
      3000   475.13025      1271.1145      1746.2447      177.31378      284.47803      0.17782497   
      4000   484.28933      1312.4391      1796.7285      281.6125       293.72657      0.1843889    
      5000   500.40055      1306.7248      1807.1254      312.32295      292.4477       0.19099667   
      6000   463.78106      1310.5684      1774.3495      218.79685      293.3079       0.19400654   
      7000   469.47205      1339.5845      1809.0565      123.15875      299.80175      0.1913015    
      8000   490.97134      1305.2716      1796.243      -8.0848637      292.12247      0.1839785    
      9000   513.35334      1316.2354      1829.5887     -25.659428      294.57618      0.17777004   
     10000   521.51674      1329.6472      1851.1639      89.228974      297.57776      0.17740145   
     11000   491.4298       1339.1058      1830.5356      253.96065      299.69462      0.17965193   
     12000   489.73432      1339.2157      1828.9501      315.84548      299.71923      0.18183436   
     13000   510.0132       1356.4761      1866.4893      301.82932      303.58215      0.18257511   
     14000   533.54763      1329.5777      1863.1254      201.42008      297.56223      0.18302548   
     15000   483.62266      1407.2669      1890.8896      190.87958      314.94923      0.18671169   
     16000   513.4354       1393.9626      1907.398       126.81761      311.97169      0.18706004   
     17000   529.99378      1353.4896      1883.4834      115.0332       302.91375      0.18207302   
     18000   527.11049      1345.7633      1872.8738      172.14504      301.18459      0.17817089   
     19000   543.05829      1358.1448      1901.2031      201.89626      303.9556       0.17710307   
     20000   520.45807      1342.8654      1863.3235      231.19204      300.53604      0.17677342   
     21000   500.84112      1360.7038      1861.5449      206.45261      304.5283       0.17714933   
     22000   488.56532      1357.6044      1846.1697      172.17043      303.83465      0.18216308   
     23000   485.71904      1320.1701      1805.8891      142.74175      295.45677      0.18750913   
     24000   474.93388      1339.0243      1813.9582      79.309184      299.67638      0.18945666   
     25000   484.98096      1316.5175      1801.4984      66.500291      294.63931      0.19028146   
     26000   484.04143      1362.8732      1846.9146      122.79573      305.01382      0.19086449   
     27000   484.87296      1368.6408      1853.5137      191.89224      306.30462      0.18624659   
     28000   540.89474      1361.2143      1902.109       158.14145      304.64255      0.17758851   
     29000   513.01044      1350.0688      1863.0792      130.11499      302.14816      0.17515778   
     30000   504.37675      1368.5519      1872.9287      151.85282      306.28473      0.18067191   
     31000   506.72107      1368.6813      1875.4024      187.61474      306.31369      0.18563908   
     32000   528.70044      1395.3723      1924.0727      206.98785      312.28718      0.18858556   
     33000   491.43143      1348.4139      1839.8453      168.58805      301.7778       0.18616415   
     34000   490.06778      1349.6664      1839.7342      204.59722      302.05811      0.1833453    
     35000   493.85647      1358.9423      1852.7987      210.50081      304.13407      0.18015675   
     36000   510.98913      1335.8841      1846.8733      164.53257      298.97361      0.17633151   
     37000   508.34898      1342.9429      1851.2919      112.22573      300.55338      0.17378536   
     38000   483.3983       1338.9391      1822.3374      102.18933      299.65732      0.1729356    
     39000   473.81545      1306.9124      1780.7278      71.860929      292.48967      0.1783132    
     40000   472.56855      1344.8729      1817.4415      107.95322      300.98533      0.18545974   
     41000   473.59565      1340.3208      1813.9165      102.3296       299.96655      0.18748633   
     42000   494.77311      1301.9217      1796.6949      146.31026      291.37276      0.18802529   
     43000   509.58669      1325.8741      1835.4608      170.49824      296.73334      0.18508112   
     44000   529.02137      1285.05        1814.0713      186.41046      287.59682      0.18100701   
     45000   523.1017       1325.3174      1848.4191      157.15729      296.60876      0.17656269   
     46000   518.27584      1291.4849      1809.7607      149.70734      289.03696      0.17435136   
     47000   503.89727      1331.4484      1835.3457      217.03436      297.9809       0.17722674   
     48000   500.93722      1319.5722      1820.5094      200.13472      295.32296      0.18229552   
     49000   489.8229       1339.3584      1829.1814      185.82049      299.75117      0.18897465   
     50000   475.59897      1334.8057      1810.4047      192.94724      298.73227      0.19320138   
     51000   491.86234      1338.862       1830.7244      110.55557      299.64007      0.19174762   
     52000   516.92245      1364.9963      1881.9187      75.331048      305.48897      0.18804095   
     53000   511.1857       1337.4602      1848.6459     -26.956604      299.32633      0.1826613    
     54000   492.64617      1351.0433      1843.6895      31.308918      302.36626      0.17846534   
     55000   538.92466      1283.8258      1822.7505      86.227236      287.32286      0.17531375   
     56000   501.17654      1306.2686      1807.4451      142.66494      292.34558      0.17415059   
     57000   501.74816      1339.8245      1841.5727      267.33397      299.85547      0.17749092   
     58000   474.59564      1349.8761      1824.4717      288.83388      302.10503      0.18394774   
     59000   479.8822       1274.558       1754.4402      289.34855      285.24869      0.19039509   
     60000   475.12467      1317.2052      1792.3299      242.4097       294.79324      0.18931412   
     61000   468.94505      1323.1098      1792.0548      190.4303       296.11468      0.18594628   
     62000   484.31408      1336.6638      1820.9778      125.50363      299.14809      0.18433748   
     63000   497.47736      1387.4229      1884.9003      93.481468      310.5081       0.18389128   
     64000   496.16482      1368.5493      1864.7141      65.121967      306.28413      0.18767627   
     65000   483.48338      1365.5325      1849.0159      80.271159      305.60897      0.19732512   
     66000   475.66481      1361.2252      1836.89        108.3563       304.64499      0.20162782   
     67000   492.68774      1343.7981      1836.4858      142.05955      300.74476      0.19675241   
     68000   499.09437      1377.2746      1876.3689      223.8334       308.23688      0.18957581   
     69000   516.18126      1382.8644      1899.0457      257.29183      309.4879       0.18560317   
     70000   523.99008      1354.0139      1878.004       255.60745      303.03109      0.18520428   
     71000   508.03365      1368.8673      1876.9009      199.07287      306.35531      0.18302913   
     72000   521.91697      1337.9105      1859.8274      137.49717      299.42711      0.17965574   
     73000   485.7236       1393.9564      1879.68        95.445832      311.9703       0.17990576   
     74000   462.73585      1369.1527      1831.8886      103.32952      306.41919      0.1860649    
     75000   455.96854      1357.0597      1813.0282      93.245301      303.71275      0.19275475   
     76000   497.8731       1315.8741      1813.7472      128.50801      294.49533      0.19549011   
     77000   484.96346      1311.568       1796.5315      196.22857      293.53161      0.19372635   
     78000   443.36541      1308.6606      1752.026       167.55062      292.88093      0.18911984   
     79000   501.43945      1310.7915      1812.231       153.33701      293.35784      0.18614413   
     80000   481.65812      1318.7402      1800.3983      151.98396      295.13676      0.18249282   
     81000   516.68857      1354.5608      1871.2494      125.08072      303.15349      0.18014131   
     82000   516.86402      1342.1774      1859.0414      159.42286      300.38205      0.18209549   
     83000   517.64148      1315.8397      1833.4812      141.39073      294.48763      0.18563452   
     84000   498.09439      1309.8448      1807.9392      119.38166      293.14595      0.18768995   
     85000   500.34103      1322.1582      1822.4992      114.39577      295.90171      0.18858596   
     86000   492.44828      1319.22        1811.6683      120.90258      295.24415      0.18739511   
     87000   489.03863      1301.9904      1791.0291      142.56927      291.38814      0.18533163   
     88000   451.92517      1291.9296      1743.8547      171.34266      289.13649      0.18563857   
     89000   490.14606      1311.6438      1801.7898      198.59194      293.54857      0.18787631   
     90000   506.10867      1317.7561      1823.8647      163.66135      294.91651      0.18809633   
     91000   490.26146      1320.694       1810.9554      155.66079      295.57403      0.18599113   
     92000   495.70046      1329.9073      1825.6078      181.84802      297.63599      0.18335454   
     93000   518.50939      1307.0273      1825.5367      142.36912      292.51539      0.18113776   
     94000   526.35101      1356.8231      1883.1741      126.98751      303.65978      0.17902368   
     95000   525.08667      1376.4915      1901.5782      85.803753      308.06163      0.17868533   
     96000   507.05633      1370.2948      1877.3512      53.295134      306.6748       0.18095796   
     97000   502.51093      1343.6571      1846.1681      36.581368      300.71322      0.18842303   
     98000   488.19138      1363.6765      1851.8678      117.83251      305.19359      0.19550704   
     99000   497.64906      1382.7733      1880.4224      204.93798      309.4675       0.19545688   
    100000   499.8455       1413.7383      1913.5838      202.29505      316.39754      0.19060798   
    101000   516.66775      1358.2609      1874.9286      241.9505       303.98157      0.18663996   
    102000   486.43778      1371.4547      1857.8925      323.49556      306.93438      0.1849011    
    103000   493.36136      1359.9128      1853.2741      292.31523      304.35127      0.18290887   
    104000   515.85513      1367.3678      1883.2229      265.34402      306.01972      0.18281184   
    105000   495.18468      1346.1601      1841.3447      151.3749       301.27339      0.1834396    
    106000   493.88854      1368.3353      1862.2238      118.29994      306.23625      0.18698186   
    107000   497.81528      1362.0103      1859.8256      122.19582      304.8207       0.18953622   
    108000   504.56537      1344.629       1849.1943      95.588821      300.93072      0.19019852   
    109000   503.59182      1329.559       1833.1508      122.82499      297.55803      0.18794551   
    110000   495.34362      1310.8119      1806.1556      85.417426      293.3624       0.18264343   
    111000   526.5376       1327.3892      1853.9268      122.20423      297.07242      0.18067329   
    112000   481.31666      1349.2505      1830.5672      164.04468      301.96504      0.18360086   
    113000   481.38679      1345.4909      1826.8777      175.61136      301.12362      0.18958569   
    114000   473.73834      1364.1011      1837.8394      154.94041      305.28862      0.1947093    
    115000   475.99872      1303.8918      1779.8905      118.22132      291.81366      0.19629891   
    116000   440.19479      1298.1289      1738.3237      140.50468      290.5239       0.19545916   
    117000   477.71191      1341.2476      1818.9595      134.20015      300.17397      0.1910108    
    118000   503.14372      1321.468       1824.6117      107.94418      295.74726      0.18324041   
    119000   473.11241      1327.1675      1800.2799      156.72056      297.02282      0.17813198   
    120000   481.05514      1267.0447      1748.0998      154.02712      283.5672       0.17482021   
    121000   485.14965      1329.5218      1814.6714      197.70349      297.5497       0.17662501   
    122000   498.0168       1331.6837      1829.7005      193.87259      298.03354      0.1805048    
    123000   514.48328      1306.4205      1820.9037      155.86502      292.37958      0.18475385   
    124000   521.61534      1327.1049      1848.7203      148.51452      297.00881      0.18946155   
    125000   506.54289      1346.5084      1853.0512      83.566504      301.35133      0.19166674   
    126000   488.20849      1337.5338      1825.7423      115.41336      299.34281      0.19054267   
    127000   506.4977       1300.3919      1806.8896      153.24834      291.03038      0.18543938   
    128000   505.12084      1338.2577      1843.3786      166.45499      299.50483      0.17967836   
    129000   519.55196      1339.2284      1858.7803      156.60516      299.72206      0.17687795   
    130000   509.08058      1342.3871      1851.4676      193.67891      300.42898      0.17804668   
    131000   513.47665      1360.2002      1873.6769      234.88069      304.4156       0.18113571   
    132000   529.63266      1335.7129      1865.3456      203.67725      298.93529      0.1861227    
    133000   470.15992      1339.9218      1810.0817      154.2714       299.87725      0.19269706   
    134000   482.69816      1303.9959      1786.694       87.521235      291.83696      0.19661709   
    135000   485.02769      1337.7831      1822.8108      45.312137      299.39861      0.19691409   
    136000   491.06744      1325.9875      1817.055       23.494675      296.75873      0.19192802   
    137000   497.254        1332.7947      1830.0487      31.141384      298.2822       0.18314889   
    138000   483.35595      1347.7881      1831.1441      73.648245      301.63775      0.17845885   
    139000   484.73663      1338.4122      1823.1488      169.22161      299.5394       0.17822094   
    140000   518.16339      1272.8958      1791.0592      195.75372      284.87669      0.18008567   
    141000   514.16338      1269.9115      1784.0749      171.98678      284.20881      0.18221849   
    142000   503.40758      1303.9944      1807.402       119.58385      291.83663      0.18477788   
    143000   485.77634      1340.9012      1826.6775      42.65538       300.09644      0.18630182   
    144000   494.59108      1317.0783      1811.6694      51.064626      294.76482      0.18876166   
    145000   500.58087      1304.0103      1804.5912      142.64516      291.84018      0.19147359   
    146000   445.24832      1329.13        1774.3784      242.64016      297.46203      0.19137069   
    147000   515.45598      1287.7384      1803.1943      208.10391      288.19849      0.18572733   
    148000   511.71618      1315.8951      1827.6113      190.50886      294.50003      0.18135914   
    149000   515.56072      1327.8788      1843.4395      169.0869       297.18199      0.17971056   
    150000   498.16705      1327.0271      1825.1941      137.23143      296.99138      0.17499773   
    151000   513.25138      1273.3674      1786.6187      69.122661      284.98223      0.17451401   
    152000   499.5147       1305.1494      1804.6641      58.843311      292.09511      0.1798221    
    153000   477.33157      1340.5652      1817.8968      96.971379      300.02124      0.1881766    
    154000   497.24216      1323.3488      1820.5909      119.54798      296.16817      0.19080746   
    155000   510.24592      1282.9536      1793.1995      136.83954      287.12765      0.18841723   
    156000   542.08188      1298.7592      1840.8411      248.23801      290.66497      0.1843678    
    157000   494.93563      1355.512       1850.4477      235.15574      303.36637      0.17851798   
    158000   550.48527      1296.9302      1847.4155      195.13985      290.25565      0.17783803   
    159000   487.22225      1319.6844      1806.9066      71.246615      295.34807      0.180027     
    160000   496.91105      1332.4523      1829.3633      1.8924232      298.20556      0.18610792   
    161000   529.20437      1288.4254      1817.6298     -31.54639       288.35226      0.19150102   
    162000   498.72348      1330.882       1829.6055      64.130955      297.85413      0.19194747   
    163000   476.05336      1384.3568      1860.4101      155.9916       309.82189      0.18825605   
    164000   540.4632       1385.9022      1926.3654      321.20095      310.16776      0.18672947   
    165000   526.76529      1375.3395      1902.1048      352.49532      307.8038       0.18495809   
    166000   503.4253       1366.4916      1869.9169      291.88858      305.82364      0.18111035   
    167000   523.68888      1349.0093      1872.6982      178.67833      301.91106      0.17364188   
    168000   511.81907      1372.908       1884.7271      141.5151       307.25963      0.16989129   
    169000   528.48933      1395.1346      1923.624       137.82009      312.234        0.17445965   
    170000   526.03374      1355.3337      1881.3674      152.26222      303.32645      0.18372138   
    171000   507.52211      1369.0273      1876.5494      131.00251      306.39111      0.1886503    
    172000   471.02285      1361.3531      1832.3759      215.01683      304.67362      0.19207663   
    173000   466.46268      1357.925       1824.3877      214.58372      303.9064       0.19146523   
    174000   509.28821      1330.6853      1839.9735      154.67539      297.81009      0.18547749   
    175000   473.45472      1351.7884      1825.2431      150.28671      302.53302      0.18183872   
    176000   501.87641      1291.3434      1793.2198      137.07009      289.00531      0.17937093   
    177000   493.89935      1326.9553      1820.8547      145.08574      296.97533      0.18107702   
    178000   489.08206      1325.7531      1814.8351      159.44223      296.70626      0.18545841   
    179000   518.12118      1312.5377      1830.6589      144.52738      293.74864      0.18896109   
    180000   490.02533      1311.8308      1801.8561      132.87303      293.59042      0.19017914   
    181000   505.55645      1277.5085      1783.065       100.84445      285.90903      0.18917801   
    182000   510.67532      1292.7597      1803.435       161.83581      289.32226      0.18786763   
    183000   521.15029      1332.1013      1853.2516      190.69404      298.12701      0.18339794   
    184000   527.03975      1346.3689      1873.4086      226.22231      301.32012      0.18008231   
    185000   526.51192      1343.8641      1870.376       280.8998       300.75954      0.17948655   
    186000   516.57694      1358.0129      1874.5898      221.63098      303.92607      0.17968505   
    187000   502.49962      1370.2201      1872.7197      152.31973      306.65807      0.18114937   
    188000   510.26729      1371.6026      1881.8699      104.56393      306.96748      0.18358884   
    189000   546.77849      1372.2233      1919.0018      59.174571      307.10638      0.18463417   
    190000   524.0218       1364.4787      1888.5005      75.105055      305.37314      0.18414505   
    191000   507.96751      1357.307       1865.2745      179.30869      303.76809      0.18298349   
    192000   497.37765      1350.8056      1848.1833      204.90591      302.31307      0.1831415    
    193000   492.20368      1351.3814      1843.5851      305.4938       302.44193      0.18958582   
    194000   501.2979       1355.1138      1856.4117      293.81662      303.27726      0.19885673   
    195000   479.68117      1370.5432      1850.2243      268.53709      306.73037      0.19954759   
    196000   459.97057      1336.7526      1796.7232      167.78252      299.16797      0.19293768   
    197000   493.13924      1318.6186      1811.7578      140.20984      295.10955      0.18894634   
    198000   503.49428      1307.222       1810.7163      129.46503      292.55897      0.18781626   
    199000   496.22315      1332.1951      1828.4183      174.11041      298.148        0.18941733   
    200000   491.64156      1320.3058      1811.9474      116.67784      295.48715      0.1909708    
    201000   489.78118      1342.2483      1832.0295      97.508438      300.39792      0.19171051   
    202000   463.29418      1318.8168      1782.111       139.93425      295.15391      0.19078913   
    203000   500.32626      1330.1646      1830.4909      238.4331       297.69357      0.19111871   
    204000   509.99572      1316.0435      1826.0392      220.0099       294.53323      0.18680263   
    205000   490.98542      1281.6022      1772.5877      235.53575      286.82521      0.18100188   
    206000   539.60684      1327.906       1867.5128      148.60159      297.18809      0.1786534    
    207000   508.88064      1340.7734      1849.654       110.9964       300.06783      0.17844984   
    208000   509.175        1396.2349      1905.4099      115.19851      312.48024      0.17797796   
    209000   531.38498      1402.9092      1934.2942      77.743915      313.97396      0.17575818   
    210000   550.50042      1345.6242      1896.1246      42.146762      301.15346      0.17450841   
    211000   510.25424      1362.5321      1872.7863      133.38112      304.93748      0.17598075   
    212000   495.04868      1363.4926      1858.5413      189.36079      305.15244      0.18165272   
    213000   533.53433      1322.0075      1855.5418      216.03964      295.868        0.18548413   
    214000   490.72278      1320.1383      1810.8611      154.10511      295.44967      0.18461247   
    215000   515.28669      1295.3443      1810.631       137.80753      289.90072      0.18411265   
    216000   497.96329      1314.8978      1812.8611      119.12803      294.27683      0.18291569   
    217000   527.10823      1321.1076      1848.2159      95.622509      295.6666       0.17923417   
    218000   507.09237      1352.2913      1859.3837      86.858478      302.64557      0.17263665   
    219000   501.43376      1332.9929      1834.4266      105.82229      298.32654      0.17002763   
    220000   533.87803      1364.2363      1898.1143      117.07945      305.31888      0.17035897   
    221000   563.28334      1349.4546      1912.7379      115.58299      302.01071      0.17285404   
    222000   506.33019      1366.1973      1872.5275      178.75722      305.75776      0.18112741   
    223000   510.6141       1364.141       1874.7551      125.84386      305.29755      0.18606148   
    224000   519.98897      1387.2677      1907.2566      125.5494       310.47335      0.18591663   
    225000   509.97411      1371.6906      1881.6648      107.698        306.98718      0.18373378   
    226000   521.89457      1351.0766      1872.9712      177.89701      302.37372      0.18126752   
    227000   504.42185      1392.1337      1896.5555      175.77392      311.56237      0.17911978   
    228000   508.14017      1391.6041      1899.7442      210.03333      311.44385      0.17883976   
    229000   529.20716      1367.4476      1896.6547      161.16382      306.03757      0.17729953   
    230000   495.34049      1359.852       1855.1925      170.18739      304.33767      0.17706266   
    231000   530.47835      1361.1673      1891.6456      128.45253      304.63202      0.18078506   
    232000   476.77085      1315.1248      1791.8957      142.12051      294.32763      0.18861515   
    233000   476.44677      1334.894       1811.3407      173.97972      298.75201      0.19467259   
    234000   480.13218      1339.7865      1819.9187      224.22846      299.84697      0.19724748   
    235000   472.77733      1327.5555      1800.3329      222.43594      297.10965      0.19520548   
    236000   499.80236      1325.3012      1825.1036      244.94087      296.60514      0.19495476   
    237000   478.1882       1302.9807      1781.1689      177.91921      291.60975      0.19343858   
    238000   509.13499      1314.5618      1823.6968      58.600281      294.20164      0.18569859   
    239000   510.13655      1322.5478      1832.6843     -12.173421      295.9889       0.17866008   
    240000   514.11673      1320.2307      1834.3475      38.156377      295.47035      0.17702985   
    241000   471.32688      1351.5558      1822.8827      91.117772      302.48096      0.17754157   
    242000   486.53957      1323.8427      1810.3823      179.27455      296.27872      0.18026519   
    243000   513.37719      1379.7533      1893.1305      299.22101      308.79163      0.18261038   
    244000   488.85645      1374.0962      1862.9527      334.00703      307.52556      0.18212824   
    245000   528.4524       1326.2914      1854.7438      334.93203      296.82674      0.18210987   
    246000   510.49608      1345.8595      1856.3556      220.1055       301.20612      0.18296836   
    247000   491.85655      1347.4946      1839.3512      122.96777      301.57206      0.18415157   
    248000   509.20434      1350.1537      1859.3581      79.415188      302.16718      0.1876157    
    249000   505.65544      1356.1637      1861.8191      9.0248374      303.51222      0.18928082   
    250000   503.03926      1385.005       1888.0442      65.333764      309.96696      0.18695233   
    251000   543.38392      1392.133       1935.5169      93.284681      311.56222      0.17897636   
    252000   548.39165      1374.0549      1922.4466      132.86659      307.51631      0.17392366   
    253000   516.03931      1371.5895      1887.6288      178.07915      306.96454      0.17538974   
    254000   528.11989      1342.3814      1870.5013      138.15566      300.42772      0.18341643   
    255000   489.79165      1383.8721      1873.6637      130.69698      309.71341      0.1888969    
    256000   492.66269      1362.518       1855.1807      133.60508      304.93432      0.1911769    
    257000   472.49397      1329.0489      1801.5429      144.00391      297.44388      0.19234931   
    258000   511.37509      1337.8209      1849.1959      118.16658      299.40705      0.19315388   
    259000   505.87487      1364.4236      1870.2984      85.256813      305.3608       0.1894473    
    260000   499.97431      1392.3629      1892.3372      99.67024       311.61367      0.18318429   
    261000   517.66298      1362.0116      1879.6746      104.02229      304.82099      0.17740169   
    262000   509.89579      1366.9403      1876.8361      107.61445      305.92405      0.1760174    
    263000   518.99163      1402.6874      1921.6791      141.59284      313.92433      0.18148054   
    264000   500.41807      1399.3191      1899.7371      129.12958      313.17048      0.18548096   
    265000   497.3491       1349.7206      1847.0697      125.24069      302.07025      0.18847316   
    266000   503.8233       1351.0921      1854.9154      111.51303      302.37719      0.19278068   
    267000   504.31946      1358.1962      1862.5156      195.46         303.96709      0.19305703   
    268000   512.23713      1344.6718      1856.9089      129.17205      300.94031      0.18924306   
    269000   498.08599      1341.5252      1839.6112      132.58201      300.2361       0.1833217    
    270000   522.56417      1328.1021      1850.6663      208.52309      297.23198      0.17946751   
    271000   528.28564      1320.4552      1848.7408      194.99837      295.52058      0.17835389   
    272000   513.91422      1308.76        1822.6742      141.84008      292.90317      0.18046974   
    273000   546.72068      1300.931       1847.6517      143.21774      291.15102      0.18288275   
    274000   487.11291      1310.9691      1798.082       137.90233      293.39757      0.18464033   
    275000   470.71676      1271.4926      1742.2094      149.11773      284.56266      0.18776005   
    276000   492.2382       1311.1217      1803.3599      182.86482      293.43174      0.19131308   
    277000   512.86472      1312.1256      1824.9903      144.9232       293.65641      0.19063033   
    278000   516.00323      1305.7634      1821.7666      134.7948       292.23252      0.18682407   
    279000   499.85448      1298.8605      1798.715       157.38585      290.68764      0.18259721   
    280000   497.94926      1385.2249      1883.1742      210.81857      310.01618      0.18149904   
    281000   513.01859      1369.6279      1882.6465      241.6833       306.52554      0.18007335   
    282000   531.17762      1357.4819      1888.6596      202.60574      303.80725      0.17789399   
    283000   531.38895      1339.9125      1871.3014      172.57394      299.87516      0.17891663   
    284000   499.14395      1385.5402      1884.6841      121.37293      310.08673      0.18394913   
    285000   519.71537      1396.5396      1916.255       132.58956      312.54843      0.19055455   
    286000   515.06807      1347.3427      1862.4108      190.61634      301.53806      0.1930966    
    287000   490.75414      1346.359       1837.1131      224.5854       301.3179       0.19229909   
    288000   483.21683      1349.9552      1833.172       297.6217       302.12274      0.19129504   
    289000   483.60861      1322.8315      1806.4401      301.03989      296.05241      0.18861203   
    290000   524.38423      1315.1857      1839.5699      235.86252      294.34126      0.18116456   
    291000   483.70958      1363.6476      1847.3572      239.34085      305.18713      0.17407276   
    292000   521.46835      1345.5174      1866.9857      164.50437      301.12955      0.17348984   
    293000   509.74533      1341.9744      1851.7197      104.9757       300.33662      0.17838709   
    294000   470.40999      1367.7609      1838.1708      93.548745      306.10769      0.18308996   
    295000   474.71289      1326.8233      1801.5362      156.96577      296.94577      0.18590168   
    296000   496.97659      1289.9969      1786.9735      168.9707       288.70395      0.18628606   
    297000   496.80427      1318.6909      1815.4952      205.18217      295.12573      0.18739361   
    298000   495.54639      1342.7952      1838.3415      267.20632      300.52031      0.18718567   
    299000   506.86822      1346.4658      1853.3341      232.61918      301.34182      0.18536642   
    300000   520.93025      1372.5724      1893.5026      133.99608      307.18451      0.18142995   
    301000   520.85029      1344.0401      1864.8904      57.928175      300.79893      0.17542506   
    302000   510.00932      1371.0484      1881.0577      61.441895      306.84344      0.16901798   
    303000   545.80416      1324.048       1869.8522      48.229364      296.32467      0.16354645   
    304000   564.67225      1306.3329      1871.0052      91.359857      292.35999      0.1647873    
    305000   524.70885      1289.1737      1813.8825      78.758918      288.51971      0.17154231   
    306000   508.52033      1343.8608      1852.3811      61.892341      300.7588       0.17900114   
    307000   508.58192      1363.8346      1872.4166      35.319156      305.22899      0.17931725   
    308000   549.08484      1318.3248      1867.4096      78.372473      295.0438       0.17708955   
    309000   515.07287      1348.184       1863.2569      170.04654      301.72634      0.17525207   
    310000   537.74004      1350.2854      1888.0255      247.22375      302.19665      0.17564732   
    311000   512.9838       1369.7536      1882.7374      326.59156      306.55367      0.1792404    
    312000   524.55687      1385.397       1909.9539      381.30544      310.05469      0.18635654   
    313000   509.42752      1363.4222      1872.8497      329.30346      305.13669      0.18975039   
    314000   502.63244      1334.7646      1837.3971      148.81723      298.72306      0.1877244    
    315000   498.66365      1328.8827      1827.5464     -16.636869      297.40669      0.18358045   
    316000   528.29854      1327.2466      1855.5451     -60.95565       297.04051      0.17633725   
    317000   521.18526      1319.8275      1841.0128      16.467367      295.38011      0.16948236   
    318000   531.38547      1337.1388      1868.5243      116.45967      299.25442      0.17133349   
    319000   503.75181      1350.0135      1853.7653      186.38299      302.13579      0.17731639   
    320000   518.81697      1335.7419      1854.5589      174.78334      298.94179      0.18355045   
    321000   500.88098      1355.1869      1856.0678      158.01162      303.2936       0.18714278   
    322000   502.21563      1339.341       1841.5566      50.008171      299.74726      0.18614704   
    323000   497.4393       1342.5209      1839.9602      82.250256      300.45894      0.18532888   
    324000   489.27638      1361.6464      1850.9228      93.55387       304.73925      0.18439606   
    325000   463.72422      1373.1806      1836.9048      141.75152      307.32064      0.18342113   
    326000   525.32818      1344.4967      1869.8248      176.16842      300.90111      0.18071171   
    327000   487.59159      1367.5573      1855.1489      185.84374      306.06214      0.17873419   
    328000   475.62036      1389.8239      1865.4443      224.95168      311.04545      0.1817156    
    329000   492.13508      1371.3509      1863.486       163.73065      306.91115      0.18773761   
    330000   476.65793      1349.2948      1825.9528      113.56793      301.97496      0.19210019   
    331000   484.89162      1377.1204      1862.012       128.65854      308.20238      0.19456939   
    332000   490.09602      1349.8597      1839.9557      117.62219      302.10137      0.19049898   
    333000   493.89657      1365.4053      1859.3019      129.13054      305.58051      0.18448079   
    334000   511.66921      1383.3609      1895.0301      217.316        309.59901      0.18105415   
    335000   537.91875      1413.4853      1951.4041      284.28634      316.34092      0.18215147   
    336000   529.73101      1360.85        1890.581       282.16611      304.56102      0.18417679   
    337000   519.16771      1356.9816      1876.1493      214.07408      303.69527      0.18586228   
    338000   507.89121      1351.5238      1859.415       147.74933      302.47381      0.18827279   
    339000   502.24498      1340.4148      1842.6598      55.559897      299.98759      0.18947904   
    340000   520.62624      1356.6441      1877.2703      56.58857       303.61973      0.18861153   
    341000   488.98187      1392.9909      1881.9728      86.557993      311.75423      0.1851969    
    342000   500.25257      1355.3165      1855.5691      155.12629      303.32262      0.18199574   
    343000   538.24379      1358.0115      1896.2553      174.70424      303.92575      0.17936842   
    344000   486.4867       1394.3429      1880.8296      260.65333      312.05681      0.18151063   
    345000   499.91234      1339.2666      1839.1789      271.64127      299.73061      0.18608401   
    346000   516.73777      1325.1031      1841.8408      227.45799      296.56078      0.18867193   
    347000   512.54401      1306.8499      1819.394       194.6391       292.4757       0.19013035   
    348000   496.15054      1300.0665      1796.2171      148.43224      290.95756      0.19038214   
    349000   480.99596      1301.7468      1782.7427      135.09067      291.3336       0.18785523   
    350000   506.34365      1351.9693      1858.3129      188.74502      302.5735       0.18338047   
    351000   511.16274      1338.5269      1849.6896      238.1531       299.56507      0.18031604   
    352000   510.27345      1361.3178      1871.5913      237.21214      304.66572      0.17774937   
    353000   513.70342      1352.4994      1866.2028      127.43526      302.69213      0.17507729   
    354000   530.77251      1338.8972      1869.6697      121.20179      299.64794      0.17707201   
    355000   514.73018      1349.0313      1863.7615      89.307309      301.91597      0.18015548   
    356000   498.35952      1360.9313      1859.2908      94.271604      304.57921      0.18498616   
    357000   513.78072      1370.8698      1884.6505      101.04226      306.80347      0.18975021   
    358000   505.44975      1413.0442      1918.4939      168.79157      316.24219      0.192021     
    359000   496.92095      1364.0947      1861.0156      183.31955      305.28718      0.18945585   
    360000   517.64075      1335.6128      1853.2536      168.78597      298.9129       0.18175912   
    361000   500.47488      1351.7676      1852.2425      179.08588      302.52836      0.17472402   
    362000   513.06848      1391.1354      1904.2038      147.54861      311.33895      0.17395736   
    363000   536.11439      1356.3826      1892.497       133.30562      303.56122      0.17788464   
    364000   514.35461      1354.1509      1868.5055      92.670389      303.06175      0.18135319   
    365000   494.85168      1356.8904      1851.7421      46.612268      303.67485      0.18448569   
    366000   511.64484      1370.9952      1882.64        108.37719      306.83153      0.18523835   
    367000   519.8348       1336.7887      1856.6235      214.48474      299.17606      0.18483574   
    368000   501.33371      1355.941       1857.2747      216.54066      303.46238      0.18191358   
    369000   514.84037      1339.6962      1854.5366      221.84405      299.82676      0.17926808   
    370000   521.18707      1362.4323      1883.6194      168.94807      304.91514      0.17861849   
    371000   505.05355      1396.995       1902.0485      152.11752      312.65035      0.18243223   
    372000   498.58687      1392.1418      1890.7286      97.106364      311.56419      0.18813186   
    373000   511.33248      1364.2501      1875.5825      85.197283      305.32196      0.19327074   
    374000   519.24953      1344.4391      1863.6886      66.923228      300.88823      0.19495767   
    375000   529.90851      1393.8856      1923.7941      151.66833      311.95445      0.19546864   
    376000   506.33982      1371.1541      1877.4939      271.86532      306.8671       0.19132292   
    377000   513.09279      1352.1958      1865.2886      286.62092      302.62419      0.1834885    
    378000   505.21194      1331.0047      1836.2166      288.34         297.88159      0.17756614   
    379000   495.90818      1342.7725      1838.6806      282.04312      300.51523      0.17820316   
    380000   473.57167      1313.1584      1786.73        206.92941      293.88754      0.18334167   
    381000   478.87955      1332.3298      1811.2093      110.32954      298.17814      0.18883313   
    382000   483.71094      1287.5187      1771.2296      31.371082      288.14932      0.19154145   
    383000   499.62139      1308.1266      1807.748       97.598481      292.76141      0.19312856   
    384000   491.08776      1313.5706      1804.6584      144.04393      293.9798       0.19146801   
    385000   523.50346      1319.5187      1843.0222      179.38004      295.311        0.18668606   
    386000   500.95509      1337.3453      1838.3004      144.9357       299.30063      0.18272443   
    387000   512.75195      1341.9082      1854.6602      205.031        300.32182      0.18507331   
    388000   505.70716      1329.678       1835.3851      236.31568      297.58466      0.18902683   
    389000   503.93725      1316.6916      1820.6289      288.17963      294.67828      0.19015524   
    390000   501.41759      1362.4693      1863.8869      226.01466      304.92343      0.1894614    
    391000   501.09567      1360.5452      1861.6409      168.76395      304.49281      0.18859706   
    392000   507.97233      1360.1737      1868.1461      99.867509      304.40967      0.18670023   
    393000   487.21536      1353.089       1840.3044      186.51732      302.8241       0.18652227   
    394000   505.34523      1359.421       1864.7663      217.63878      304.24122      0.18593167   
    395000   527.53103      1367.5815      1895.1125      223.87014      306.06754      0.18470941   
    396000   497.26703      1347.4787      1844.7458      204.09296      301.56851      0.18014732   
    397000   512.30232      1336.1682      1848.4706      176.80663      299.0372       0.17799153   
    398000   513.37346      1327.0927      1840.4662      171.07116      297.00607      0.18023349   
    399000   477.03085      1305.4474      1782.4782      130.52568      292.16181      0.18598007   
    400000   485.87658      1301.9201      1787.7966      150.15711      291.37238      0.19300122   
Loop time of 1782.95 on 8 procs for 400000 steps with 1500 atoms

Performance: 9.692 ns/day, 2.476 hours/ns, 224.347 timesteps/s, 336.521 katom-step/s
99.4% CPU use with 8 MPI tasks x 1 OpenMP threads

MPI task timing breakdown:
Section |  min time  |  avg time  |  max time  |%varavg| %total
---------------------------------------------------------------
Pair    | 83.975     | 85.652     | 87.335     |  10.8 |  4.80
Bond    | 4.3689     | 4.4757     | 4.5643     |   2.5 |  0.25
Kspace  | 745        | 746.67     | 748.52     |   4.0 | 41.88
Neigh   | 1.4114     | 1.415      | 1.4183     |   0.2 |  0.08
Comm    | 34.956     | 35.297     | 35.655     |   3.7 |  1.98
Output  | 0.017579   | 0.019039   | 0.029023   |   2.7 |  0.00
Modify  | 879.2      | 893.46     | 903.14     |  28.8 | 50.11
Other   |            | 15.96      |            |       |  0.90

Nlocal:          187.5 ave         222 max         146 min
Histogram: 1 0 0 1 1 2 1 1 0 1
Nghost:         1860.5 ave        1933 max        1805 min
Histogram: 2 2 0 0 0 0 3 0 0 1
Neighs:        16502.5 ave       21526 max       12317 min
Histogram: 1 0 1 2 0 3 0 0 0 1

Total # of neighbors = 132020
Ave neighs/atom = 88.013333
Ave special neighs/atom = 2
Neighbor list builds = 2461
Dangerous builds = 0
PPPM initialization ...
  using 12-bit tables for long-range coulomb (src/kspace.cpp:342)
  G vector (1/distance) = 0.27156777
  grid = 48 48 48
  stencil order = 5
  estimated absolute RMS force accuracy = 0.00034395313
  estimated relative force accuracy = 1.0358046e-06
  using single precision FFTW3
  3d grid and FFT values/proc = 29791 13824
Generated 1 of 1 mixed pair_coeff terms from arithmetic mixing rule
Last active /omp style is kspace_style pppm/omp
Setting up Verlet run ...
  Unit style    : real
  Current step  : 0
  Time step     : 0.5
Per MPI rank memory allocation (min/avg/max) = 8.484 | 8.485 | 8.486 Mbytes
   Step         PotEng         KinEng         TotEng         Press           Temp        v_Density   
         0   485.87572      1301.9201      1787.7958      150.1563       291.37238      0.19300122   
      1000   525.08435      1310.184       1835.2683      76.559876      293.22186      0.18953569   
      2000   513.81062      1323.4781      1837.2887      26.477828      296.19711      0.18326483   
      3000   513.5309       1305.5508      1819.0817      52.206421      292.18494      0.1803182    
      4000   508.21861      1340.6755      1848.8941      36.208974      300.04593      0.18022981   
      5000   499.33636      1345.386       1844.7224      91.354464      301.10015      0.18384893   
      6000   471.69954      1351.793       1823.4926      206.58543      302.53406      0.18833214   
      7000   504.00174      1356.0873      1860.0891      250.25962      303.49513      0.19056119   
      8000   506.68303      1364.4161      1871.0991      347.76266      305.35912      0.19179788   
      9000   492.93978      1349.1992      1842.1389      313.36521      301.95354      0.1917812    
     10000   528.25922      1324.6478      1852.907       267.79017      296.45889      0.18979536   
     11000   513.8207       1397.443       1911.2637      163.69427      312.75062      0.18615865   
     12000   524.10907      1370.377       1894.4861      101.23947      306.69319      0.18278899   
     13000   519.98701      1363.2582      1883.2452      60.419494      305.09997      0.18059955   
     14000   519.94257      1348.3195      1868.2621      86.428153      301.75668      0.18416171   
     15000   516.49639      1390.0904      1906.5868      185.7421       311.1051       0.19083552   
     16000   506.28497      1388.7769      1895.0618      245.51865      310.81111      0.19166548   
     17000   494.41356      1358.349       1852.7625      255.34909      304.00129      0.18668596   
     18000   530.22719      1362.7242      1892.9514      220.18609      304.98048      0.18084283   
     19000   523.09769      1346.5349      1869.6326      158.45531      301.35727      0.1789345    
     20000   528.78572      1357.997       1886.7827      129.35143      303.92251      0.18310588   
     21000   505.2484       1349.8676      1855.116       117.73079      302.10314      0.18611106   
     22000   494.6901       1337.3562      1832.0463      111.85099      299.30307      0.18461938   
     23000   495.56331      1316.3723      1811.9356      110.24525      294.60682      0.18166993   
     24000   500.3701       1328.3986      1828.7687      98.806547      297.29834      0.1799817    
     25000   524.82776      1313.1511      1837.9788      123.06514      293.88591      0.18049864   
     26000   517.807        1295.239       1813.046       133.24351      289.87714      0.18266694   
     27000   487.1345       1340.5163      1827.6508      179.59754      300.0103       0.18408228   
     28000   484.05499      1322.593       1806.648       237.93308      295.99904      0.18398485   
     29000   504.79995      1338.3603      1843.1603      165.87438      299.52779      0.18435282   
     30000   512.66443      1328.0488      1840.7132      148.27377      297.22004      0.18551225   
     31000   536.52687      1353.4727      1889.9996      235.20178      302.90997      0.18704084   
     32000   505.20021      1346.0984      1851.2986      205.63098      301.25958      0.18472129   
     33000   520.67006      1333.0517      1853.7218      139.54577      298.33972      0.18156925   
     34000   520.23288      1345.3318      1865.5646      139.93777      301.08801      0.18285182   
     35000   521.56369      1369.7144      1891.2781      96.085989      306.54489      0.18669161   
     36000   522.22084      1387.6092      1909.83        109.04154      310.54979      0.19083595   
     37000   476.85874      1372.5723      1849.431       73.913833      307.1845       0.18857383   
     38000   556.82749      1322.7627      1879.5902      67.567108      296.03701      0.17966157   
     39000   528.29235      1364.8123      1893.1047      179.57155      305.4478       0.17614959   
     40000   503.89167      1361.4934      1865.385       202.61771      304.70501      0.17623662   
     41000   499.25124      1361.2046      1860.4558      214.71337      304.64037      0.17989485   
     42000   530.17874      1368.8181      1898.9968      197.97753      306.3443       0.18526576   
     43000   504.45695      1347.0893      1851.5462      135.68019      301.48134      0.18857239   
     44000   504.69807      1338.6164      1843.3145      104.08724      299.5851       0.19198718   
     45000   479.02194      1372.8544      1851.8764      150.02772      307.24764      0.19536855   
     46000   476.20909      1368.8932      1845.1023      193.32959      306.36111      0.19640936   
     47000   487.91548      1391.2781      1879.1936      263.88048      311.3709       0.19469102   
     48000   518.79354      1356.1946      1874.9881      235.6215       303.51913      0.18396535   
     49000   526.20052      1352.3258      1878.5263      222.96231      302.65329      0.17776853   
     50000   502.37147      1362.2144      1864.5859      208.81352      304.86638      0.17825082   
     51000   508.01488      1366.3961      1874.411       144.81195      305.80226      0.17886918   
     52000   538.54943      1351.5913      1890.1408      112.5205       302.48892      0.18210519   
     53000   507.77678      1362.8062      1870.583       136.87145      304.99883      0.18526286   
     54000   518.70248      1372.2632      1890.9657      196.40822      307.11532      0.18781498   
     55000   509.24251      1398.3008      1907.5433      260.16105      312.94258      0.18947054   
     56000   506.39726      1372.1701      1878.5673      270.03448      307.09448      0.18782946   
     57000   484.80181      1364.1933      1848.9951      321.34088      305.30925      0.18782592   
     58000   518.87277      1353.41        1872.2827      218.4247       302.89593      0.1840821    
     59000   509.08568      1379.8546      1888.9403      139.60514      308.8143       0.17957842   
     60000   546.75095      1315.4753      1862.2262      91.447537      294.40607      0.17762927   
     61000   495.94824      1332.2141      1828.1624      75.215004      298.15226      0.17865079   
     62000   486.96543      1332.0796      1819.0451      79.396857      298.12216      0.18422629   
     63000   499.91684      1309.7118      1809.6287      182.36579      293.1162       0.19292753   
     64000   472.43783      1304.7472      1777.185       171.38538      292.00511      0.193747     
     65000   472.82251      1333.7124      1806.5349      248.30154      298.48757      0.19267119   
     66000   493.54899      1328.6483      1822.1972      259.74545      297.35421      0.18882909   
     67000   508.80026      1336.2365      1845.0367      190.59313      299.05246      0.18447883   
     68000   508.49968      1331.5904      1840.0901      126.44353      298.01267      0.18322433   
     69000   504.87828      1349.3319      1854.2102      53.375016      301.98326      0.18464286   
     70000   512.33724      1348.8988      1861.2361      12.132657      301.88633      0.18552176   
     71000   494.33034      1334.0188      1828.3491      45.779022      298.55614      0.18581489   
     72000   496.30761      1353.8216      1850.1292      68.753889      302.98805      0.1858491    
     73000   494.12085      1359.0997      1853.2205      123.54048      304.1693       0.19070555   
     74000   493.99051      1320.6909      1814.6814      177.51336      295.57332      0.19718268   
     75000   461.7428       1356.255       1817.9978      206.67636      303.53266      0.20003462   
     76000   473.6249       1369.9703      1843.5952      200.73401      306.60216      0.19521856   
     77000   500.38376      1364.5316      1864.9153      165.35516      305.38497      0.18655353   
     78000   490.74177      1369.8876      1860.6294      181.79084      306.58366      0.18173009   
     79000   528.56177      1355.3382      1883.9         125.69365      303.32747      0.18192217   
     80000   534.0901       1342.1835      1876.2736      86.843843      300.38342      0.18465203   
     81000   493.03013      1380.5974      1873.6275      103.79055      308.98052      0.18989409   
     82000   495.32447      1390.4413      1885.7658      149.63639      311.18363      0.19596864   
     83000   497.18687      1377.9437      1875.1305      101.71289      308.38662      0.19829701   
     84000   496.78331      1355.0541      1851.8375      163.54234      303.2639       0.19876977   
     85000   476.19813      1343.3792      1819.5773      207.84494      300.65101      0.19708356   
     86000   498.32431      1323.6093      1821.9336      127.80398      296.22648      0.19324128   
     87000   509.98216      1308.9452      1818.9274      49.542701      292.94463      0.18784126   
     88000   531.58293      1303.6505      1835.2334      96.996787      291.75965      0.18289711   
     89000   491.74529      1325.5012      1817.2465      117.521        296.6499       0.17494238   
     90000   483.57431      1304.0155      1787.5898      116.45017      291.84135      0.16861121   
     91000   497.53776      1319.1236      1816.6613      150.93293      295.22256      0.16964485   
     92000   503.56908      1327.6346      1831.2037      160.80914      297.12735      0.17609002   
     93000   512.32696      1294.0835      1806.4104      150.54507      289.61853      0.18168705   
     94000   481.1486       1349.262       1830.4106      134.94389      301.96761      0.18482094   
     95000   503.93475      1352.6035      1856.5382      127.57551      302.71543      0.18780174   
     96000   507.53947      1339.8959      1847.4354      55.719222      299.87145      0.18858567   
     97000   519.83034      1320.5604      1840.3908      49.704027      295.54413      0.18770682   
     98000   520.70699      1346.8701      1867.5771      94.054733      301.43229      0.18586898   
     99000   551.24095      1321.6179      1872.8589      92.534977      295.7808       0.18122896   
    100000   541.82561      1316.582       1858.4076      149.9463       294.65374      0.17960707   
    101000   518.88493      1349.4177      1868.3027      209.32548      302.00246      0.18136422   
    102000   514.32386      1369.1903      1883.5142      166.49333      306.42761      0.1857752    
    103000   492.10983      1359.412       1851.5218      194.08413      304.23919      0.19180444   
    104000   495.91393      1365.3503      1861.2643      112.57582      305.56821      0.1941317    
    105000   483.34195      1346.2165      1829.5584      68.26357       301.28601      0.19125756   
    106000   514.9412       1324.6341      1839.5753      91.51916       296.45582      0.18631548   
    107000   489.12818      1302.2089      1791.3371      130.28663      291.43703      0.18091059   
    108000   488.15096      1334.2348      1822.3857      160.38997      298.60448      0.17866399   
    109000   525.77173      1319.7641      1845.5359      152.44842      295.36592      0.17985474   
    110000   530.0583       1319.2765      1849.3348      176.14931      295.25678      0.18541713   
    111000   492.20733      1367.8504      1860.0577      258.55903      306.12772      0.19351912   
    112000   473.65353      1363.2624      1836.9159      212.1214       305.10091      0.19705158   
    113000   497.7761       1354.9412      1852.7173      117.13027      303.23862      0.1956567    
    114000   491.47914      1344.4175      1835.8967      53.525276      300.8834       0.19225823   
    115000   504.05541      1341.4009      1845.4563      70.241767      300.20828      0.18826894   
    116000   524.9692       1331.4479      1856.4171      113.6525       297.98078      0.18627148   
    117000   513.22829      1335.7263      1848.9546      148.16205      298.93829      0.18546084   
    118000   494.79362      1382.1222      1876.9158      182.55462      309.32178      0.18774418   
    119000   489.96634      1376.028       1865.9944      167.18627      307.95789      0.19007124   
    120000   506.33461      1369.5587      1875.8933      154.73183      306.51006      0.19131184   
    121000   512.65579      1333.3105      1845.9663      148.9669       298.39764      0.18901431   
    122000   497.34481      1363.1064      1860.4512      169.62832      305.066        0.185012     
    123000   488.99351      1360.011       1849.0045      186.00938      304.37325      0.18194778   
    124000   515.11495      1336.3799      1851.4949      178.97057      299.08457      0.17878347   
    125000   502.0273       1336.575       1838.6023      185.47355      299.12822      0.1779138    
    126000   522.69115      1333.285       1855.9762      147.44293      298.39192      0.17927162   
    127000   507.13459      1345.7734      1852.908       175.53553      301.18685      0.18584812   
    128000   488.20838      1310.3312      1798.5396      210.71079      293.25482      0.19122069   
    129000   465.45155      1337.8106      1803.2621      198.09043      299.40475      0.1924988    
    130000   476.18447      1330.7964      1806.9809      191.26562      297.83497      0.18934807   
    131000   490.76561      1344.4135      1835.1792      207.04996      300.88251      0.18699594   
    132000   514.91491      1325.7554      1840.6703      200.85637      296.70677      0.18826938   
    133000   468.91106      1354.6468      1823.5579      242.40976      303.17274      0.18958222   
    134000   505.04696      1331.785       1836.832       207.26533      298.05622      0.1870971    
    135000   520.365        1343.6772      1864.0422      202.29594      300.71771      0.18388496   
    136000   523.24005      1368.3488      1891.5889      198.2448       306.23927      0.17995063   
    137000   540.59745      1381.7389      1922.3363      145.25544      309.236        0.17658502   
    138000   497.82465      1342.2049      1840.0295      121.12139      300.38821      0.17609121   
    139000   514.98007      1339.2439      1854.2239      120.75281      299.72553      0.1800664    
    140000   520.65315      1304.1967      1824.8498      112.08813      291.88189      0.1866982    
    141000   497.83907      1342.5255      1840.3645      227.49433      300.45996      0.19215005   
    142000   487.80292      1362.9726      1850.7755      257.65311      305.03607      0.19311147   
    143000   495.40759      1323.5545      1818.9621      297.9571       296.21421      0.19414533   
    144000   490.9734       1384.187       1875.1604      295.16323      309.7839       0.19344314   
    145000   498.05098      1369.5909      1867.6419      149.10258      306.51726      0.18768586   
    146000   500.19282      1367.4728      1867.6657      133.46434      306.04323      0.18159535   
    147000   524.13704      1359.6003      1883.7373      149.47513      304.28134      0.17897522   
    148000   543.5922       1347.1221      1890.7143      143.61084      301.4887       0.17847929   
    149000   533.55289      1389.2051      1922.758       145.57675      310.90696      0.18051995   
    150000   519.43755      1380.9272      1900.3648      146.66692      309.05434      0.1836178    
    151000   527.14108      1340.8462      1867.9873      161.13356      300.08413      0.18463374   
    152000   507.91081      1333.6487      1841.5595      163.87657      298.47331      0.18725997   
    153000   501.97003      1328.0886      1830.0586      164.08283      297.22895      0.19331088   
    154000   491.40261      1321.7453      1813.1479      130.82577      295.80932      0.19791186   
    155000   496.67066      1299.4301      1796.1008      86.369511      290.81512      0.20167829   
    156000   460.16573      1271.4104      1731.5761      115.29745      284.54425      0.20286876   
    157000   485.70118      1319.3806      1805.0818      129.07932      295.2801       0.20037545   
    158000   496.62593      1306.4725      1803.0984      142.08236      292.39122      0.19082574   
    159000   517.09392      1327.3095      1844.4034      127.84917      297.05459      0.18128782   
    160000   496.88158      1337.9073      1834.7889      125.51933      299.4264       0.17965221   
    161000   500.48355      1313.34        1813.8235      108.33565      293.92819      0.1801235    
    162000   517.55748      1311.1589      1828.7164      135.25253      293.44006      0.18126232   
    163000   506.85467      1325.9186      1832.7733      184.78048      296.74331      0.18392177   
    164000   476.35276      1372.9227      1849.2755      257.04842      307.26292      0.18992187   
    165000   502.10063      1321.987       1824.0876      226.34103      295.86341      0.19432055   
    166000   487.96044      1334.1354      1822.0958      206.28357      298.58223      0.19533142   
    167000   490.0101       1239.3149      1729.325       141.58287      277.36121      0.19147508   
    168000   468.35409      1338.2916      1806.6457      100.1625       299.51241      0.18320225   
    169000   522.77596      1304.2663      1827.0422      41.498688      291.89746      0.17561653   
    170000   546.73125      1303.1117      1849.843       79.299677      291.63908      0.17553048   
    171000   496.23698      1320.0897      1816.3267      121.56694      295.43878      0.17542638   
    172000   544.07741      1310.0004      1854.0778      141.41278      293.18077      0.17709061   
    173000   509.74355      1329.7969      1839.5404      178.66527      297.61127      0.1813189    
    174000   518.79542      1357.7398      1876.5352      208.48739      303.86494      0.18748205   
    175000   504.3315       1356.3473      1860.6788      193.39905      303.55331      0.18928426   
    176000   493.11179      1350.719       1843.8308      152.50387      302.29368      0.18687228   
    177000   527.257        1337.2766      1864.5336      101.98153      299.28525      0.18433051   
    178000   503.58648      1357.014       1860.6005      103.61277      303.70251      0.18374068   
    179000   530.17407      1361.431       1891.6051      113.05511      304.69106      0.18408972   
    180000   523.99086      1354.3986      1878.3894      158.62991      303.11718      0.18538328   
    181000   556.426        1313.3547      1869.7807      149.38743      293.93147      0.18538271   
    182000   544.10805      1346.3867      1890.4947      112.59669      301.3241       0.18467089   
    183000   542.43489      1372.3119      1914.7468      158.9962       307.12622      0.18441273   
    184000   509.75576      1355.3885      1865.1442      138.75199      303.33872      0.1840118    
    185000   501.30388      1382.3185      1883.6224      176.18167      309.36571      0.18197425   
    186000   507.8335       1356.203       1864.0365      174.37132      303.52101      0.17782864   
    187000   550.85826      1344.1356      1894.9938      126.92981      300.8203       0.17250658   
    188000   530.88953      1390.5231      1921.4126      123.45119      311.20192      0.17026149   
    189000   537.85828      1390.5465      1928.4048      136.4836       311.20716      0.17162969   
    190000   517.79995      1357.16        1874.96        176.1789       303.7352       0.17831643   
    191000   529.08601      1353.9109      1882.9969      185.36744      303.00804      0.18732241   
    192000   516.91155      1354.548       1871.4596      231.11292      303.15063      0.18933167   
    193000   510.28638      1344.6881      1854.9745      208.1289       300.94396      0.1893047    
    194000   512.4294       1355.1658      1867.5952      175.55755      303.28888      0.18957303   
    195000   504.05647      1362.9497      1867.0062      205.66082      305.03095      0.18879271   
    196000   486.39669      1360.4257      1846.8223      221.5197       304.46606      0.18454235   
    197000   526.60965      1328.2982      1854.9079      222.2782       297.27587      0.17927566   
    198000   517.3651       1319.6138      1836.9789      164.72058      295.33228      0.17499264   
    199000   509.95162      1309.3555      1819.3072      165.96262      293.03646      0.17686128   
    200000   481.02778      1326.6512      1807.679       141.21134      296.90726      0.18645894   
    201000   506.55253      1304.4214      1810.9739      71.64526       291.93218      0.19394856   
    202000   487.00371      1283.6615      1770.6653      84.39309       287.28609      0.19513699   
    203000   482.30315      1344.2131      1826.5162      106.3077       300.83765      0.19217987   
    204000   504.80013      1338.5082      1843.3083      172.3708       299.56088      0.18721765   
    205000   506.75705      1354.1029      1860.86        213.38525      303.05101      0.18455183   
    206000   473.50834      1353.5427      1827.0511      260.70877      302.92564      0.18637811   
    207000   492.18344      1350.3429      1842.5264      285.84348      302.20952      0.19306326   
    208000   499.66531      1346.2188      1845.8841      205.37695      301.28652      0.19431602   
    209000   519.41969      1322.4413      1841.861       138.97577      295.96508      0.18954393   
    210000   494.84266      1361.3012      1856.1439      102.54428      304.66201      0.18724406   
    211000   527.01763      1412.5116      1939.5292      115.74068      316.123        0.18589493   
    212000   508.52842      1391.4304      1899.9588      157.18022      311.40497      0.18293951   
    213000   524.75536      1351.8361      1876.5914      206.55079      302.54368      0.18113616   
    214000   545.01824      1347.2262      1892.2444      288.54058      301.51199      0.18438079   
    215000   509.45359      1398.5466      1908.0001      218.70241      312.99759      0.18821171   
    216000   510.04491      1402.4054      1912.4503      175.60261      313.86121      0.1951986    
    217000   485.62395      1381.3638      1866.9878      142.0825       309.15206      0.20328433   
    218000   471.15832      1348.1018      1819.2601      75.479005      301.70795      0.20752956   
    219000   501.36817      1328.576       1829.9442      52.708934      297.33804      0.20763688   
    220000   512.31748      1280.3906      1792.7081      63.047999      286.55405      0.20011202   
    221000   481.06722      1331.3499      1812.4171      144.7261       297.95883      0.1913019    
    222000   500.15565      1324.8968      1825.0525      225.20155      296.51462      0.18747983   
    223000   495.21644      1343.9079      1839.1243      346.37724      300.76934      0.18692227   
    224000   513.27069      1378.3766      1891.6472      398.12548      308.4835       0.18824834   
    225000   527.86208      1389.8882      1917.7503      359.96017      311.05984      0.19150565   
    226000   490.89595      1362.9625      1853.8585      241.44741      305.03381      0.19473063   
    227000   499.93574      1338.4436      1838.3794      185.90497      299.54643      0.19807616   
    228000   502.97594      1339.4483      1842.4242      147.15698      299.77127      0.20263199   
    229000   505.86457      1361.8104      1867.675       139.72053      304.77596      0.20286228   
    230000   506.77308      1338.508       1845.2811      174.02894      299.56085      0.19538282   
    231000   506.18313      1354.7421      1860.9252      176.86953      303.19406      0.18717901   
    232000   524.22842      1370.4067      1894.6351      169.50353      306.69983      0.18279994   
    233000   514.20989      1311.6137      1825.8236      172.67838      293.54184      0.18319439   
    234000   474.78316      1338.3241      1813.1073      112.5719       299.51968      0.18454645   
    235000   521.16368      1310.1666      1831.3303      103.95733      293.21798      0.19030977   
    236000   507.02781      1303.0076      1810.0354      59.425541      291.61577      0.19613019   
    237000   497.17286      1330.5471      1827.72        29.420598      297.77917      0.19515748   
    238000   483.16158      1307.4768      1790.6383      71.463196      292.61598      0.19200323   
    239000   498.30392      1314.7579      1813.0618      142.25116      294.24552      0.19043961   
    240000   499.15427      1332.292       1831.4463      244.79038      298.16968      0.18710303   
    241000   517.51845      1320.4579      1837.9763      286.05081      295.52118      0.18242653   
    242000   521.64632      1283.5963      1805.2426      229.21172      287.27148      0.17836185   
    243000   496.92607      1311.48        1808.4061      182.44358      293.51192      0.17843036   
    244000   515.53961      1309.0241      1824.5637      171.41514      292.96228      0.18433348   
    245000   490.40431      1328.0147      1818.419       176.45571      297.21241      0.1910282    
    246000   475.02043      1323.5358      1798.5563      215.14636      296.21004      0.19353034   
    247000   464.25856      1294.2702      1758.5288      219.35445      289.66034      0.19262252   
    248000   485.00307      1286.0114      1771.0145      216.21971      287.81199      0.19202239   
    249000   499.03192      1326.4563      1825.4882      164.0623       296.86365      0.19008      
    250000   491.91174      1352.3704      1844.2821      125.2247       302.66326      0.18594013   
    251000   510.15564      1342.3642      1852.5198      42.166574      300.42386      0.17870045   
    252000   528.67772      1334.5088      1863.1865      71.430726      298.6658       0.17351612   
    253000   546.77513      1346.9387      1893.7138      92.403302      301.44764      0.1727468    
    254000   538.79786      1333.1124      1871.9102      161.44878      298.35328      0.17816037   
    255000   532.19118      1359.0347      1891.2258      242.583        304.15475      0.18736832   
    256000   489.47084      1359.4768      1848.9477      252.7417       304.25371      0.19134821   
    257000   489.04899      1358.6072      1847.6562      236.57322      304.05908      0.1878538    
    258000   508.50757      1345.3739      1853.8814      166.80758      301.09743      0.18241355   
    259000   521.41867      1335.0048      1856.4235      107.3356       298.77682      0.17932488   
    260000   553.33727      1340.8084      1894.1457      87.234073      300.07568      0.18129271   
    261000   517.68042      1338.1773      1855.8577      84.834997      299.48682      0.1839847    
    262000   484.43542      1377.0158      1861.4512      125.2642       308.17896      0.18509999   
    263000   524.98934      1326.6419      1851.6313      143.19402      296.90518      0.18283845   
    264000   514.14159      1328.2252      1842.3668      111.06616      297.25953      0.17601428   
    265000   537.82362      1322.2088      1860.0324      110.94726      295.91304      0.16682091   
    266000   566.51741      1384.5028      1951.0202      100.71673      309.85457      0.16214483   
    267000   551.26989      1360.9523      1912.2222      154.45347      304.58392      0.16609916   
    268000   540.48352      1343.8276      1884.3111      149.98175      300.75137      0.1743011    
    269000   493.50399      1397.6089      1891.1129      187.70132      312.78775      0.17946737   
    270000   516.16538      1330.9607      1847.1261      146.84893      297.87174      0.18414472   
    271000   497.95306      1313.8064      1811.7594      166.38274      294.03257      0.18933792   
    272000   488.66595      1317.9363      1806.6023      135.03977      294.95686      0.19110518   
    273000   504.12363      1349.2471      1853.3708      161.3474       301.96428      0.19260676   
    274000   500.13849      1332.3993      1832.5378      116.10851      298.1937       0.19202013   
    275000   472.40722      1377.7934      1850.2006      154.18408      308.35299      0.1929512    
    276000   517.04542      1350.5906      1867.636       169.55594      302.26494      0.19040174   
    277000   534.96936      1319.7213      1854.6906      98.840393      295.35633      0.18193818   
    278000   519.10751      1303.806       1822.9135      35.39306       291.79445      0.17596616   
    279000   495.45615      1300.0937      1795.5499      54.351081      290.96365      0.17888346   
    280000   492.99303      1339.1582      1832.1512      61.518372      299.70635      0.18466405   
    281000   478.78456      1352.0805      1830.8651      190.88331      302.59839      0.18903101   
    282000   500.69127      1331.3267      1832.018       236.46507      297.95365      0.18840514   
    283000   510.85008      1307.5102      1818.3602      308.4833       292.62346      0.18598545   
    284000   498.25222      1325.2779      1823.5301      282.48654      296.59991      0.18426019   
    285000   524.55795      1358.9769      1883.5349      206.97168      304.14183      0.18327029   
    286000   518.12826      1341.3907      1859.519       93.867903      300.206        0.18210005   
    287000   496.28444      1362.7445      1859.0289      68.62306       304.98501      0.18494341   
    288000   492.62903      1370.2348      1862.8639      93.478676      306.66137      0.19009817   
    289000   508.79528      1356.6944      1865.4897      141.2703       303.63099      0.19039747   
    290000   506.64002      1365.6269      1872.2669      238.01397      305.63009      0.18955019   
    291000   498.8812       1358.4885      1857.3697      363.97701      304.03252      0.1896097    
    292000   490.01936      1377.05        1867.0693      356.21045      308.18661      0.18661913   
    293000   526.14042      1358.0748      1884.2153      199.74015      303.93993      0.17918374   
    294000   535.8781       1316.8352      1852.7133      136.07632      294.71043      0.1749703    
    295000   519.89613      1355.8732      1875.7693      86.80073       303.4472       0.17426052   
    296000   532.96541      1386.0959      1919.0614      71.287195      310.21112      0.17738272   
    297000   537.25589      1395.5137      1932.7696      105.11149      312.31884      0.18501436   
    298000   518.59017      1362.4348      1881.025       175.20394      304.91571      0.1926373    
    299000   489.67341      1359.9449      1849.6183      138.88218      304.35845      0.19520209   
    300000   517.36329      1375.2164      1892.5797      166.84998      307.77625      0.19542738   
    301000   492.36354      1380.6817      1873.0452      175.09767      308.99939      0.19259232   
    302000   534.5127       1337.9862      1872.4989      200.17794      299.44406      0.18801019   
    303000   529.39033      1340.9866      1870.3769      118.10674      300.11555      0.18182087   
    304000   533.8496       1342.5769      1876.4265      88.646598      300.47147      0.18083649   
    305000   521.03333      1376.5508      1897.5841      83.692173      308.07489      0.1844449    
    306000   537.54792      1398.3186      1935.8665      152.81133      312.94657      0.18683231   
    307000   531.13389      1361.4017      1892.5356      182.32729      304.68449      0.18592405   
    308000   517.3413       1362.7343      1880.0756      223.51449      304.98274      0.18540806   
    309000   511.77602      1391.2534      1903.0294      232.95262      311.36537      0.18859161   
    310000   530.60079      1367.9327      1898.5335      131.6471       306.14615      0.19393192   
    311000   519.94055      1357.2909      1877.2315      102.51016      303.76449      0.19923495   
    312000   511.18766      1341.7367      1852.9244      117.32169      300.28343      0.19854253   
    313000   492.67414      1375.468       1868.1422      154.9051       307.83257      0.19291573   
    314000   518.31347      1349.4639      1867.7774      244.03801      302.01279      0.18989058   
    315000   503.75603      1368.3195      1872.0755      206.26307      306.2327       0.18728979   
    316000   536.42717      1374.0043      1910.4315      177.42412      307.50498      0.1867716    
    317000   538.30307      1329.5453      1867.8484      78.358555      297.55498      0.18809077   
    318000   503.10659      1341.0105      1844.1171      78.77283       300.1209       0.19199829   
    319000   524.26545      1344.988       1869.2534      28.327176      301.01107      0.19520519   
    320000   462.9296       1364.8601      1827.7897      112.02155      305.4585       0.19576475   
    321000   475.31403      1355.5929      1830.907       150.4003       303.38448      0.19307544   
    322000   530.1059       1374.5522      1904.6581      96.908926      307.6276       0.18849019   
    323000   528.17535      1394.3875      1922.5628      146.57877      312.06678      0.18451082   
    324000   512.04636      1350.3628      1862.4092      171.55192      302.21397      0.1831291    
    325000   527.12281      1315.5291      1842.6519      155.977        294.4181       0.18472742   
    326000   494.05106      1352.1402      1846.1913      147.65553      302.61175      0.18922709   
    327000   465.97955      1340.0932      1806.0728      76.071833      299.91561      0.19411949   
    328000   510.02737      1318.5813      1828.6087      32.250898      295.1012       0.19773279   
    329000   484.87663      1308.2547      1793.1313      14.339825      292.79009      0.19583006   
    330000   497.404        1270.0033      1767.4073      84.317105      284.22935      0.19105583   
    331000   486.11381      1296.1964      1782.3102      139.25708      290.09142      0.18632645   
    332000   489.26874      1337.2352      1826.5039      201.88015      299.27598      0.18302661   
    333000   496.93728      1353.4632      1850.4005      227.40517      302.90785      0.18241195   
    334000   524.20413      1320.9184      1845.1225      206.90351      295.62425      0.1853842    
    335000   515.19037      1325.5337      1840.724       221.05503      296.65715      0.19271271   
    336000   474.77917      1328.5599      1803.3391      146.94388      297.33444      0.19688524   
    337000   495.03117      1328.5815      1823.6126      185.03973      297.33926      0.19913653   
    338000   486.06792      1304.8229      1790.8909      218.73183      292.02205      0.19784987   
    339000   498.39684      1305.8226      1804.2195      214.98718      292.24578      0.19027052   
    340000   500.88242      1301.8403      1802.7227      190.08563      291.35453      0.18040246   
    341000   492.8997       1335.2719      1828.1716      139.92887      298.83658      0.17790967   
    342000   546.49673      1308.6617      1855.1584      92.254052      292.88116      0.17958337   
    343000   537.22836      1313.4415      1850.6699      65.802823      293.95091      0.18183654   
    344000   513.62155      1353.5445      1867.1661      59.19777       302.92604      0.18531369   
    345000   500.56618      1359.8341      1860.4003      126.90618      304.33367      0.18729538   
    346000   523.46935      1388.5682      1912.0376      156.90151      310.76441      0.18542454   
    347000   523.66425      1364.1817      1887.846       172.7194       305.30667      0.17954297   
    348000   508.14528      1358.1137      1866.259       189.80385      303.94864      0.17427939   
    349000   524.54954      1364.4375      1888.9871      192.59891      305.36392      0.17475934   
    350000   501.24813      1345.045       1846.2932      207.26596      301.02384      0.1845287    
    351000   503.11361      1341.0936      1844.2073      171.81719      300.13951      0.1914948    
    352000   520.01426      1295.6128      1815.6271      188.62329      289.9608       0.19200356   
    353000   510.10653      1308.0028      1818.1094      102.16491      292.73372      0.18559478   
    354000   490.27703      1306.8956      1797.1727      141.16825      292.48592      0.18153119   
    355000   509.37713      1337.5096      1846.8867      165.99083      299.33739      0.17996033   
    356000   526.5353       1341.1969      1867.7322      174.10282      300.16261      0.18125319   
    357000   539.45051      1362.5835      1902.034       166.58234      304.94898      0.18476321   
    358000   524.55055      1406.6901      1931.2407      183.82096      314.82013      0.18829377   
    359000   507.7197       1362.9465      1870.6662      232.34321      305.03023      0.19010243   
    360000   502.82749      1361.3994      1864.2269      307.59056      304.68398      0.18884837   
    361000   525.79902      1345.5747      1871.3737      332.08057      301.14238      0.1830153    
    362000   549.83333      1342.2646      1892.098       257.24551      300.40158      0.17559421   
    363000   531.7129       1379.4814      1911.1943      170.7474       308.73076      0.17307139   
    364000   524.19882      1421.0193      1945.2181      146.77856      318.02703      0.17638831   
    365000   545.77283      1376.6114      1922.3842      100.99703      308.08846      0.18041514   
    366000   521.22185      1370.6724      1891.8942      167.1887       306.75929      0.18437953   
    367000   520.45065      1348.3943      1868.845       176.97777      301.77342      0.1857269    
    368000   521.06499      1352.509       1873.574       162.58745      302.69429      0.18727559   
    369000   502.2449       1380.342       1882.5869      227.92307      308.92337      0.18903739   
    370000   529.76628      1411.1987      1940.965       194.80682      315.82917      0.18829078   
    371000   525.91111      1375.014       1900.9252      163.7515       307.73097      0.18639459   
    372000   509.05158      1368.9312      1877.9828      198.38423      306.36961      0.18426573   
    373000   498.33289      1372.8273      1871.1602      209.02025      307.24158      0.1851094    
    374000   505.26602      1377.7721      1883.0381      208.81398      308.34822      0.18960836   
    375000   529.78799      1374.1513      1903.9393      218.75981      307.53789      0.19579796   
    376000   529.17324      1355.1619      1884.3351      172.81373      303.28801      0.19911942   
    377000   494.06932      1352.3804      1846.4497      132.86331      302.66552      0.19625242   
    378000   505.15304      1325.7721      1830.9252      131.10518      296.71052      0.18996631   
    379000   492.61128      1356.0522      1848.6635      53.143749      303.48726      0.18236668   
    380000   525.44569      1326.0234      1851.4691      35.601081      296.76676      0.18180656   
    381000   527.56929      1290.1266      1817.6959      62.894254      288.73297      0.18452813   
    382000   517.10857      1279.989       1797.0976      86.109893      286.46417      0.18714046   
    383000   471.34859      1306.685       1778.0336      177.27333      292.43879      0.18955455   
    384000   495.92689      1313.6103      1809.5372      310.4454       293.98868      0.19381748   
    385000   520.63196      1308.6571      1829.289       350.98918      292.88014      0.19683567   
    386000   508.38203      1311.8084      1820.1904      382.20944      293.58541      0.20040498   
    387000   489.21814      1334.0725      1823.2907      187.39759      298.56817      0.19754597   
    388000   496.21076      1319.015       1815.2258      89.371714      295.19827      0.19200321   
    389000   518.88182      1352.7798      1871.6616      21.571065      302.7549       0.1868193    
    390000   512.1456       1346.3132      1858.4588      8.1532631      301.30767      0.18219053   
    391000   516.48944      1328.4262      1844.9157      62.76408       297.30452      0.18074292   
    392000   546.64806      1310.7998      1857.4478      107.34303      293.35968      0.18347642   
    393000   474.48256      1270.9868      1745.4694      155.25393      284.44946      0.19512771   
    394000   459.90162      1317.8103      1777.7119      196.59958      294.92864      0.20113594   
    395000   502.89423      1306.569       1809.4632      223.69132      292.41282      0.20051985   
    396000   502.34604      1329.5638      1831.9099      218.18794      297.55911      0.19560737   
    397000   499.4959       1320.3506      1819.8465      198.34138      295.49717      0.19022656   
    398000   490.89855      1332.5485      1823.447       156.31388      298.22709      0.18723068   
    399000   512.38842      1301.8671      1814.2556      109.84839      291.36054      0.18569543   
    400000   503.00927      1286.695       1789.7042      121.82359      287.96497      0.18612656   
    401000   510.36877      1316.3448      1826.7135      183.87123      294.60066      0.18663014   
    402000   524.37299      1353.0342      1877.4072      154.35538      302.81183      0.1815022    
    403000   562.9914       1353.9244      1916.9158      128.06099      303.01107      0.17461252   
    404000   534.49592      1363.6378      1898.1337      109.3546       305.18494      0.17236496   
    405000   541.81619      1356.3424      1898.1585      134.51376      303.5522       0.17589268   
    406000   508.97683      1361.9999      1870.9767      155.78642      304.81837      0.18266165   
    407000   487.78161      1360.4172      1848.1988      163.28284      304.46417      0.18976489   
    408000   508.07202      1355.5639      1863.6359      205.88264      303.37798      0.19151628   
    409000   492.88509      1393.6081      1886.4932      199.38994      311.89236      0.19047649   
    410000   504.88811      1421.5464      1926.4345      243.70807      318.14499      0.19166307   
    411000   511.66115      1377.8642      1889.5254      207.13808      308.36884      0.19046384   
    412000   506.4024       1374.0893      1880.4917      167.43509      307.52401      0.18894105   
    413000   504.54791      1380.8581      1885.406       148.98837      309.03887      0.19105549   
    414000   512.00216      1389.5456      1901.5478      114.94954      310.98316      0.19724315   
    415000   450.02735      1387.9535      1837.9809      76.584539      310.62685      0.19961757   
    416000   494.02135      1345.9274      1839.9488      131.80017      301.22132      0.19630743   
    417000   513.38401      1340.4601      1853.8441      198.15641      299.99771      0.18809387   
    418000   523.588        1344.9787      1868.5667      174.18751      301.009        0.18276473   
    419000   493.76223      1346.4182      1840.1804      163.42324      301.33116      0.18288017   
    420000   489.59976      1370.4802      1860.08        126.37842      306.71628      0.18420911   
    421000   510.16094      1303.5979      1813.7588      96.410699      291.74789      0.18404416   
    422000   526.70723      1315.348       1842.0552      90.396891      294.37759      0.18426292   
    423000   520.93649      1320.6082      1841.5447      192.52227      295.55482      0.18981397   
    424000   521.57042      1303.1977      1824.7682      262.30755      291.65833      0.19534387   
    425000   464.54454      1334.7645      1799.3091      325.34733      298.72304      0.19803897   
    426000   481.17024      1333.4338      1814.6041      287.99427      298.42523      0.19480827   
    427000   484.86829      1332.293       1817.1613      185.93966      298.16992      0.18599692   
    428000   517.13966      1316.8812      1834.0209      108.48565      294.72071      0.18296      
    429000   502.16862      1292.2693      1794.4379      47.077169      289.21252      0.18257969   
    430000   495.98881      1325.0081      1820.9969      36.924086      296.53954      0.18521279   
    431000   484.94496      1333.9251      1818.87        69.056469      298.53517      0.18931817   
    432000   514.72163      1315.1304      1829.852       145.53224      294.32888      0.19324512   
    433000   499.13439      1306.8426      1805.977       202.00437      292.47405      0.19211345   
    434000   495.67746      1297.0901      1792.7675      151.61576      290.29142      0.18702575   
    435000   491.03031      1284.59        1775.6203      158.116        287.49388      0.18467333   
    436000   483.77198      1314.3755      1798.1475      178.3752       294.15994      0.18642922   
    437000   501.27229      1340.3887      1841.661       160.18576      299.98174      0.19031275   
    438000   519.80027      1294.184       1813.9842      129.89236      289.64102      0.18853512   
    439000   527.54186      1324.1964      1851.7383      122.08886      296.35788      0.17895824   
    440000   503.31075      1311.7922      1815.103       113.71583      293.5818       0.17486579   
    441000   511.35201      1321.0858      1832.4378      107.91428      295.66171      0.17684704   
    442000   501.26501      1340.11        1841.375       73.656612      299.91938      0.1816876    
    443000   506.01671      1308.0838      1814.1005      81.81025       292.75183      0.18721011   
    444000   519.7315       1328.5769      1848.3084      18.236779      297.33824      0.18784837   
    445000   490.12646      1315.5165      1805.6429      112.57748      294.41528      0.1856579    
    446000   509.2467       1330.9236      1840.1703      149.3771       297.86344      0.18289078   
    447000   511.85417      1338.8483      1850.7024      194.61001      299.63699      0.18323928   
    448000   514.35005      1345.2785      1859.6286      188.14131      301.07609      0.18296341   
    449000   493.47499      1342.095       1835.57        162.6481       300.36361      0.18329388   
    450000   504.66331      1304.7745      1809.4378      174.10657      292.01121      0.18581079   
    451000   498.96869      1338.7868      1837.7555      232.64192      299.62324      0.18973885   
    452000   502.76669      1358.3198      1861.0865      256.43398      303.99475      0.19432456   
    453000   513.12995      1328.9855      1842.1155      188.70424      297.42968      0.19392594   
    454000   493.43891      1342.9044      1836.3433      127.64993      300.54477      0.1912755    
    455000   516.23248      1313.4009      1829.6333      42.735872      293.94181      0.18979666   
    456000   493.13289      1300.9681      1794.101       65.816563      291.15934      0.18818925   
    457000   498.97007      1361.0852      1860.0553      131.36195      304.61366      0.18513008   
    458000   524.02523      1344.025       1868.0502      169.0155       300.79555      0.18290314   
    459000   521.50623      1343.2297      1864.7359      189.77399      300.61756      0.18314559   
    460000   483.4997       1376.069       1859.5688      239.93554      307.96708      0.18390666   
    461000   539.55841      1351.1842      1890.7426      307.59332      302.39779      0.18593046   
    462000   510.56824      1398.8137      1909.3819      296.13878      313.05737      0.18728446   
    463000   505.32364      1393.4763      1898.7999      332.77533      311.86285      0.18821759   
    464000   525.93133      1363.5404      1889.4717      262.55752      305.16313      0.18479057   
    465000   510.96997      1347.1391      1858.1091      130.68563      301.4925       0.17442888   
    466000   515.71214      1355.8586      1871.5708      70.746162      303.44394      0.17134122   
    467000   541.64336      1345.2739      1886.9172      136.87573      301.07505      0.17345219   
    468000   521.9908       1349.914       1871.9048      133.42682      302.11353      0.17372779   
    469000   530.74907      1309.034       1839.783       172.18562      292.96449      0.17538809   
    470000   512.30212      1333.0691      1845.3713      176.66697      298.34361      0.18281099   
    471000   496.8871       1302.6079      1799.495       147.89871      291.52632      0.18881619   
    472000   512.31938      1323.5037      1835.8231      140.4113       296.20285      0.18981237   
    473000   519.82983      1322.0278      1841.8576      158.10031      295.87253      0.18786819   
    474000   491.74048      1330.3918      1822.1323      172.98865      297.74442      0.18310091   
    475000   510.89714      1340.5992      1851.4963      146.50697      300.02885      0.17805833   
    476000   533.59259      1289.1941      1822.7867      145.59539      288.52429      0.17668806   
    477000   522.58471      1330.3847      1852.9694      185.31702      297.74283      0.17729295   
    478000   536.48295      1310.57        1847.053       228.0071       293.30826      0.17962655   
    479000   496.35327      1321.1497      1817.5029      260.7765       295.67601      0.184364     
    480000   473.18218      1335.2306      1808.4128      279.15018      298.82734      0.19238471   
    481000   485.04543      1340.7779      1825.8233      129.15832      300.06885      0.19581443   
    482000   497.59622      1304.9252      1802.5214     -12.331224      292.04494      0.19777899   
    483000   493.63682      1296.0301      1789.6669      6.3209128      290.05419      0.19892272   
    484000   503.10931      1252.7044      1755.8138      18.026919      280.35783      0.19336387   
    485000   518.47528      1294.1096      1812.5849      62.789039      289.62438      0.18836863   
    486000   495.3381       1328.6632      1824.0014      123.63647      297.35756      0.1882723    
    487000   494.60137      1298.7931      1793.3945      101.95518      290.67256      0.19069396   
    488000   516.03972      1301.4115      1817.4513      114.10656      291.25857      0.19691568   
    489000   491.13678      1317.7499      1808.8867      163.92824      294.91513      0.19976784   
    490000   480.15365      1314.394       1794.5477      182.97783      294.16409      0.19799519   
    491000   533.41187      1302.9279      1836.3397      140.0473       291.59793      0.18873584   
    492000   537.71757      1281.0467      1818.7643      89.512613      286.70088      0.17953238   
    493000   509.56377      1328.1004      1837.6642      114.67282      297.2316       0.17973298   
    494000   511.36613      1330.7288      1842.0949      122.65373      297.81984      0.18202517   
    495000   528.30441      1317.8383      1846.1427      124.21973      294.93491      0.18892747   
    496000   476.92568      1354.4056      1831.3313      156.32524      303.11876      0.19538029   
    497000   498.86316      1367.6273      1866.4904      138.23683      306.07779      0.19762236   
    498000   523.49027      1386.0749      1909.5652      121.7375       310.20641      0.19471493   
    499000   514.36781      1361.1012      1875.469       104.8286       304.61723      0.18921883   
    500000   515.13271      1361.322       1876.4547      206.32807      304.66665      0.18398533   
    501000   495.13021      1360.1069      1855.2372      279.50464      304.39473      0.18259245   
    502000   503.19547      1355.9866      1859.182       273.2524       303.47257      0.18229366   
    503000   527.55372      1353.0601      1880.6138      277.43613      302.81762      0.18265063   
    504000   511.12661      1343.8874      1855.014       201.71532      300.76475      0.18129484   
    505000   510.88597      1335.1213      1846.0072      123.80456      298.80288      0.18131376   
    506000   542.30131      1309.829       1852.1303      44.181959      293.14241      0.18033668   
    507000   517.93031      1337.0307      1854.961      -1.0132554      299.23022      0.17833346   
    508000   539.92827      1322.8244      1862.7526      10.694639      296.05081      0.17601817   
    509000   518.62616      1315.7787      1834.4048      90.678837      294.47396      0.1752068    
    510000   520.91838      1319.6344      1840.5528      185.07475      295.33688      0.17848731   
    511000   504.38854      1356.8464      1861.235       254.37861      303.66501      0.18102777   
    512000   507.7775       1382.4329      1890.2104      255.6096       309.39132      0.18357472   
    513000   522.68956      1345.3693      1868.0589      207.34588      301.09641      0.18686946   
    514000   506.86376      1361.2272      1868.0909      152.61659      304.64544      0.19107989   
    515000   497.17251      1403.3503      1900.5228      26.054058      314.07267      0.19423062   
    516000   525.63096      1383.0108      1908.6418      18.644133      309.52066      0.19618724   
    517000   514.4904       1372.3419      1886.8323     -1.9758719      307.13293      0.19052905   
    518000   530.50324      1337.0574      1867.5607      76.307553      299.23619      0.18024496   
    519000   514.81308      1363.7266      1878.5397      155.0282       305.20481      0.17758868   
    520000   547.10149      1342.7635      1889.865       221.2225       300.51323      0.18047863   
    521000   518.67562      1382.851       1901.5266      208.68016      309.48489      0.18381477   
    522000   536.85414      1329.4823      1866.3365      136.57389      297.54088      0.18680323   
    523000   507.59785      1327.9131      1835.5109      112.09453      297.18967      0.19060917   
    524000   469.10945      1371.6025      1840.712       140.05029      306.96746      0.19593563   
    525000   487.05364      1348.4286      1835.4823      131.72901      301.7811       0.19866257   
    526000   467.09906      1364.571       1831.6701      135.08686      305.39379      0.19625285   
    527000   513.81197      1310.4588      1824.2708      149.59508      293.28338      0.19025791   
    528000   500.81484      1341.5278      1842.3427      193.98362      300.23668      0.18383495   
    529000   524.3086       1299.0094      1823.318       145.79856      290.72096      0.17953913   
    530000   514.7551       1303.707       1818.4621      76.260918      291.77231      0.17828851   
    531000   491.9863       1327.4067      1819.393       135.32715      297.07634      0.18239163   
    532000   512.79478      1327.8021      1840.5969      139.83961      297.16483      0.18627589   
    533000   504.16553      1291.8126      1795.9781      165.97694      289.1103       0.1894943    
    534000   507.3021       1326.9976      1834.2997      194.21084      296.9848       0.1912798    
    535000   501.15993      1307.5647      1808.7246      160.42696      292.63566      0.19101231   
    536000   483.68215      1348.2385      1831.9206      130.17755      301.73854      0.1907974    
    537000   507.81811      1325.0031      1832.8212      73.899119      296.53841      0.18993535   
    538000   531.57025      1329.0867      1860.657       68.6305        297.45234      0.18842464   
    539000   524.93021      1359.1854      1884.1156      77.130443      304.18847      0.18424432   
    540000   532.38842      1350.2999      1882.6883      73.976565      302.19988      0.17949054   
    541000   530.11907      1356.381       1886.5         101.14095      303.56085      0.18064234   
    542000   518.74501      1375.8323      1894.5773      195.97523      307.9141       0.18911804   
    543000   489.94874      1353.6273      1843.576       223.59314      302.94456      0.19612501   
    544000   503.81049      1318.077       1821.8874      205.81376      294.98833      0.19910223   
    545000   504.76186      1348.438       1853.1999      196.44177      301.7832       0.19885308   
    546000   514.27769      1361.6534      1875.9311      172.60399      304.74083      0.19785025   
    547000   512.64583      1413.0441      1925.6899      153.58039      316.24216      0.19580317   
    548000   511.87903      1370.5926      1882.4717      127.8011       306.74144      0.18939294   
    549000   504.25378      1349.3596      1853.6133      144.91585      301.98944      0.1854478    
    550000   521.98179      1341.4611      1863.4429      173.50971      300.22175      0.18585865   
    551000   526.35924      1330.0082      1856.3675      189.30875      297.65857      0.18624407   
    552000   510.80832      1363.1576      1873.966       210.9113       305.07748      0.1873929    
    553000   517.89664      1325.9937      1843.8904      162.47526      296.76011      0.18818211   
    554000   510.17458      1331.8656      1842.0402      127.56736      298.07426      0.18982767   
    555000   466.06604      1365.7861      1831.8522      133.06433      305.66574      0.197185     
    556000   522.30426      1358.1636      1880.4678      151.25026      303.95979      0.2040001    
    557000   501.53103      1343.1591      1844.6901      128.66416      300.60176      0.20455971   
    558000   523.10891      1389.0492      1912.1581      148.14907      310.87205      0.19897649   
    559000   541.13062      1391.0353      1932.1659      151.11631      311.31655      0.1901607    
    560000   500.6535       1345.4955      1846.149       155.99448      301.12466      0.1881281    
    561000   506.13234      1336.2906      1842.423       193.45757      299.06458      0.19141078   
    562000   526.68806      1315.5435      1842.2316      200.56232      294.42134      0.19319836   
    563000   465.97825      1307.5042      1773.4824      219.95131      292.62212      0.19365331   
    564000   498.91463      1331.1993      1830.1139      234.56014      297.92513      0.193049     
    565000   494.05045      1302.0407      1796.0912      215.77864      291.39939      0.18971929   
    566000   484.83791      1330.3494      1815.1873      158.36067      297.73492      0.1845882    
    567000   497.74448      1329.1636      1826.9081      87.993125      297.46955      0.18060524   
    568000   513.74052      1337.7036      1851.4441      107.99695      299.38081      0.18127849   
    569000   505.80677      1367.6104      1873.4172      124.46294      306.07402      0.18496197   
    570000   509.77737      1360.4256      1870.203       91.233023      304.46605      0.18918192   
    571000   481.45444      1379.6648      1861.1192      100.3952       308.77181      0.19278564   
    572000   490.89346      1381.9313      1872.8248      156.51196      309.27907      0.19505611   
    573000   487.97899      1349.1145      1837.0935      174.69673      301.93459      0.19136181   
    574000   532.76171      1395.4482      1928.2099      153.42249      312.30417      0.18319065   
    575000   520.98634      1342.9808      1863.9672      108.29204      300.56187      0.17944942   
    576000   517.42654      1334.2327      1851.6593      40.7218        298.60402      0.18033421   
    577000   527.36566      1346.2454      1873.6111      23.420973      301.29249      0.18459281   
    578000   528.8362       1326.5382      1855.3744      97.586578      296.88198      0.18906523   
    579000   518.92764      1331.0691      1849.9967      163.62583      297.89599      0.18757376   
    580000   525.64591      1338.139       1863.7849      251.21958      299.47825      0.18615955   
    581000   489.0729       1346.7393      1835.8122      310.28386      301.40303      0.18463876   
    582000   527.94615      1333.8674      1861.8136      270.84617      298.52227      0.18238202   
    583000   513.7204       1360.1574      1873.8778      209.17575      304.40602      0.17830003   
    584000   510.00865      1312.6592      1822.6679      129.53574      293.77582      0.17434454   
    585000   555.45634      1309.1079      1864.5642      137.56913      292.98104      0.17567681   
    586000   510.4655       1340.2396      1850.7051      105.00913      299.94837      0.18046976   
    587000   480.54107      1329.9433      1810.4844      175.00714      297.64405      0.18970854   
    588000   503.7577       1284.3397      1788.0974      199.92622      287.43785      0.19214946   
    589000   526.45775      1307.3104      1833.7681      164.27584      292.57875      0.19185615   
    590000   499.56123      1337.0993      1836.6605      184.14106      299.24556      0.19259227   
    591000   495.96244      1360.6023      1856.5647      152.98888      304.50558      0.19375568   
    592000   525.62373      1332.9135      1858.5373      170.53682      298.30878      0.19649491   
    593000   501.67999      1370.5772      1872.2572      141.93315      306.738        0.19537328   
    594000   527.8754       1379.4069      1907.2823      115.49348      308.7141       0.19106871   
    595000   531.66973      1373.577       1905.2468      178.72623      307.40936      0.18297734   
    596000   528.14275      1336.2748      1864.4176      186.12877      299.06105      0.17892688   
    597000   503.95199      1332.9633      1836.9153      210.91369      298.31991      0.17951209   
    598000   551.64601      1285.3261      1836.9721      161.90399      287.65862      0.18223148   
    599000   499.35608      1312.5749      1811.931       204.57476      293.75696      0.18852832   
    600000   500.85208      1290.9766      1791.8286      148.03098      288.9232       0.19320218   
    601000   467.47611      1301.0975      1768.5736      78.205771      291.18829      0.19487444   
    602000   497.5772       1328.3869      1825.9641      80.602317      297.29572      0.19732075   
    603000   478.10509      1326.4816      1804.5867      130.78578      296.86931      0.19660044   
    604000   509.03976      1273.1682      1782.2079      192.68108      284.93765      0.189794     
    605000   480.61939      1302.7679      1783.3873      254.56778      291.56214      0.18229495   
    606000   515.63216      1319.0132      1834.6453      248.19484      295.19785      0.18127361   
    607000   511.36471      1321.375       1832.7397      225.47381      295.72644      0.18564499   
    608000   495.29577      1324.0517      1819.3475      211.72796      296.32549      0.19190072   
    609000   481.39509      1314.6195      1796.0146      191.81484      294.21454      0.1951126    
    610000   507.8022       1304.8303      1812.6325      115.57967      292.02369      0.19378607   
    611000   499.17044      1325.7424      1824.9129      3.9060102      296.70388      0.19013285   
    612000   491.08428      1325.9607      1817.045      -59.063798      296.75272      0.18575984   
    613000   516.80526      1291.2166      1808.0218     -76.225441      288.97692      0.18445202   
    614000   487.91998      1339.2481      1827.1681      45.45036       299.72647      0.18774065   
    615000   501.22631      1334.1291      1835.3554      177.57989      298.58083      0.19134208   
    616000   483.7722       1319.9863      1803.7585      202.54804      295.41565      0.18991019   
    617000   510.96507      1332.1632      1843.1283      137.12198      298.14086      0.18468338   
    618000   533.3593       1341.8168      1875.1761      120.26701      300.30135      0.17758437   
    619000   546.2237       1323.6632      1869.8869      64.326398      296.23854      0.1707967    
    620000   554.43413      1331.8734      1886.3075     -3.1668632      298.076        0.1703311    
    621000   545.83231      1338.6762      1884.5085      20.78175       299.59849      0.17538483   
    622000   525.17595      1350.4754      1875.6514      70.614874      302.23917      0.18303863   
    623000   541.99333      1340.1575      1882.1508      132.95995      299.92999      0.1860492    
    624000   524.77875      1380.1931      1904.9718      174.2426       308.89004      0.18802617   
    625000   518.36201      1392.2668      1910.6288      192.75322      311.59216      0.1902339    
    626000   520.3647       1357.5774      1877.9421      162.75896      303.8286       0.18982986   
    627000   519.01933      1348.1708      1867.1902      71.205294      301.7234       0.18652117   
    628000   529.39917      1367.2008      1896.5999      38.50496       305.98234      0.18246474   
    629000   534.85998      1325.0809      1859.9409      85.471501      296.55583      0.17724082   
    630000   542.8444       1305.3751      1848.2195      98.893258      292.14562      0.17412223   
    631000   521.18091      1318.0025      1839.1834      84.317622      294.97167      0.17624224   
    632000   500.57145      1339.3724      1839.9439      136.25714      299.7543       0.18565651   
    633000   502.48779      1308.2541      1810.7419      66.649473      292.78995      0.19025479   
    634000   507.01481      1332.3301      1839.3449     -14.433362      298.17822      0.18773467   
    635000   476.23398      1340.2249      1816.4588      17.606159      299.94508      0.18563353   
    636000   462.85111      1290.6455      1753.4966      153.45973      288.8491       0.18429671   
    637000   517.67205      1277.6519      1795.324       241.14201      285.94112      0.18571655   
    638000   503.45441      1326.5407      1829.9951      287.62525      296.88254      0.19098091   
    639000   522.8361       1319.0301      1841.8662      230.14167      295.20164      0.19268744   
    640000   497.66468      1325.7793      1823.444       152.57987      296.71213      0.19175194   
    641000   522.65367      1327.689       1850.3427      169.56747      297.13952      0.18753815   
    642000   518.01421      1315.822       1833.8363      116.02976      294.48367      0.17750961   
    643000   548.33775      1275.4099      1823.7477      50.950451      285.43936      0.1732968    
    644000   528.76447      1275.326       1804.0904      37.407399      285.42057      0.17774036   
    645000   519.14365      1311.69        1830.8337      100.48435      293.55892      0.18585738   
    646000   520.24018      1295.3925      1815.6327      117.65739      289.9115       0.18889159   
    647000   511.84254      1303.3528      1815.1954      210.92586      291.69304      0.19004313   
    648000   505.26438      1318.3574      1823.6218      230.66168      295.05109      0.18918669   
    649000   522.8782       1316.088       1838.9661      257.35873      294.54318      0.1853928    
    650000   507.36793      1349.039       1856.407       144.58385      301.9177       0.17948397   
    651000   531.01117      1360.8142      1891.8254      107.92616      304.55301      0.17790573   
    652000   542.30069      1331.6697      1873.9704      167.74549      298.03041      0.18198955   
    653000   514.9402       1368.192       1883.1322      263.44295      306.20418      0.19189556   
    654000   476.71752      1371.0992      1847.8167      288.20176      306.85481      0.19878142   
    655000   504.20193      1339.7395      1843.9415      259.78467      299.83646      0.19799289   
    656000   491.93809      1340.4061      1832.3442      202.06689      299.98564      0.19454837   
    657000   492.10617      1350.9166      1843.0228      131.87314      302.33791      0.1902227    
    658000   520.08684      1377.1341      1897.2209      53.62571       308.20543      0.18595686   
    659000   557.11232      1337.5824      1894.6947      27.543343      299.35369      0.18252656   
    660000   509.36753      1367.0232      1876.3908      56.997059      305.94261      0.18117145   
    661000   520.32991      1375.2305      1895.5604      145.06189      307.7794       0.18367406   
    662000   502.51826      1366.2432      1868.7614      172.5335       305.76803      0.18982889   
    663000   490.37473      1345.9091      1836.2839      168.89694      301.21723      0.19540058   
    664000   498.8742       1328.3993      1827.2735      160.86066      297.29849      0.20094072   
    665000   488.63694      1331.6418      1820.2787      179.80627      298.02417      0.20296877   
    666000   458.48963      1334.9705      1793.4602      140.84023      298.76914      0.19322179   
    667000   503.67329      1326.4024      1830.0757      150.72141      296.85158      0.18502668   
    668000   508.95644      1332.7597      1841.7162      87.635837      298.27437      0.18143703   
    669000   494.5306       1314.7965      1809.3271      135.4821       294.25416      0.18186347   
    670000   489.91668      1309.6842      1799.6008      162.44464      293.11         0.18717545   
    671000   476.99912      1311.604       1788.6031      153.73767      293.53967      0.19229963   
    672000   517.77265      1334.856       1852.6286      112.23007      298.74351      0.19285374   
    673000   528.96723      1339.3532      1868.3204      73.674565      299.74999      0.18920025   
    674000   513.08964      1348.9841      1862.0737      96.980636      301.90541      0.1860358    
    675000   537.70671      1323.9704      1861.6771      145.14456      296.30729      0.18518193   
    676000   528.15229      1324.9868      1853.1391      226.6808       296.53477      0.18520005   
    677000   488.18879      1353.9151      1842.1039      313.49613      303.00899      0.18683543   
    678000   505.02382      1398.0117      1903.0355      232.23207      312.87789      0.18819043   
    679000   524.24397      1361.7668      1886.0108      150.13075      304.7662       0.1890492    
    680000   504.58267      1376.9488      1881.5314      106.99551      308.16396      0.19130048   
    681000   515.12173      1373.5955      1888.7173      166.05068      307.4135       0.19507781   
    682000   493.90295      1349.0822      1842.9851      189.08842      301.92735      0.19627508   
    683000   484.23958      1344.5499      1828.7895      231.83265      300.91303      0.19295776   
    684000   487.57388      1326.3611      1813.935       227.0941       296.84233      0.18645642   
    685000   521.13255      1329.4573      1850.5899      189.65798      297.53528      0.18523904   
    686000   522.74431      1338.8109      1861.5552      200.015        299.62862      0.18972109   
    687000   507.08541      1364.814       1871.8994      158.9738       305.44818      0.1969259    
    688000   509.8199       1375.4923      1885.3122      165.21063      307.838        0.20100268   
    689000   494.92972      1349.4516      1844.3813      140.59543      302.01003      0.19887315   
    690000   510.64981      1347.7275      1858.3773      79.247457      301.62418      0.19411932   
    691000   515.95766      1336.6863      1852.644       120.5165       299.15315      0.1900231    
    692000   539.42718      1368.5509      1907.9781      113.74821      306.28449      0.18788992   
    693000   486.70035      1366.0037      1852.7041      222.53655      305.71444      0.18974527   
    694000   527.55944      1343.7671      1871.3265      254.35426      300.73782      0.19362233   
    695000   524.87074      1356.6869      1881.5577      196.89027      303.62932      0.19871124   
    696000   512.32584      1387.5483      1899.8741      227.25472      310.53616      0.20266322   
    697000   478.70011      1358.3527      1837.0528      212.35677      304.00211      0.19839589   
    698000   511.97291      1311.8993      1823.8722      190.41136      293.60575      0.18837403   
    699000   502.91895      1336.6442      1839.5631      217.32898      299.14371      0.18139182   
    700000   515.23948      1329.3015      1844.541       213.02552      297.50041      0.17962243   
    701000   513.0292       1315.0004      1828.0296      145.52259      294.2998       0.18184195   
    702000   513.05335      1337.7081      1850.7614      111.51076      299.38181      0.18883581   
    703000   506.50128      1327.6196      1834.1209      36.247223      297.12399      0.19498007   
    704000   488.03052      1339.2543      1827.2848      18.034164      299.72786      0.19807759   
    705000   498.11748      1386.0447      1884.1622      124.54508      310.19964      0.19769596   
    706000   501.02441      1382.8069      1883.8313      177.50965      309.47503      0.19242925   
    707000   517.66033      1368.4515      1886.1118      240.09437      306.26225      0.18679274   
    708000   524.98112      1358.5235      1883.5046      291.03215      304.04034      0.18338821   
    709000   544.66         1378.7525      1923.4125      334.83489      308.56763      0.18171967   
    710000   538.62909      1353.3088      1891.9379      311.44744      302.87329      0.18355819   
    711000   527.86959      1367.5432      1895.4128      299.61397      306.05897      0.18776953   
    712000   518.05324      1354.9239      1872.9772      214.35219      303.23476      0.19052599   
    713000   519.34843      1355.7656      1875.114       160.02646      303.42312      0.19127536   
    714000   525.64153      1343.1911      1868.8326      120.16301      300.60893      0.19061029   
    715000   504.48718      1389.33        1893.8172      129.71593      310.93491      0.18955767   
    716000   522.36354      1343.8538      1866.2173      129.17419      300.75724      0.18906205   
    717000   516.29113      1333.8379      1850.129       80.501808      298.51566      0.18729723   
    718000   515.5886       1348.298       1863.8866      190.88164      301.75185      0.18901934   
    719000   499.2968       1347.4699      1846.7667      253.48509      301.56653      0.19676569   
    720000   516.46698      1358.5141      1874.9811      238.99906      304.03824      0.20386202   
    721000   470.3738       1368.6359      1839.0097      161.61296      306.30352      0.20456895   
    722000   475.28548      1375.5446      1850.83        98.960887      307.8497       0.20151489   
    723000   525.74304      1348.0772      1873.8202      103.17573      301.70244      0.19411034   
    724000   501.45656      1347.3333      1848.7899      106.42383      301.53597      0.18683786   
    725000   516.98328      1377.3728      1894.3561      181.06843      308.25887      0.18582927   
    726000   524.30801      1341.8681      1866.1761      197.44616      300.31284      0.18707202   
    727000   520.7693       1375.3856      1896.1549      232.21888      307.81412      0.19156558   
    728000   481.16058      1379.4228      1860.5834      176.46539      308.71765      0.19632318   
    729000   499.97383      1325.6889      1825.6627      194.89371      296.69189      0.19961655   
    730000   489.26401      1345.059       1834.3231      136.82435      301.02698      0.19804584   
    731000   501.34632      1343.338       1844.6843      165.61382      300.64179      0.1942477    
    732000   522.21363      1323.9693      1846.1829      188.36845      296.30705      0.18526729   
    733000   522.20083      1324.0914      1846.2922      200.14697      296.33437      0.18020469   
    734000   499.44077      1322.6654      1822.1061      224.97865      296.01523      0.18241155   
    735000   534.606        1313.0194      1847.6254      290.70994      293.85645      0.18601851   
    736000   524.26147      1327.1978      1851.4592      263.98017      297.02958      0.18632436   
    737000   489.64546      1279.7684      1769.4139      188.52925      286.4148       0.18522311   
    738000   500.01244      1308.8613      1808.8737      102.1406       292.92584      0.18576606   
    739000   511.74945      1332.7344      1844.4839      82.144574      298.2687       0.18768302   
    740000   490.91371      1321.2017      1812.1154      214.59499      295.68766      0.19417762   
    741000   493.85289      1320.782       1814.6349      164.51789      295.59373      0.20230227   
    742000   487.11936      1310.0614      1797.1808      175.58564      293.19443      0.20610088   
    743000   530.00205      1373.5375      1903.5395      172.12529      307.40051      0.20067354   
    744000   512.27315      1346.1735      1858.4467      163.21073      301.2764       0.19176855   
    745000   522.01139      1368.7098      1890.7211      193.22968      306.32005      0.18934973   
    746000   503.12001      1357.9441      1861.0641      203.40089      303.91067      0.190113     
    747000   494.23118      1332.3708      1826.6019      152.50533      298.18731      0.18980577   
    748000   508.90481      1304.7782      1813.6831      107.3089       292.01205      0.18879192   
    749000   495.79734      1332.3828      1828.1802      66.929631      298.19001      0.18714814   
    750000   509.57254      1327.1559      1836.7284      75.579915      297.02021      0.18518441   
    751000   495.59729      1329.8644      1825.4617      115.52757      297.62638      0.18255557   
    752000   542.39829      1362.7804      1905.1787      160.91773      304.99305      0.18410375   
    753000   516.79809      1351.1826      1867.9807      238.09139      302.39745      0.18935178   
    754000   508.42251      1379.0954      1887.5179      229.52602      308.64438      0.19782652   
    755000   490.82827      1363.1899      1854.0181      174.10899      305.08469      0.20209385   
    756000   493.10248      1337.6064      1830.7089      139.37046      299.35906      0.19970081   
    757000   505.89638      1288.4891      1794.3855      61.535904      288.3665       0.19281337   
    758000   549.75852      1279.1418      1828.9003      48.456232      286.27457      0.18920998   
    759000   515.23458      1315.8183      1831.0529      117.20247      294.48284      0.18771057   
    760000   520.27698      1314.592       1834.869       188.17343      294.20839      0.18741484   
    761000   528.49742      1333.3772      1861.8746      200.46228      298.41256      0.18971406   
    762000   516.13697      1357.7367      1873.8737      186.28046      303.86426      0.19146215   
    763000   504.7477       1353.4323      1858.18        118.4897       302.90092      0.18743305   
    764000   520.27089      1296.9288      1817.1997      104.88814      290.25534      0.18395691   
    765000   549.02359      1279.4417      1828.4653      112.52649      286.34168      0.18339837   
    766000   503.16653      1324.9361      1828.1026      156.66414      296.52342      0.18703998   
    767000   493.62778      1332.6307      1826.2584      177.28132      298.24548      0.19251309   
    768000   489.61552      1322.1303      1811.7459      233.3122       295.89549      0.19812018   
    769000   496.92084      1331.6529      1828.5737      258.99041      298.02665      0.19977956   
    770000   512.5105       1331.8924      1844.4029      234.99008      298.08024      0.19678692   
    771000   530.16089      1329.5678      1859.7287      151.43334      297.56         0.1874678    
    772000   532.3137       1341.5904      1873.9041      67.256626      300.25069      0.18053364   
    773000   546.91001      1353.4641      1900.3741     -3.1928828      302.90803      0.18027443   
    774000   554.75991      1378.3737      1933.1336      54.123784      308.48285      0.18557765   
    775000   529.66895      1401.6532      1931.3222      195.75781      313.69287      0.19207409   
    776000   508.30505      1378.6193      1886.9243      239.93965      308.53782      0.19342057   
    777000   485.98979      1365.7049      1851.6947      272.64376      305.64756      0.19377178   
    778000   523.77083      1330.5446      1854.3154      273.16382      297.77862      0.19240033   
    779000   520.45351      1332.2886      1852.7421      275.8368       298.16892      0.19251531   
    780000   498.84736      1363.7464      1862.5937      247.55554      305.20924      0.19188598   
    781000   509.40627      1339.8035      1849.2098      129.85636      299.85078      0.18533759   
    782000   522.84889      1325.7055      1848.5543      64.318626      296.6956       0.17894343   
    783000   514.32025      1345.4389      1859.7592      16.859727      301.11199      0.17569434   
    784000   522.22682      1304.1586      1826.3854      41.819516      291.87337      0.17751405   
    785000   475.5508       1315.6879      1791.2387      105.69284      294.45365      0.18428151   
    786000   490.24768      1284.1876      1774.4353      136.3308       287.40383      0.18884896   
    787000   512.0238       1305.0589      1817.0827      126.89967      292.07487      0.1903973    
    788000   518.94267      1324.5805      1843.5232      272.10569      296.44383      0.19367915   
    789000   489.47209      1324.7799      1814.252       283.393        296.48845      0.18993336   
    790000   531.94462      1330.9413      1862.8859      230.95387      297.8674       0.18571035   
    791000   536.81725      1361.1409      1897.9581      231.49217      304.62612      0.18365492   
    792000   494.62801      1385.6243      1880.2523      194.28339      310.10555      0.18205672   
    793000   529.12131      1388.7704      1917.8917      151.00464      310.80967      0.18015042   
    794000   524.47559      1352.5449      1877.0205      108.59733      302.70233      0.17812807   
    795000   545.01016      1344.5664      1889.5765      103.48743      300.91671      0.1768391    
    796000   512.39651      1330.969       1843.3655      98.881447      297.8736       0.17787879   
    797000   517.28524      1314.6417      1831.9269      174.39304      294.21951      0.18443518   
    798000   529.61389      1269.6626      1799.2765      225.04841      284.1531       0.18978512   
    799000   508.97683      1322.3957      1831.3726      289.61159      295.95488      0.19250002   
    800000   555.72719      1306.0074      1861.7346      194.72245      292.28715      0.18360894   
    801000   488.85856      1306.8546      1795.7131      147.81286      292.47673      0.17561656   
    802000   528.13873      1294.4368      1822.5755      122.59881      289.69761      0.17689161   
    803000   518.06792      1339.4278      1857.4957      183.18899      299.76668      0.18233883   
    804000   507.86168      1315.0929      1822.9546      179.02568      294.32049      0.18724999   
    805000   515.52389      1341.6936      1857.2175      191.16972      300.27378      0.18986089   
    806000   495.37863      1376.7904      1872.169       186.45491      308.12851      0.18830734   
    807000   504.1705       1418.8017      1922.9722      124.58672      317.53074      0.18809873   
    808000   530.27262      1389.3163      1919.5889      113.30747      310.93184      0.19037751   
    809000   524.67201      1370.8354      1895.5074      66.750415      306.79577      0.1922048    
    810000   518.6879       1380.91        1899.5979      66.247013      309.05049      0.1946934    
    811000   515.46694      1343.5299      1858.9968      131.55236      300.68475      0.19506936   
    812000   507.23731      1346.8298      1854.0671      209.39791      301.42328      0.18941489   
    813000   526.8334       1328.3648      1855.1982      240.41927      297.29077      0.18378885   
    814000   515.44011      1348.3612      1863.8013      235.98698      301.766        0.17933669   
    815000   521.18226      1389.2783      1910.4606      192.54623      310.92335      0.17742855   
    816000   515.40169      1383.9887      1899.3904      171.63949      309.73952      0.17829183   
    817000   549.6172       1333.9041      1883.5213      116.14118      298.53048      0.1836018    
    818000   511.77667      1367.7936      1879.5702      130.61447      306.11501      0.18899839   
    819000   515.18902      1384.2933      1899.4824      173.37084      309.80769      0.19108709   
    820000   530.90329      1340.5241      1871.4274      166.16036      300.01204      0.19013008   
    821000   528.15233      1366.3429      1894.4953      179.72422      305.79035      0.18708547   
    822000   531.82143      1350.0686      1881.89        172.11294      302.14812      0.18331103   
    823000   541.54113      1318.3104      1859.8516      118.09993      295.04058      0.18092296   
    824000   543.42017      1286.5074      1829.9275      137.9868       287.92299      0.1850526    
    825000   501.65376      1286.3543      1788.0081      114.17219      287.88874      0.1882631    
    826000   483.71754      1305.628       1789.3455      223.42701      292.20222      0.19045625   
    827000   530.08876      1301.7936      1831.8823      239.07519      291.34407      0.1896977    
    828000   542.57421      1308.0006      1850.5748      234.14961      292.73321      0.18828216   
    829000   493.99989      1337.5427      1831.5425      231.39435      299.34479      0.18620429   
    830000   486.28029      1316.9957      1803.2759      216.7654       294.74633      0.18317237   
    831000   535.43982      1351.9098      1887.3496      189.05929      302.56019      0.17793579   
    832000   536.63116      1346.6167      1883.2479      167.47027      301.37558      0.1746962    
    833000   543.90697      1359.3988      1903.3057      193.03805      304.23623      0.17841871   
    834000   535.60222      1405.6598      1941.262       110.99864      314.58955      0.18683451   
    835000   536.57299      1365.1224      1901.6954      55.236508      305.51719      0.19632892   
    836000   516.05486      1360.7799      1876.8347      41.09449       304.54533      0.19714226   
    837000   499.53139      1363.5956      1863.127       28.458331      305.17549      0.19410583   
    838000   526.71985      1343.0939      1869.8138      120.98525      300.58718      0.1914504    
    839000   527.59155      1322.4837      1850.0753      137.09543      295.97458      0.18560147   
    840000   505.39012      1297.6601      1803.0503      186.71163      290.419        0.18259737   
    841000   517.17964      1351.7391      1868.9187      242.6585       302.52198      0.18551172   
    842000   514.21268      1334.301       1848.5137      252.52269      298.61931      0.1888906    
    843000   490.73477      1355.0124      1845.7472      195.61466      303.25455      0.18895865   
    844000   463.9724       1338.9647      1802.9371      204.18932      299.66305      0.18730155   
    845000   519.55079      1277.8832      1797.434       87.658053      285.99288      0.18280514   
    846000   532.89768      1307.3362      1840.2339      69.821082      292.58453      0.17909757   
    847000   552.2669       1326.8599      1879.1268      3.7097897      296.95396      0.17667731   
    848000   545.51298      1312.5021      1858.0151      42.010051      293.74067      0.18150201   
    849000   519.47814      1320.0125      1839.4906      128.22128      295.4215       0.19204326   
    850000   479.56039      1346.2329      1825.7933      138.60262      301.28968      0.19766805   
    851000   500.21587      1319.4018      1819.6176      235.51155      295.28482      0.19843703   
    852000   491.21546      1259.0181      1750.2335      210.16329      281.77083      0.19377879   
    853000   490.29229      1306.3941      1796.6864      235.32792      292.37369      0.18894525   
    854000   507.12499      1319.9824      1827.1073      165.47618      295.41476      0.18396087   
    855000   535.02277      1319.7835      1854.8062      158.79169      295.37025      0.18476279   
    856000   515.51683      1322.9643      1838.4812      254.76858      296.08213      0.18944967   
    857000   484.16341      1371.1132      1855.2766      210.75713      306.85795      0.19154219   
    858000   513.15131      1313.6724      1826.8237      156.68546      294.00258      0.19264414   
    859000   518.1344       1307.2208      1825.3552      74.586512      292.55871      0.19286079   
    860000   542.21493      1353.1473      1895.3622      77.971389      302.83714      0.19109585   
    861000   494.6937       1363.2114      1857.9051      195.30079      305.0895       0.18751348   
    862000   511.40916      1390.8516      1902.2607      260.1723       311.27544      0.1860189    
    863000   538.90261      1411.9523      1950.8549      329.51757      315.99783      0.18963837   
    864000   515.17991      1327.742       1842.9219      332.83232      297.15138      0.19298041   
    865000   494.08371      1330.3996      1824.4833      254.24093      297.74617      0.19420052   
    866000   498.00162      1330.9045      1828.9061      148.65851      297.85915      0.19069056   
    867000   501.29867      1316.6024      1817.901       28.311567      294.65831      0.1857307    
    868000   514.26777      1350.4318      1864.6996      36.787002      302.22942      0.18426018   
    869000   524.61037      1338.6673      1863.2776      68.493213      299.59648      0.18297449   
    870000   520.19383      1344.4253      1864.6191      139.09589      300.88514      0.18125207   
    871000   522.74666      1279.2613      1802.0079      131.87106      286.3013       0.18116474   
    872000   540.37368      1293.5057      1833.8793      196.9095       289.48922      0.18628117   
    873000   491.42791      1339.2529      1830.6808      184.03909      299.72754      0.19344057   
    874000   476.92603      1345.5373      1822.4633      199.12622      301.134        0.19898158   
    875000   505.6402       1357.1169      1862.7571      189.16517      303.72555      0.19622038   
    876000   512.18355      1375.8845      1888.068       189.92452      307.92576      0.18796726   
    877000   538.23228      1368.312       1906.5443      226.80935      306.23104      0.18393709   
    878000   515.73001      1383.6546      1899.3846      220.64797      309.66474      0.18266516   
    879000   543.92024      1362.3923      1906.3126      207.99121      304.9062       0.18379894   
    880000   555.52046      1375.8508      1931.3713      178.6391       307.91824      0.1852655    
    881000   527.14498      1349.5407      1876.6857      126.2529       302.02998      0.18974564   
    882000   499.94331      1350.8064      1850.7497      164.23491      302.31323      0.19470911   
    883000   534.81205      1361.1438      1895.9559      110.65736      304.62678      0.19355442   
    884000   520.04528      1348.3645      1868.4098      119.43428      301.76675      0.18751861   
    885000   539.56037      1367.5992      1907.1595      98.957996      306.0715       0.18057686   
    886000   521.37009      1354.1171      1875.4872      84.911024      303.05419      0.18140147   
    887000   524.4744       1371.995       1896.4694      181.68692      307.0553       0.18718798   
    888000   517.5595       1357.7882      1875.3477      157.0605       303.87579      0.19185973   
    889000   520.29005      1383.5024      1903.7924      105.66664      309.63067      0.19535847   
    890000   484.72744      1368.2163      1852.9438      127.16726      306.20963      0.20083757   
    891000   485.61701      1354.4938      1840.1108      150.09707      303.13848      0.2040632    
    892000   471.85094      1338.5467      1810.3976      185.14867      299.56949      0.20086873   
    893000   498.02292      1349.072       1847.0949      219.54674      301.92509      0.19677418   
    894000   515.32142      1314.9716      1830.2931      288.68962      294.29335      0.19441013   
    895000   523.19387      1299.7813      1822.9752      267.92212      290.89372      0.1931282    
    896000   494.03824      1288.0764      1782.1146      247.10751      288.27413      0.19193996   
    897000   505.52632      1350.9619      1856.4883      145.71946      302.34806      0.18930915   
    898000   532.56553      1339.8376      1872.4031      83.731861      299.8584       0.19262238   
    899000   475.69098      1353.7545      1829.4455      2.1934914      302.97303      0.19819646   
    900000   505.39693      1310.244       1815.641       12.465414      293.23531      0.20479278   
    901000   505.86386      1303.947       1809.8109      94.460128      291.82601      0.20532808   
    902000   490.65918      1312.9397      1803.5989      101.90179      293.83861      0.20150776   
    903000   496.82885      1326.3117      1823.1406      180.77766      296.83129      0.19798729   
    904000   501.51825      1333.9199      1835.4381      247.92559      298.534        0.19395998   
    905000   484.61192      1336.7553      1821.3672      284.41127      299.16858      0.19025844   
    906000   492.26085      1331.8608      1824.1216      259.41982      298.07318      0.18648038   
    907000   516.10203      1300.1308      1816.2329      233.0784       290.97195      0.18625246   
    908000   533.82946      1325.1482      1858.9776      199.18839      296.57088      0.18905726   
    909000   501.37488      1356.1701      1857.5449      199.92657      303.51364      0.1918185    
    910000   505.39773      1350.1268      1855.5246      106.65322      302.16116      0.19403694   
    911000   487.58491      1351.3238      1838.9087      121.98381      302.42903      0.19608943   
    912000   503.16451      1349.4513      1852.6158      110.87377      302.00997      0.19938575   
    913000   513.00629      1335.7441      1848.7504      133.34279      298.94227      0.20345215   
    914000   502.03654      1358.1424      1860.1789      75.223103      303.95506      0.200818     
    915000   539.19163      1372.4823      1911.674       73.537808      307.16436      0.19401595   
    916000   539.83539      1345.8157      1885.6511      46.837576      301.19633      0.18811288   
    917000   542.43861      1322.2045      1864.6431      51.26385       295.91207      0.18733503   
    918000   493.77914      1325.5357      1819.3149      135.87556      296.65762      0.19156179   
    919000   511.04864      1279.2479      1790.2966      169.75964      286.29831      0.19531851   
    920000   503.13919      1313.4266      1816.5658      225.14512      293.94757      0.19969767   
    921000   496.02058      1320.9459      1816.9665      226.36378      295.6304       0.1994326    
    922000   522.88122      1310.8619      1833.7431      197.41883      293.37358      0.19023811   
    923000   522.90464      1357.7915      1880.6962      154.31271      303.87653      0.18230078   
    924000   537.65357      1347.6299      1885.2835      82.553166      301.60234      0.18003437   
    925000   517.07881      1344.8437      1861.9225      88.101612      300.97878      0.18211346   
    926000   522.19658      1368.0945      1890.2911      136.8051       306.18236      0.18878176   
    927000   511.37059      1340.103       1851.4736      159.75714      299.9178       0.19393435   
    928000   502.30001      1337.2545      1839.5545      268.62509      299.28031      0.19537192   
    929000   503.18536      1355.365       1858.5503      306.90273      303.33347      0.193824     
    930000   483.97215      1371.6589      1855.631       333.73233      306.98008      0.19095107   
    931000   526.82347      1350.6609      1877.4843      307.72144      302.28068      0.18788661   
    932000   520.06533      1358.7945      1878.8599      273.09156      304.101        0.18640732   
    933000   528.86705      1368.9967      1897.8637      173.90719      306.38426      0.18341133   
    934000   522.92731      1361.4729      1884.4002      99.890043      304.70043      0.18022466   
    935000   534.05453      1337.7181      1871.7726      56.267793      299.38405      0.17833613   
    936000   511.1308       1384.082       1895.2128      63.306669      309.76039      0.17846011   
    937000   541.78676      1398.8246      1940.6113      89.858448      313.05981      0.1802334    
    938000   547.25782      1346.6089      1893.8668      158.67759      301.37385      0.18685382   
    939000   499.84118      1392.7175      1892.5587      177.48529      311.69303      0.19205163   
    940000   518.22706      1396.2679      1914.495       194.9671       312.48762      0.19476972   
    941000   515.21994      1360.9347      1876.1547      178.18274      304.57999      0.19427901   
    942000   528.46459      1341.1409      1869.6055      99.212248      300.15009      0.19117428   
    943000   504.32789      1338.1608      1842.4887      91.560199      299.48313      0.18596845   
    944000   534.46883      1342.0442      1876.513       169.31299      300.35224      0.18221507   
    945000   528.13696      1349.7343      1877.8713      243.69406      302.07331      0.1809607    
    946000   523.05703      1353.621       1876.678       230.22716      302.94315      0.17964834   
    947000   533.54005      1374.9094      1908.4495      211.93383      307.70755      0.18284975   
    948000   536.18449      1369.5237      1905.7082      157.02714      306.50221      0.18922659   
    949000   523.52241      1338.0587      1861.5811      43.101653      299.46029      0.19349941   
    950000   502.09785      1332.7491      1834.847       69.944425      298.27199      0.19492341   
    951000   502.93538      1327.8174      1830.7528      145.33433      297.16825      0.19675852   
    952000   500.1969       1322.1507      1822.3476      193.09978      295.90004      0.19723914   
    953000   478.70611      1298.7039      1777.41        257.94108      290.6526       0.19607536   
    954000   514.72762      1306.3644      1821.092       265.70254      292.36703      0.19607868   
    955000   547.5625       1308.8961      1856.4586      234.56624      292.93363      0.1960725    
    956000   533.14931      1302.8924      1836.0417      128.78846      291.58999      0.19067525   
    957000   517.96508      1320.3721      1838.3372      117.76845      295.50198      0.18414969   
    958000   525.77172      1317.3969      1843.1686      112.48111      294.83612      0.1843108    
    959000   525.47903      1351.8156      1877.2946      132.21253      302.5391       0.19211      
    960000   494.98876      1337.9454      1832.9341      117.17615      299.43492      0.1981892    
    961000   515.40175      1301.6636      1817.0654      113.87959      291.31499      0.20095829   
    962000   496.28381      1338.1323      1834.4161      54.659687      299.47675      0.20291851   
    963000   521.28121      1344.1876      1865.4688      45.544814      300.83195      0.20117172   
    964000   505.6767       1358.7925      1864.4692      99.844578      304.10054      0.19847349   
    965000   517.22414      1332.7914      1850.0155      151.69097      298.28145      0.19360891   
    966000   515.34425      1287.4463      1802.7906      167.54562      288.13313      0.1876694    
    967000   492.09634      1326.4465      1818.5428      256.93396      296.86144      0.1857777    
    968000   532.57041      1302.6689      1835.2393      310.94698      291.53997      0.18665207   
    969000   498.3064       1325.1808      1823.4872      291.88919      296.57819      0.18828431   
    970000   519.77568      1298.2411      1818.0167      209.60301      290.54901      0.19175351   
    971000   514.66207      1323.0278      1837.6899      86.89792       296.09634      0.19385736   
    972000   500.97085      1322.0658      1823.0367      67.250114      295.88104      0.19635441   
    973000   523.50518      1336.4437      1859.9489      26.380883      299.09884      0.19652866   
    974000   556.98422      1340.3348      1897.319       64.753045      299.96968      0.19088532   
    975000   531.58211      1364.4381      1896.0202      118.76792      305.36404      0.18397943   
    976000   549.35433      1363.3072      1912.6616      150.01118      305.11096      0.18209441   
    977000   530.31919      1356.9078      1887.227       129.6469       303.67876      0.1823957    
    978000   529.47341      1357.1873      1886.6607      155.65267      303.74131      0.18516391   
    979000   540.52469      1339.3549      1879.8796      129.5606       299.75038      0.19140616   
    980000   514.80028      1358.0768      1872.8771      164.59489      303.94038      0.20121503   
    981000   490.10625      1328.2462      1818.3525      144.90625      297.26423      0.20155099   
    982000   514.76877      1320.0377      1834.8064      87.662194      295.42714      0.19799881   
    983000   521.64152      1323.9283      1845.5699      114.23064      296.29788      0.19731644   
    984000   497.28175      1328.0223      1825.304       151.73067      297.21411      0.1983195    
    985000   499.54456      1302.389       1801.9336      140.38329      291.47734      0.19821741   
    986000   478.87667      1308.5844      1787.4611      166.96956      292.86387      0.19671421   
    987000   505.99813      1352.394       1858.3921      135.69902      302.66855      0.19385523   
    988000   531.58936      1362.5795      1894.1688      206.40494      304.94808      0.19044382   
    989000   531.73363      1395.1272      1926.8608      188.84151      312.23233      0.18580209   
    990000   554.36965      1376.6151      1930.9847      167.98183      308.08928      0.18290609   
    991000   546.7947       1380.0871      1926.8818      157.57632      308.86632      0.18175999   
    992000   515.91048      1391.6597      1907.5702      181.85319      311.45629      0.18715399   
    993000   530.99784      1329.3982      1860.396       226.23769      297.52205      0.19642471   
    994000   460.04196      1372.1856      1832.2276      224.85705      307.09796      0.20091689   
    995000   484.47621      1346.6617      1831.1379      232.73099      301.38566      0.20141887   
    996000   499.32607      1345.3583      1844.6844      257.75304      301.09396      0.20037534   
    997000   529.53116      1319.5587      1849.0898      269.36707      295.31994      0.19958238   
    998000   499.15344      1338.0014      1837.1548      167.28732      299.44746      0.19472752   
    999000   484.67253      1331.8815      1816.554       103.08245      298.07781      0.18843943   
   1000000   543.60772      1293.7647      1837.3724      76.872973      289.5472       0.1845415    
   1001000   534.60356      1296.5732      1831.1768      25.613229      290.17575      0.18086784   
   1002000   527.23417      1319.1428      1846.377       44.332713      295.22688      0.18184877   
   1003000   497.85785      1333.5958      1831.4537      70.936987      298.46148      0.18686018   
   1004000   498.3049       1320.4251      1818.73        154.45069      295.51385      0.19366055   
   1005000   515.13252      1330.9257      1846.0582      236.13183      297.86391      0.19407936   
   1006000   533.16562      1316.884       1850.0496      248.61242      294.72134      0.19165794   
   1007000   528.75153      1320.6296      1849.3812      243.23706      295.55963      0.18999394   
   1008000   532.6041       1336.2433      1868.8474      203.06477      299.05399      0.18780444   
   1009000   523.57003      1316.1181      1839.6881      167.88226      294.54992      0.18408474   
   1010000   528.58084      1310.2498      1838.8306      110.83527      293.23659      0.18131266   
   1011000   505.24892      1316.9522      1822.2012      131.58361      294.73661      0.18197091   
   1012000   521.08967      1340.8871      1861.9767      179.29588      300.09327      0.18340728   
   1013000   520.16518      1285.8936      1806.0588      202.5738       287.78562      0.18713043   
   1014000   505.1499       1336.151       1841.3009      250.17121      299.03334      0.1965779    
   1015000   491.78302      1378.5398      1870.3228      225.54685      308.52004      0.2005884    
   1016000   511.68176      1387.1881      1898.8699      206.29393      310.45555      0.19803756   
   1017000   513.76101      1365.2348      1878.9958      148.42478      305.54235      0.19129037   
   1018000   549.18073      1378.7772      1927.9579      72.602812      308.57317      0.18572906   
   1019000   543.9265       1354.7591      1898.6856      75.54747       303.19787      0.18159365   
   1020000   560.04741      1370.9162      1930.9636      136.7854       306.81385      0.18049761   
   1021000   554.5688       1351.2323      1905.8011      150.16446      302.40856      0.18127312   
   1022000   500.83663      1370.093       1870.9297      238.69994      306.62963      0.18680592   
   1023000   534.2767       1362.5888      1896.8655      300.71221      304.95017      0.19378443   
   1024000   502.67726      1343.8422      1846.5195      248.19128      300.75464      0.19540386   
   1025000   492.42271      1352.4922      1844.9149      210.25927      302.69053      0.19388286   
   1026000   505.04732      1316.3668      1821.4141      173.70275      294.60558      0.18897921   
   1027000   510.5039       1340.9696      1851.4735      214.63846      300.11176      0.1844626    
   1028000   528.42326      1315.4651      1843.8884      166.58525      294.4038       0.1811233    
   1029000   531.05886      1323.4369      1854.4958      151.55511      296.18791      0.18175023   
   1030000   525.59263      1321.9525      1847.5452      94.214214      295.85569      0.18365352   
   1031000   517.45664      1299.0955      1816.5521      65.865305      290.74024      0.18709917   
   1032000   505.42487      1312.4915      1817.9164      46.636651      293.7383       0.19272076   
   1033000   526.48351      1321.5816      1848.0651      66.826755      295.77268      0.19681742   
   1034000   520.48302      1325.0712      1845.5542      179.47088      296.55365      0.19795944   
   1035000   519.06957      1349.3419      1868.4115      282.27657      301.98548      0.1918005    
   1036000   539.44448      1363.483       1902.9274      354.15894      305.15028      0.18391536   
   1037000   532.15896      1348.446       1880.6049      268.28029      301.78498      0.17822294   
   1038000   513.89653      1372.8057      1886.7022      180.97857      307.23672      0.17757638   
   1039000   508.85222      1410.5571      1919.4093      157.37909      315.68558      0.1825972    
   1040000   526.64577      1361.4874      1888.1332      121.04584      304.70368      0.18511764   
   1041000   509.97468      1340.2665      1850.2412      152.95566      299.95439      0.1879475    
   1042000   508.45084      1364.766       1873.2168      216.74469      305.43743      0.19150745   
   1043000   524.24508      1343.4791      1867.7241      198.63924      300.67337      0.19243655   
   1044000   542.21014      1342.0937      1884.3038      200.26669      300.36332      0.19430398   
   1045000   490.72867      1376.9031      1867.6318      106.12999      308.15375      0.18826438   
   1046000   520.44875      1351.3197      1871.7684      60.011573      302.42812      0.18072175   
   1047000   516.9165       1344.991       1861.9075      41.337975      301.01175      0.1781265    
   1048000   517.70853      1345.3227      1863.0312      119.24978      301.08597      0.17793264   
   1049000   530.12882      1335.3296      1865.4584      181.70121      298.8495       0.17873422   
   1050000   556.91443      1315.4791      1872.3936      217.41094      294.40693      0.18309941   
   1051000   527.48049      1338.1202      1865.6007      274.73947      299.47406      0.19199725   
   1052000   510.46861      1388.9576      1899.4262      291.81137      310.85157      0.19819738   
   1053000   501.77987      1365.6244      1867.4043      268.89293      305.62955      0.19789304   
   1054000   502.97773      1370.6655      1873.6432      202.52193      306.75776      0.19613121   
   1055000   527.07627      1355.2431      1882.3194      157.28785      303.30619      0.19342896   
   1056000   530.89972      1358.2885      1889.1883      114.43453      303.98776      0.18935251   
   1057000   518.9036       1371.0104      1889.914       112.38069      306.83495      0.18413751   
   1058000   552.39582      1358.8844      1911.2802      134.46658      304.12112      0.17981463   
   1059000   562.40261      1361.8208      1924.2235      144.25183      304.7783       0.17587921   
   1060000   556.92461      1334.1525      1891.0771      199.72866      298.58607      0.17547425   
   1061000   545.65551      1319.5758      1865.2313      266.98645      295.32377      0.17962177   
   1062000   508.98371      1316.5164      1825.5001      271.33797      294.63908      0.18370851   
   1063000   510.39806      1327.3739      1837.772       241.27603      297.06901      0.18598225   
   1064000   515.14548      1306.9947      1822.1402      186.63198      292.5081       0.18198344   
   1065000   503.61887      1265.8275      1769.4464      108.89894      283.2948       0.1710464    
   1066000   560.28379      1298.6024      1858.8862      45.926158      290.62988      0.16811863   
   1067000   531.68572      1340.1194      1871.8051     -22.125854      299.92148      0.17011517   
   1068000   552.64845      1316.227       1868.8755     -38.044204      294.57431      0.17673061   
   1069000   540.26322      1298.0485      1838.3117      27.410261      290.50591      0.18362569   
   1070000   507.44572      1344.8689      1852.3146      104.04542      300.98441      0.18731171   
   1071000   481.15422      1356.9545      1838.1087      134.21114      303.68921      0.18719752   
   1072000   521.35207      1290.9242      1812.2763      160.58086      288.9115       0.18755816   
   1073000   498.39158      1311.8718      1810.2634      196.97797      293.59961      0.18845646   
   1074000   499.17067      1322.7556      1821.9263      261.21313      296.03542      0.19091521   
   1075000   507.81049      1320.6034      1828.4139      305.62625      295.55376      0.19992213   
   1076000   514.99301      1340.1195      1855.1125      323.94871      299.9215       0.2060919    
   1077000   536.06277      1341.4565      1877.5193      267.1233       300.22072      0.20400052   
   1078000   506.80028      1348.969       1855.7693      147.35695      301.90204      0.19710166   
   1079000   500.63861      1362.8881      1863.5267      115.73333      305.01716      0.19203906   
   1080000   509.60923      1303.9755      1813.5848      65.690383      291.8324       0.18804711   
   1081000   521.10186      1331.0318      1852.1337      13.583052      297.88766      0.18808427   
   1082000   520.14777      1330.857       1851.0047     -11.701721      297.84852      0.19132868   
   1083000   528.33517      1324.9031      1853.2383      76.821465      296.51603      0.19637239   
   1084000   479.35201      1334.4363      1813.7883      75.49274       298.64957      0.19787976   
   1085000   474.27952      1311.9154      1786.1949      153.60471      293.60936      0.20177183   
   1086000   502.14856      1325.6831      1827.8317      165.031        296.6906       0.20321897   
   1087000   487.55415      1307.6952      1795.2493      183.73299      292.66486      0.20181424   
   1088000   474.28632      1333.4853      1807.7716      223.83076      298.43675      0.19690605   
   1089000   477.73921      1389.3521      1867.0913      112.70878      310.93984      0.18778001   
   1090000   551.20256      1352.872       1904.0745      93.228103      302.77552      0.18341988   
   1091000   502.49352      1362.5124      1865.0059      130.06046      304.93307      0.18362089   
   1092000   507.12969      1375.5976      1882.7273      182.65244      307.86156      0.18821915   
   1093000   498.08913      1372.8519      1870.941       219.00628      307.24707      0.19502573   
   1094000   515.36059      1347.0289      1862.3895      242.11254      301.46784      0.19846888   
   1095000   534.66036      1364.6534      1899.3138      163.1192       305.41224      0.19731945   
   1096000   504.19002      1334.5927      1838.7827      174.60039      298.68458      0.19361224   
   1097000   535.19722      1333.1479      1868.3451      183.82823      298.36124      0.19151237   
   1098000   490.81942      1356.0467      1846.8661      213.99465      303.48604      0.1903439    
   1099000   527.05118      1324.0421      1851.0933      236.54333      296.32334      0.18827      
   1100000   504.46361      1311.1798      1815.6434      168.14429      293.44473      0.18426015   
   1101000   516.76641      1282.3035      1799.0699      130.90509      286.98216      0.18485765   
   1102000   535.92695      1268.2247      1804.1517      65.83707       283.83129      0.18738823   
   1103000   521.69564      1310.5141      1832.2098      50.47702       293.29575      0.18923952   
   1104000   513.21498      1336.1649      1849.3799      90.258305      299.03644      0.19229997   
   1105000   520.61025      1317.3004      1837.9107      98.613698      294.81454      0.19007195   
   1106000   520.49615      1309.7145      1830.2106      184.48645      293.11679      0.18454987   
   1107000   519.50066      1300.2235      1819.7242      149.54881      290.99269      0.17998542   
   1108000   529.75242      1310.9449      1840.6973      187.50632      293.39215      0.18055752   
   1109000   507.82839      1355.9897      1863.8181      211.20582      303.47328      0.1863934    
   1110000   533.8899       1357.8196      1891.7095      203.72571      303.88282      0.19379301   
   1111000   497.77969      1350.1536      1847.9333      171.62328      302.16716      0.1989787    
   1112000   503.85899      1396.7892      1900.6482      87.372426      312.60429      0.19954497   
   1113000   517.4891       1379.0285      1896.5176      11.963903      308.62941      0.19814459   
   1114000   518.21419      1371.9642      1890.1784      54.75447       307.04841      0.19300661   
   1115000   503.5966       1358.5739      1862.1705      156.07704      304.05164      0.18717648   
   1116000   531.45761      1362.7959      1894.2535      220.87385      304.99652      0.18595925   
   1117000   547.46221      1330.5025      1877.9647      247.58598      297.76918      0.18760658   
   1118000   529.34157      1347.5593      1876.9008      260.9743       301.58653      0.192926     
   1119000   515.38747      1393.2253      1908.6128      215.23761      311.80669      0.19910829   
   1120000   487.9626       1393.409       1881.3716      129.79678      311.84778      0.19982334   
   1121000   515.99074      1332.3355      1848.3262      71.603069      298.17941      0.19610139   
   1122000   525.08569      1342.39        1867.4757      85.472787      300.42964      0.19463148   
   1123000   525.41911      1319.9516      1845.3707      134.37154      295.40789      0.19203146   
   1124000   525.52812      1325.9965      1851.5246      163.31026      296.76073      0.1875315    
   1125000   526.64034      1288.4007      1815.041       75.796983      288.34672      0.18356684   
   1126000   522.48377      1310.7983      1833.2821      102.56514      293.35935      0.18376679   
   1127000   523.24568      1332.4771      1855.7228      125.66896      298.21112      0.18484706   
   1128000   511.30062      1331.8038      1843.1044      107.41755      298.06043      0.18388968   
   1129000   502.56582      1353.2086      1855.7744      168.47907      302.85086      0.18528959   
   1130000   531.58738      1329.2633      1860.8506      161.13023      297.49185      0.18468677   
   1131000   534.6306       1315.3063      1849.9369      100.81129      294.36826      0.1783944    
   1132000   531.36871      1313.3429      1844.7116      80.665181      293.92884      0.17283046   
   1133000   539.61339      1331.3381      1870.9515      73.401986      297.95621      0.1710307    
   1134000   546.08531      1304.6392      1850.7245      112.33345      291.98094      0.17471875   
   1135000   532.72155      1336.9491      1869.6707      143.38649      299.21196      0.18222918   
   1136000   513.72531      1354.4862      1868.2115      114.70261      303.1368       0.18675084   
   1137000   510.68189      1305.9412      1816.6231      44.278817      292.27233      0.1877026    
   1138000   558.61386      1355.8064      1914.4202      42.417138      303.43224      0.18918664   
   1139000   536.70177      1358.8395      1895.5412      79.125453      304.11106      0.18722009   
   1140000   509.94653      1351.3873      1861.3338      158.6469       302.44324      0.1820516    
   1141000   547.45511      1323.0247      1870.4798      289.07468      296.09563      0.18021428   
   1142000   522.16873      1402.7231      1924.8919      317.80902      313.93232      0.18235067   
   1143000   510.58562      1374.3789      1884.9645      302.26716      307.58881      0.18448771   
   1144000   541.47046      1376.5949      1918.0654      208.53687      308.08477      0.1858703    
   1145000   535.80416      1405.0912      1940.8954      81.422056      314.4623       0.18608032   
   1146000   518.22436      1369.1775      1887.4019      12.310348      306.42475      0.18567328   
   1147000   549.64149      1343.4959      1893.1373      7.1758001      300.67713      0.18240445   
   1148000   513.45894      1329.0371      1842.4961      21.289359      297.44124      0.17916705   
   1149000   558.27298      1287.9888      1846.2617      61.701604      288.25453      0.17807398   
   1150000   519.3353       1340.4944      1859.8297      115.21299      300.0054       0.18167958   
   1151000   541.69738      1356.5368      1898.2342      124.55058      303.59573      0.19067766   
   1152000   502.75308      1352.9786      1855.7317      122.42807      302.79938      0.19632321   
   1153000   514.49627      1357.3013      1871.7976      103.40238      303.76682      0.19612571   
   1154000   516.96841      1384.4482      1901.4166      86.565105      309.84235      0.19396675   
   1155000   506.35043      1431.814       1938.1645      137.95296      320.44292      0.19375911   
   1156000   526.96701      1327.2088      1854.1758      98.440359      297.03206      0.19543881   
   1157000   487.79664      1340.8005      1828.5971      186.06914      300.07389      0.20384058   
   1158000   490.74319      1326.9303      1817.6735      187.22001      296.96973      0.20734693   
   1159000   496.28685      1326.8986      1823.1854      194.7597       296.96263      0.20156214   
   1160000   519.65479      1323.1191      1842.7739      72.244708      296.11677      0.19137889   
   1161000   505.91258      1343.0838      1848.9964      73.609115      300.58492      0.18810336   
   1162000   517.35167      1324.8667      1842.2184      56.769341      296.50788      0.18674711   
   1163000   497.79519      1339.1894      1836.9846      89.392595      299.71333      0.18727688   
   1164000   503.89495      1328.3227      1832.2177      181.45426      297.28135      0.19079075   
   1165000   527.45447      1319.6064      1847.0608      203.2084       295.33062      0.19310667   
   1166000   537.36578      1329.3814      1866.7472      193.20327      297.51829      0.19358934   
   1167000   537.01656      1285.7266      1822.7432      160.72587      287.74826      0.19456481   
   1168000   492.01517      1344.49        1836.5052      98.374817      300.89962      0.20035213   
   1169000   525.59329      1303.1465      1828.7398      56.513716      291.64686      0.20803064   
   1170000   522.58294      1301.8088      1824.3918      46.056203      291.34749      0.20930922   
   1171000   490.84761      1322.0994      1812.947       15.356787      295.88856      0.20340673   
   1172000   500.14455      1307.7825      1807.9271      134.46747      292.68442      0.19832836   
   1173000   500.9822       1310.8144      1811.7966      208.85859      293.36295      0.19554937   
   1174000   499.21406      1367.3263      1866.5404      302.41728      306.01044      0.19413112   
   1175000   516.9813       1345.7073      1862.6886      299.26541      301.17207      0.19231284   
   1176000   527.48106      1336.2789      1863.7599      195.12259      299.06196      0.19148024   
   1177000   528.4466       1368.8816      1897.3282      105.85047      306.35851      0.19210485   
   1178000   509.48478      1356.088       1865.5728      32.900819      303.49528      0.19611489   
   1179000   528.07475      1349.7209      1877.7956      52.585287      302.0703       0.20257842   
   1180000   508.88501      1334.8791      1843.7641      84.097763      298.74867      0.20314231   
   1181000   495.38002      1383.7093      1879.0893      157.18384      309.67697      0.19873465   
   1182000   533.62899      1366.238       1899.867       216.21261      305.76687      0.19406419   
   1183000   553.73318      1324.5051      1878.2383      179.60894      296.42696      0.18590817   
   1184000   529.66563      1296.2996      1825.9653      250.56943      290.11452      0.182028     
   1185000   500.63708      1358.0628      1858.6999      239.12848      303.93725      0.18225291   
   1186000   518.41851      1338.4839      1856.9024      215.27787      299.55544      0.18383428   
   1187000   535.11918      1323.9441      1859.0633      191.2474       296.30141      0.18553494   
   1188000   519.8957       1361.9048      1881.8005      133.60621      304.79709      0.18958716   
   1189000   507.75146      1379.8671      1887.6186      132.31029      308.81709      0.19446818   
   1190000   522.53816      1365.6933      1888.2314      103.88807      305.64495      0.19707343   
   1191000   520.25416      1365.8811      1886.1353      131.21334      305.68699      0.19796809   
   1192000   520.2427       1399.3401      1919.5828      131.45844      313.17518      0.19679016   
   1193000   540.35392      1329.9946      1870.3485      160.24643      297.65553      0.19236448   
   1194000   526.4433       1358.9613      1885.4046      198.10335      304.13833      0.18822724   
   1195000   536.53027      1352.6869      1889.2172      244.01569      302.73411      0.18780057   
   1196000   513.75687      1403.5273      1917.2842      277.54597      314.1123       0.19400898   
   1197000   519.63837      1388.4087      1908.0471      303.82676      310.72871      0.20141831   
   1198000   540.53328      1349.8962      1890.4295      248.76048      302.10955      0.2019067    
   1199000   495.26175      1346.2957      1841.5574      199.25509      301.30373      0.19805452   
   1200000   496.01074      1324.9208      1820.9316      133.95002      296.52         0.19435271   
   1201000   500.15058      1325.041       1825.1916      36.602236      296.54689      0.19183094   
   1202000   511.71119      1281.7193      1793.4305      1.3766431      286.85141      0.19228549   
   1203000   472.44305      1302.1531      1774.5961      45.733817      291.42453      0.19577387   
   1204000   460.6352       1313.0971      1773.7323      155.79653      293.87382      0.20417624   
   1205000   524.32106      1299.1062      1823.4272      234.20845      290.74262      0.21166056   
   1206000   479.89569      1328.0323      1807.928       334.59372      297.21636      0.21197578   
   1207000   472.36745      1317.3248      1789.6922      363.02891      294.81999      0.20705556   
   1208000   478.91843      1293.5172      1772.4357      303.54564      289.49181      0.20126149   
   1209000   503.18969      1307.3336      1810.5233      213.99504      292.58395      0.19993831   
   1210000   492.01088      1324.98        1816.9909      165.0247       296.53324      0.19967899   
   1211000   500.0004       1344.6095      1844.6099      56.539858      300.92637      0.19414167   
   1212000   537.6717       1319.9038      1857.5755     -22.304904      295.39718      0.18633125   
   1213000   539.65774      1329.506       1869.1638      29.914451      297.54618      0.18121142   
   1214000   542.79448      1333.8811      1876.6756      37.58213       298.52533      0.18129552   
   1215000   526.79196      1335.234       1862.026       49.347569      298.82811      0.18812158   
   1216000   497.83639      1302.9339      1800.7703      116.58712      291.59928      0.19656529   
   1217000   510.35055      1275.6826      1786.0332      191.29403      285.50039      0.1993808    
   1218000   486.16529      1319.2213      1805.3866      220.57036      295.24443      0.19962997   
   1219000   488.14264      1326.8632      1815.0058      216.12013      296.9547       0.1986157    
   1220000   492.5707       1353.9215      1846.4922      216.92406      303.01042      0.19576506   
   1221000   512.57111      1315.7102      1828.2814      139.15881      294.45865      0.18990671   
   1222000   518.60555      1277.5697      1796.1753      94.344811      285.92273      0.18591466   
   1223000   522.07223      1303.3561      1825.4284      92.590643      291.69378      0.18460599   
   1224000   514.47079      1342.8388      1857.3096      135.80632      300.53008      0.18667625   
   1225000   515.80858      1314.3912      1830.1998      125.12736      294.16345      0.18808955   
   1226000   524.1406       1305.275       1829.4156      179.08849      292.12322      0.19075449   
   1227000   526.16689      1319.236       1845.4028      225.82867      295.24772      0.19354068   
   1228000   476.61888      1343.3334      1819.9522      285.91443      300.64076      0.19688708   
   1229000   501.69978      1356.165       1857.8648      256.2868       303.5125       0.19935471   
   1230000   521.592        1348.4694      1870.0614      218.15507      301.79021      0.20078985   
   1231000   480.67905      1375.1004      1855.7795      184.81464      307.7503       0.19912538   
   1232000   537.10976      1348.2537      1885.3634      151.40717      301.74194      0.19287184   
   1233000   518.69507      1342.5596      1861.2547      127.84245      300.46759      0.18778373   
   1234000   531.60516      1350.7481      1882.3532      150.31174      302.30019      0.18788629   
   1235000   515.41501      1360.3162      1875.7312      198.97903      304.44155      0.19307761   
   1236000   533.62669      1362.2936      1895.9203      117.71411      304.8841       0.19907828   
   1237000   541.0535       1347.2621      1888.3156      75.533491      301.52003      0.20320203   
   1238000   511.04675      1319.8663      1830.9131      72.958316      295.38879      0.2016035    
   1239000   502.89619      1318.5645      1821.4607      96.651304      295.09745      0.19897601   
   1240000   521.08029      1301.9416      1823.0219      145.67888      291.37721      0.19530799   
   1241000   493.1853       1320.2203      1813.4056      227.35151      295.46801      0.19121421   
   1242000   508.05893      1349.857       1857.9159      254.66524      302.10076      0.19025607   
   1243000   526.60902      1351.2713      1877.8803      256.32153      302.41728      0.19083336   
   1244000   531.43744      1363.0509      1894.4883      195.24326      305.05358      0.1925334    
   1245000   514.24073      1361.8443      1876.0851      176.07905      304.78356      0.19709966   
   1246000   491.44064      1378.4881      1869.9288      173.90278      308.50847      0.20593659   
   1247000   491.92261      1338.8933      1830.8159      204.82286      299.64707      0.20779594   
   1248000   489.9679       1291.2539      1781.2218      224.94093      288.98528      0.20175953   
   1249000   518.11489      1311.4788      1829.5937      247.08225      293.51166      0.19247107   
   1250000   517.73363      1304.0255      1821.7592      241.70473      291.84359      0.18830003   
   1251000   511.85212      1318.9486      1830.8007      124.2665       295.1834       0.18621911   
   1252000   532.24921      1307.4666      1839.7158      66.596648      292.6137       0.18346639   
   1253000   547.58558      1337.3291      1884.9147      30.841823      299.297        0.18179494   
   1254000   548.81033      1341.4103      1890.2206      119.07261      300.21038      0.18225748   
   1255000   525.05311      1361.3142      1886.3674      219.30319      304.66492      0.18214945   
   1256000   530.35924      1343.9056      1874.2648      254.87689      300.76883      0.18199345   
   1257000   512.59128      1317.0647      1829.656       194.41208      294.76179      0.18177841   
   1258000   513.27876      1329.12        1842.3988      104.35104      297.45978      0.18484447   
   1259000   533.77799      1312.0283      1845.8062      0.85392387     293.63462      0.19165022   
   1260000   504.70358      1319.537       1824.2406     -15.650171      295.31509      0.19704832   
   1261000   499.31207      1311.7281      1811.0402     -31.101263      293.56745      0.19935897   
   1262000   502.67887      1270.8962      1773.575       23.250842      284.42917      0.20022536   
   1263000   495.76061      1311.3499      1807.1105      86.304174      293.4828       0.20059007   
   1264000   499.51182      1333.1701      1832.6819      114.20869      298.3662       0.19740698   
   1265000   517.14086      1340.9623      1858.1032      204.76467      300.11012      0.18916831   
   1266000   528.22384      1341.4417      1869.6655      141.54985      300.21741      0.18226833   
   1267000   539.02214      1346.1222      1885.1444      130.26546      301.26492      0.18498039   
   1268000   531.77761      1348.833       1880.6106      130.80106      301.8716       0.19019087   
   1269000   506.70565      1354.6133      1861.3189      155.71115      303.16523      0.19177011   
   1270000   518.74091      1330.0997      1848.8406      194.69441      297.67904      0.19005601   
   1271000   506.72433      1313.2299      1819.9542      244.14261      293.90354      0.18992719   
   1272000   497.75538      1346.5803      1844.3356      253.67703      301.36743      0.1905194    
   1273000   514.58958      1338.3884      1852.978       237.19655      299.53406      0.19244392   
   1274000   534.74577      1330.0039      1864.7496      105.4299       297.65759      0.19186515   
   1275000   510.64941      1347.0505      1857.7         64.412617      301.47268      0.19129614   
   1276000   503.7867       1373.8662      1877.6529      103.50091      307.47408      0.19295256   
   1277000   528.4455       1358.5395      1886.985       208.511        304.04392      0.19298423   
   1278000   547.04195      1365.9886      1913.0306      259.89472      305.71106      0.19018561   
   1279000   532.14837      1390.6941      1922.8425      254.46243      311.2402       0.18396886   
   1280000   537.96196      1375.7144      1913.6764      238.38679      307.88771      0.17990924   
   1281000   548.66374      1357.8375      1906.5012      195.4854       303.88681      0.18099918   
   1282000   517.21713      1317.0883      1834.3055      206.59492      294.76707      0.18655306   
   1283000   516.342        1306.308       1822.65        132.94134      292.35442      0.19359626   
   1284000   490.85045      1352.432       1843.2824      175.56911      302.67705      0.19738818   
   1285000   541.08484      1349.0542      1890.139       219.44566      301.9211       0.19739071   
   1286000   548.97757      1321.2502      1870.2278      201.29876      295.69851      0.19319518   
   1287000   526.55783      1330.8413      1857.3991      213.18978      297.84501      0.18782332   
   1288000   512.32854      1331.0126      1843.3412      201.55679      297.88336      0.18483438   
   1289000   535.49175      1290.3162      1825.808       157.73431      288.77541      0.18351301   
   1290000   506.55705      1284.0274      1790.5844      174.95766      287.36796      0.18663181   
   1291000   491.16524      1330.4757      1821.641       201.37569      297.7632       0.1948051    
   1292000   481.97252      1340.804       1822.7765      117.87374      300.07469      0.19817282   
   1293000   532.12705      1279.8691      1811.9961      46.224491      286.43733      0.19566925   
   1294000   519.88103      1309.4549      1829.3359     -29.707307      293.05869      0.19155186   
   1295000   497.97441      1331.8712      1829.8456      25.687338      298.0755       0.18915458   
   1296000   558.22458      1290.5951      1848.8197      124.36693      288.83784      0.18928572   
   1297000   521.01825      1313.2179      1834.2361      167.12864      293.90086      0.1884106    
   1298000   504.57343      1309.3529      1813.9264      189.50637      293.03587      0.18690091   
   1299000   511.17263      1294.3138      1805.4864      158.6725       289.67009      0.18570957   
   1300000   493.1225       1316.4528      1809.5753      165.15155      294.62485      0.18571658   
   1301000   517.43485      1318.9318      1836.3666      213.92677      295.17963      0.18703744   
   1302000   531.60509      1302.319       1833.9241      264.50706      291.46167      0.19086734   
   1303000   500.36819      1312.9004      1813.2686      350.71936      293.82981      0.1977026    
   1304000   488.6532       1321.9736      1810.6268      293.13447      295.86039      0.2019795    
   1305000   491.64122      1335.0956      1826.7368      228.56689      298.79713      0.201354     
   1306000   484.57773      1345.5071      1830.0848      176.16232      301.12724      0.19578305   
   1307000   501.97456      1311.9514      1813.926       139.03828      293.61742      0.18409614   
   1308000   545.93632      1299.3924      1845.3288      131.66011      290.80669      0.18146738   
   1309000   523.97546      1331.0204      1854.9959      203.881        297.88511      0.18519805   
   1310000   510.73865      1345.5449      1856.2835      233.84751      301.13571      0.19046716   
   1311000   515.56508      1290.474       1806.0391      253.51506      288.81073      0.19687784   
   1312000   516.43695      1327.8053      1844.2423      174.51301      297.16556      0.19959938   
   1313000   519.34108      1315.43        1834.771       108.86232      294.39593      0.20087998   
   1314000   492.92537      1350.7565      1843.6819      21.076234      302.30208      0.19931036   
   1315000   527.6838       1320.6561      1848.3399     -14.400797      295.56554      0.19315167   
   1316000   534.65087      1331.0112      1865.662       50.203346      297.88303      0.19024759   
   1317000   526.43463      1344.2787      1870.7133      60.374591      300.85233      0.18779936   
   1318000   534.20939      1337.9488      1872.1582      108.23415      299.43569      0.18806916   
   1319000   534.63948      1328.2698      1862.9093      132.53781      297.26951      0.1903269    
   1320000   505.84754      1368.8659      1874.7134      149.46942      306.35499      0.19241881   
   1321000   491.56905      1378.9465      1870.5156      215.28171      308.61106      0.19404104   
   1322000   511.97929      1371.6856      1883.6649      282.95124      306.98605      0.191577     
   1323000   559.11372      1301.7446      1860.8583      260.52002      291.33312      0.18356973   
   1324000   514.99092      1356.9773      1871.9682      308.47668      303.69431      0.18031731   
   1325000   537.24138      1334.6701      1871.9115      196.18752      298.70192      0.18208321   
   1326000   530.83454      1331.5308      1862.3653      111.83483      297.99933      0.18571393   
   1327000   500.30863      1310.9034      1811.212       50.980963      293.38287      0.19002946   
   1328000   506.405        1333.9262      1840.3312      65.417792      298.53541      0.19972543   
   1329000   502.12681      1322.1949      1824.3217      108.25711      295.90994      0.20535009   
   1330000   482.5961       1344.2177      1826.8138      139.46047      300.83868      0.20521206   
   1331000   497.12152      1354.74        1851.8616      207.66146      303.1936       0.20225354   
   1332000   504.97476      1338.422       1843.3968      235.43163      299.5416       0.19938509   
   1333000   532.84122      1304.4702      1837.3115      226.81958      291.94312      0.19454567   
   1334000   519.20482      1340.1096      1859.3144      130.70324      299.91929      0.19083147   
   1335000   538.77693      1304.0984      1842.8754      41.109112      291.85991      0.19246197   
   1336000   552.47832      1320.0031      1872.4814      30.973905      295.4194       0.19552999   
   1337000   517.77908      1314.4528      1832.2319      110.1387       294.17724      0.19810842   
   1338000   476.42653      1277.8379      1754.2644      151.4551       285.98274      0.20150889   
   1339000   493.92703      1315.6235      1809.5505      150.61827      294.43924      0.20380753   
   1340000   482.21553      1334.078       1816.2935      225.50537      298.56939      0.20463262   
   1341000   514.17781      1310.8893      1825.0671      228.23047      293.37972      0.20224236   
   1342000   526.81303      1288.4351      1815.2481      277.7418       288.35442      0.20051999   
   1343000   523.85876      1306.8642      1830.7229      276.16655      292.47888      0.19921309   
   1344000   481.20232      1358.1699      1839.3722      264.2692       303.9612       0.19935889   
   1345000   511.19809      1358.5001      1869.6982      186.10016      304.03512      0.20013345   
   1346000   516.5921       1374.9497      1891.5418      158.53699      307.71656      0.20053697   
   1347000   497.64351      1342.1233      1839.7669      198.25727      300.36996      0.20524624   
   1348000   484.66921      1298.4894      1783.1586      243.54173      290.6046       0.21061238   
   1349000   485.42538      1330.5928      1816.0181      270.40604      297.78939      0.2123872    
   1350000   496.02735      1310.4484      1806.4758      245.5971       293.28105      0.20649062   
   1351000   503.47501      1298.1685      1801.6435      197.72235      290.53278      0.19814028   
   1352000   527.40012      1329.8792      1857.2793      126.97902      297.6297       0.19309694   
   1353000   508.43771      1332.9085      1841.3462      137.11625      298.30765      0.19075166   
   1354000   497.35659      1354.1127      1851.4693      171.28693      303.0532       0.19303365   
   1355000   508.39788      1362.6462      1871.0441      188.74135      304.96302      0.19985632   
   1356000   515.40899      1307.2354      1822.6444      208.73836      292.56197      0.20493546   
   1357000   508.66627      1372.4617      1881.128       140.17793      307.15976      0.20287478   
   1358000   508.89531      1391.6176      1900.5129      115.37665      311.44687      0.19825896   
   1359000   522.59857      1367.3351      1889.9337      62.921976      306.0124       0.19405931   
   1360000   529.36379      1343.41        1872.7738      27.687138      300.65792      0.19186595   
   1361000   538.57331      1346.03        1884.6033      37.453771      301.24427      0.19070255   
   1362000   480.6469       1328.0054      1808.6523      152.92243      297.21033      0.19779611   
   1363000   503.13376      1306.3449      1809.4787      258.60755      292.36268      0.20938064   
   1364000   474.11927      1322.7247      1796.844       353.86531      296.02851      0.21267188   
   1365000   503.64899      1320.813       1824.462       394.40164      295.60065      0.20998772   
   1366000   519.32661      1297.4275      1816.7541      301.02113      290.36694      0.20012585   
   1367000   511.07259      1283.3978      1794.4704      227.46001      287.22706      0.19521343   
   1368000   487.40794      1385.3818      1872.7897      164.14524      310.05128      0.19416675   
   1369000   538.02954      1340.1681      1878.1976      101.63044      299.93237      0.19285468   
   1370000   542.32454      1339.8111      1882.1357      12.464544      299.85248      0.1904077    
   1371000   531.27335      1385.5523      1916.8256      19.35413       310.08944      0.1877139    
   1372000   536.31388      1343.6468      1879.9606      63.165683      300.7109       0.18259892   
   1373000   560.38305      1350.8301      1911.2131     -2.8429608      302.31854      0.17765927   
   1374000   526.00883      1359.321       1885.3298      76.834338      304.21883      0.1800539    
   1375000   510.23737      1366.0982      1876.3356      142.00237      305.73559      0.18878551   
   1376000   503.44064      1339.8321      1843.2727      184.6186       299.85717      0.19616444   
   1377000   546.65946      1284.3338      1830.9932      189.92436      287.43653      0.19619549   
   1378000   528.02553      1282.8922      1810.9177      165.21648      287.1139       0.19281921   
   1379000   487.21716      1322.4518      1809.669       184.39335      295.96743      0.18777299   
   1380000   516.42594      1315.1102      1831.5362      124.51337      294.32437      0.18249926   
   1381000   528.09625      1304.0048      1832.101       91.629859      291.83894      0.18091743   
   1382000   520.05787      1326.276       1846.3338      80.542065      296.82328      0.18117403   
   1383000   552.36637      1321.6424      1874.0088      122.38746      295.78629      0.18143921   
   1384000   564.18926      1309.5885      1873.7778      146.51724      293.0886       0.18077255   
   1385000   510.01539      1330.6503      1840.6657      112.4152       297.80226      0.17880235   
   1386000   548.0134       1338.7024      1886.7158      76.512832      299.60433      0.18389946   
   1387000   545.60974      1345.6999      1891.3096      90.360437      301.17039      0.19210156   
   1388000   519.61265      1341.4106      1861.0233      139.81026      300.21045      0.19557062   
   1389000   513.48218      1358.4072      1871.8894      173.89621      304.01432      0.19653468   
   1390000   499.91218      1339.0703      1838.9825      256.98382      299.68668      0.19469955   
   1391000   510.78922      1300.2699      1811.0591      292.62087      291.00307      0.19018094   
   1392000   518.42345      1287.3702      1805.7936      218.36065      288.11608      0.18442625   
   1393000   529.61262      1307.7624      1837.375       169.36333      292.67992      0.18074235   
   1394000   521.64503      1343.0421      1864.6871      97.785976      300.57557      0.18293045   
   1395000   531.3526       1312.9418      1844.2944      153.40951      293.83908      0.1940694    
   1396000   499.0418       1333.1415      1832.1833      150.22668      298.3598       0.19923132   
   1397000   520.19355      1337.5091      1857.7027      166.11455      299.33729      0.19952537   
   1398000   519.79793      1332.4551      1852.253       134.37688      298.20618      0.19574839   
   1399000   524.53516      1360.6921      1885.2273      55.777965      304.52569      0.19056063   
   1400000   513.57159      1356.2811      1869.8527      137.99493      303.53849      0.18856368   
   1401000   533.92379      1315.0005      1848.9243      120.74594      294.2998       0.18954311   
   1402000   512.95713      1314.5565      1827.5137      108.98303      294.20045      0.19393827   
   1403000   521.56641      1366.4071      1887.9735      92.926807      305.80471      0.19690119   
   1404000   518.17871      1328.8835      1847.0622      39.675194      297.40686      0.19668637   
   1405000   510.43096      1337.7024      1848.1334      65.237771      299.38055      0.19485991   
   1406000   529.6321       1334.4645      1864.0966      155.59675      298.65589      0.18838986   
   1407000   538.55387      1320.2961      1858.8499      208.40659      295.48497      0.18022672   
   1408000   549.35621      1340.6228      1889.979       249.64932      300.03414      0.18051216   
   1409000   537.23899      1330.3466      1867.5856      187.88313      297.73431      0.18407819   
   1410000   554.23126      1340.3988      1894.63        97.686682      299.984        0.18823205   
   1411000   506.59258      1364.5834      1871.176       9.1581303      305.39657      0.18984643   
   1412000   513.27006      1367.1233      1880.3933      76.280062      305.96499      0.19621859   
   1413000   524.28496      1354.057       1878.342       149.67652      303.04074      0.20056817   
   1414000   529.90519      1356.1502      1886.0554      204.01994      303.50919      0.20145687   
   1415000   509.12221      1364.7173      1873.8395      302.32114      305.42654      0.19998581   
   1416000   536.07891      1342.1242      1878.2031      319.92046      300.37015      0.19572212   
   1417000   534.55381      1393.6296      1928.1834      309.46908      311.89717      0.19149727   
   1418000   521.90085      1367.3618      1889.2627      257.07067      306.01838      0.18949064   
   1419000   552.31121      1348.0949      1900.4061      186.86906      301.70641      0.18718076   
   1420000   538.68149      1339.523       1878.2045      98.411402      299.788        0.1843591    
   1421000   556.4573       1371.8861      1928.3434      18.163581      307.03092      0.17979066   
   1422000   553.37515      1377.0634      1930.4385     -10.766557      308.18961      0.17380241   
   1423000   544.85403      1339.4127      1884.2668     -45.528016      299.76332      0.1731104    
   1424000   544.79729      1317.4956      1862.2929      15.108509      294.85822      0.17942681   
   1425000   515.2634       1297.5449      1812.8083      92.441987      290.3932       0.18710159   
   1426000   522.7308       1315.2524      1837.9832      180.85124      294.35618      0.19339189   
   1427000   495.55505      1328.0895      1823.6445      290.91601      297.22915      0.19538527   
   1428000   506.777        1339.0752      1845.8522      282.4875       299.68777      0.1919311    
   1429000   525.5531       1360.463       1886.0161      262.28005      304.4744       0.18745959   
   1430000   534.85683      1392.6438      1927.5006      233.9478       311.67654      0.18380151   
   1431000   609.10838      1314.5911      1923.6995      194.0476       294.20818      0.18163296   
   1432000   542.84622      1377.3615      1920.2077      204.04884      308.25633      0.18369627   
   1433000   517.62767      1391.2964      1908.924       164.54209      311.37498      0.18678839   
   1434000   537.83746      1360.6618      1898.4993      144.73087      304.51891      0.19509525   
   1435000   495.07076      1311.1612      1806.2319      107.78226      293.44056      0.20365198   
   1436000   476.64716      1307.4767      1784.1238      186.34549      292.61597      0.20776501   
   1437000   464.96516      1345.6138      1810.5789      211.05225      301.15112      0.20743144   
   1438000   518.72692      1302.2076      1820.9345      202.90278      291.43673      0.20409471   
   1439000   524.30518      1299.3733      1823.6785      180.81225      290.80241      0.19817504   
   1440000   524.85482      1294.6883      1819.5431      188.6699       289.75389      0.1942946    
   1441000   505.99742      1307.4584      1813.4558      205.70027      292.61187      0.19337222   
   1442000   530.45877      1311.2439      1841.7026      186.04118      293.45907      0.19301288   
   1443000   498.69678      1349.9077      1848.6045      229.30043      302.11212      0.19535554   
   1444000   494.24455      1347.9825      1842.2271      192.20521      301.68126      0.19853002   
   1445000   514.71139      1339.4343      1854.1456      150.09063      299.76813      0.19971085   
   1446000   543.27566      1326.5623      1869.838       79.090948      296.88737      0.19776044   
   1447000   499.89843      1428.2225      1928.1209      151.20271      319.63913      0.19231255   
   1448000   535.14574      1384.8519      1919.9977      193.9987       309.93271      0.18111948   
   1449000   561.28629      1356.8178      1918.1041      230.28929      303.65862      0.17660999   
   1450000   550.68405      1378.6775      1929.3616      296.37216      308.55086      0.18163702   
   1451000   546.71033      1391.1369      1937.8472      299.5718       311.33929      0.18882761   
   1452000   521.44273      1356.8618      1878.3045      255.93974      303.66846      0.19397347   
   1453000   524.58249      1344.3357      1868.9182      282.82458      300.86508      0.19463164   
   1454000   503.66117      1368.6288      1872.29        211.8484       306.30194      0.19205518   
   1455000   530.33493      1359.6564      1889.9914      180.41724      304.2939       0.19068615   
   1456000   531.82934      1343.4609      1875.2902      44.888721      300.66931      0.18743666   
   1457000   523.82729      1290.7471      1814.5744      55.240255      288.87186      0.18549524   
   1458000   489.67446      1307.1265      1796.801       25.432356      292.53759      0.1791174    
   1459000   545.50524      1319.8472      1865.3524      67.283353      295.3845       0.17136965   
   1460000   536.44248      1324.7052      1861.1477      67.314801      296.47175      0.16764045   
   1461000   520.48217      1346.6757      1867.1579      156.27953      301.38879      0.1719445    
   1462000   528.71019      1337.7216      1866.4318      226.69702      299.38485      0.17863481   
   1463000   536.94332      1350.1553      1887.0987      251.33644      302.16754      0.18238525   
   1464000   515.33242      1343.7357      1859.0681      223.88223      300.73081      0.18351061   
   1465000   521.33858      1352.4813      1873.8198      217.24933      302.68808      0.18654957   
   1466000   557.61172      1311.717       1869.3288      190.59242      293.56496      0.19012657   
   1467000   515.9123       1369.7776      1885.6899      182.55577      306.55904      0.19327009   
   1468000   533.93287      1359.2625      1893.1953      131.72552      304.20573      0.19405792   
   1469000   537.22696      1337.0061      1874.2331      165.77194      299.22471      0.19599662   
   1470000   494.75699      1334.2515      1829.0085      129.56838      298.60822      0.18881359   
   1471000   517.50586      1353.2252      1870.731       121.3875       302.85457      0.18095727   
   1472000   535.23951      1325.006       1860.2455      137.21331      296.53905      0.17990585   
   1473000   559.02402      1323.2594      1882.2834      155.44936      296.14817      0.18356129   
   1474000   536.48014      1347.9189      1884.399       164.30197      301.66701      0.1881339    
   1475000   512.58457      1300.0148      1812.5994      159.55573      290.94598      0.18998282   
   1476000   514.85983      1305.4135      1820.2733      85.197718      292.15421      0.19079732   
   1477000   524.30812      1303.1388      1827.4469      38.843151      291.64514      0.19084969   
   1478000   526.87251      1326.0079      1852.8804      75.647889      296.76329      0.19000957   
   1479000   532.4527       1314.6225      1847.0752      131.95487      294.21521      0.19083154   
   1480000   523.64093      1287.4821      1811.123       151.14686      288.14113      0.1923331    
   1481000   503.968        1347.1403      1851.1083      211.45583      301.49276      0.1956172    
   1482000   540.82587      1298.552       1839.3779      181.63398      290.61861      0.19735728   
   1483000   503.93693      1316.0587      1819.9956      138.65644      294.53663      0.19810051   
   1484000   495.12844      1312.6948      1807.8232      93.89858       293.78379      0.19605318   
   1485000   502.3252       1306.8772      1809.2024      53.465445      292.48179      0.19075822   
   1486000   521.06543      1312.088       1833.1534      98.066355      293.64798      0.18627749   
   1487000   511.60251      1340.1862      1851.7887      123.88088      299.93642      0.18222438   
   1488000   521.92093      1344.7531      1866.674       173.71683      300.9585       0.18034791   
   1489000   534.84922      1351.9338      1886.7831      235.44851      302.56557      0.18204325   
   1490000   512.1337       1375.0434      1887.1771      271.80632      307.73754      0.18624642   
   1491000   509.32986      1380.0151      1889.3449      301.81824      308.85021      0.19492802   
   1492000   518.04102      1336.9062      1854.9472      267.8105       299.20235      0.2023947    
   1493000   516.79451      1355.2457      1872.0402      223.97363      303.30676      0.20270831   
   1494000   506.36596      1349.4759      1855.8419      210.53703      302.01547      0.19961085   
   1495000   501.15359      1336.7876      1837.9412      196.11652      299.17581      0.19557344   
   1496000   535.10347      1330.6346      1865.7381      154.32134      297.79875      0.19233387   
   1497000   533.60491      1325.1348      1858.7397      170.81139      296.56789      0.19135633   
   1498000   537.86049      1320.4827      1858.3432      155.10093      295.52673      0.18977693   
   1499000   510.83355      1353.2778      1864.1114      146.20863      302.86635      0.19001775   
   1500000   520.78707      1373.8906      1894.6776      116.61035      307.47953      0.19327373   
   1501000   502.35697      1311.454       1813.811       110.79448      293.5061       0.20331631   
   1502000   476.6518       1333.9629      1810.6147      163.00895      298.54364      0.20853187   
   1503000   517.08941      1300.6778      1817.7672      227.48417      291.09437      0.20677861   
   1504000   489.30661      1285.1937      1774.5003      191.00105      287.629        0.20141641   
   1505000   500.48133      1306.6068      1807.0881      181.74196      292.42128      0.19733939   
   1506000   493.08894      1330.3598      1823.4488      230.20971      297.73726      0.19437178   
   1507000   497.49368      1343.1233      1840.617       177.60221      300.59376      0.19232723   
   1508000   513.08024      1333.0957      1846.1759      134.88509      298.34955      0.19161367   
   1509000   493.81276      1306.7135      1800.5262      124.48509      292.44516      0.1922352    
   1510000   527.16012      1296.976       1824.1361      107.11899      290.26589      0.19139252   
   1511000   539.31004      1332.8931      1872.2032      135.84285      298.30422      0.19237931   
   1512000   492.799        1378.903       1871.702       173.93432      308.60132      0.1928738    
   1513000   520.38454      1379.3851      1899.7696      210.60918      308.70922      0.19427422   
   1514000   530.70105      1404.9219      1935.623       222.66062      314.42441      0.19597576   
   1515000   491.42963      1338.7022      1830.1319      241.75182      299.60431      0.19834462   
   1516000   489.08935      1333.9559      1823.0453      134.89798      298.54208      0.19748107   
   1517000   504.74243      1311.461       1816.2034      90.672706      293.50766      0.19662518   
   1518000   500.01158      1304.0894      1804.101       68.983849      291.85789      0.19211081   
   1519000   548.84376      1325.3926      1874.2364      98.52977       296.62558      0.18784987   
   1520000   501.31225      1365.9803      1867.2926      200.92599      305.70921      0.18647829   
   1521000   546.41945      1338.3117      1884.7312      278.68662      299.51691      0.18919108   
   1522000   528.41209      1389.9155      1918.3276      334.96411      311.06594      0.19642431   
   1523000   516.79548      1383.1171      1899.9126      359.52084      309.54444      0.20030389   
   1524000   521.67123      1366.0685      1887.7397      191.00637      305.72893      0.19694596   
   1525000   536.18698      1339.3308      1875.5178      68.90782       299.74498      0.19527825   
   1526000   504.25911      1360.1619      1864.421      -22.671292      304.40702      0.19283807   
   1527000   533.1009       1379.0412      1912.1421     -21.757094      308.63224      0.19258453   
   1528000   520.56827      1350.8226      1871.3909      46.791447      302.31687      0.19308139   
   1529000   524.11174      1350.605       1874.7167      149.57625      302.26816      0.19981283   
   1530000   518.82907      1357.7973      1876.6263      143.25541      303.87781      0.20699806   
   1531000   508.60047      1328.6114      1837.2119      169.34937      297.34595      0.20738128   
   1532000   504.66308      1353.0276      1857.6907      187.50615      302.81036      0.20352885   
   1533000   498.60947      1340.3021      1838.9116      176.90669      299.96237      0.19750847   
   1534000   521.41416      1354.9645      1876.3786      142.55938      303.24383      0.19203408   
   1535000   509.12143      1342.4383      1851.5597      83.70817       300.44045      0.1903075    
   1536000   522.11462      1342.2989      1864.4135      123.21877      300.40925      0.19180698   
   1537000   531.70475      1350.8453      1882.55        177.9048       302.32194      0.1911311    
   1538000   525.9434       1320.5787      1846.5221      214.4601       295.54823      0.18754559   
   1539000   513.1559       1279.656       1792.8119      183.21823      286.38965      0.18499279   
   1540000   516.37673      1341.312       1857.6888      209.23584      300.18839      0.18649407   
   1541000   515.10943      1345.8611      1860.9705      188.16686      301.20648      0.18701302   
   1542000   536.45742      1320.9912      1857.4486      164.85504      295.64054      0.18592235   
   1543000   514.44578      1320.3123      1834.7581      160.47454      295.48861      0.18609375   
   1544000   501.38013      1304.9624      1806.3426      128.19156      292.05327      0.18874642   
   1545000   528.87797      1290.1063      1818.9843      142.96937      288.72844      0.19507731   
   1546000   499.91248      1330.5893      1830.5018      151.26194      297.78861      0.19838486   
   1547000   524.31849      1310.2176      1834.5361      86.942876      293.22939      0.1978148    
   1548000   523.21112      1336.6056      1859.8167      73.887059      299.13507      0.19363005   
   1549000   523.96894      1368.4942      1892.4631      160.11184      306.2718       0.19025645   
   1550000   520.08567      1344.3706      1864.4562      249.87402      300.87289      0.18807595   
   1551000   527.70689      1359.4278      1887.1346      288.36788      304.24272      0.18776913   
   1552000   536.11529      1363.4037      1899.519       262.57019      305.13255      0.19014885   
   1553000   518.99511      1347.8385      1866.8336      131.8411       301.64902      0.1908348    
   1554000   555.90941      1338.9156      1894.825      -12.813576      299.65206      0.19167677   
   1555000   522.63335      1346.171       1868.8044     -85.258103      301.27583      0.19314244   
   1556000   524.11248      1330.0126      1854.125       8.8238419      297.65954      0.19558398   
   1557000   505.94902      1346.8633      1852.8123      191.70072      301.43077      0.19831151   
   1558000   510.06017      1304.865       1814.9252      309.99146      292.03146      0.19885282   
   1559000   477.4958       1343.105       1820.6008      323.32021      300.58966      0.1999149    
   1560000   535.87159      1318.6407      1854.5123      280.80527      295.1145       0.19919659   
   1561000   492.31505      1353.9377      1846.2527      188.01103      303.01403      0.19524153   
   1562000   507.69441      1327.5618      1835.2562      94.505236      297.11105      0.18772068   
   1563000   556.54054      1322.3676      1878.9082      77.295665      295.94859      0.18375244   
   1564000   550.77853      1341.2589      1892.0374      70.447587      300.17649      0.18273991   
   1565000   514.46687      1350.577       1865.0438      72.744875      302.26189      0.18335799   
   1566000   538.27347      1333.8515      1872.125       157.47383      298.5187       0.18977693   
   1567000   513.33833      1351.236       1864.5743      234.10517      302.40939      0.19731991   
   1568000   513.11997      1385.9212      1899.0411      211.45194      310.172        0.19983274   
   1569000   525.49161      1339.7075      1865.1991      137.35632      299.82929      0.19824664   
   1570000   525.81358      1320.6425      1846.4561      82.330795      295.5625       0.19557638   
   1571000   518.4648       1342.3962      1860.861       65.132878      300.43103      0.19402015   
   1572000   531.38874      1351.694       1883.0827      93.369507      302.51188      0.19130091   
   1573000   535.87847      1330.5344      1866.4128      202.23032      297.77633      0.19035387   
   1574000   533.50902      1365.5558      1899.0648      212.63756      305.61419      0.18813025   
   1575000   535.82564      1340.7295      1876.5552      165.65652      300.05802      0.18794288   
   1576000   531.84791      1304.0881      1835.936       82.543473      291.8576       0.18729774   
   1577000   490.28252      1347.4586      1837.7411      111.7432       301.56399      0.18949825   
   1578000   546.88366      1308.344       1855.2277      156.38276      292.81008      0.19278409   
   1579000   555.76686      1300.6117      1856.3786      184.15117      291.07958      0.19404202   
   1580000   495.85524      1335.1313      1830.9866      275.805        298.80513      0.19436795   
   1581000   513.91313      1342.3275      1856.2406      269.90714      300.41565      0.19096225   
   1582000   527.75426      1293.0332      1820.7874      173.35093      289.38348      0.18596057   
   1583000   536.53468      1294.2089      1830.7436      34.433314      289.64661      0.18380256   
   1584000   506.77011      1303.5033      1810.2734     -33.455237      291.72671      0.18322547   
   1585000   505.60186      1331.3744      1836.9762      3.9800625      297.96432      0.18799692   
   1586000   517.2827       1335.506       1852.7887      131.35416      298.88898      0.19683159   
   1587000   491.19871      1327.9114      1819.1101      299.19255      297.18931      0.20222968   
   1588000   515.33477      1303.6779      1819.0126      291.34872      291.76578      0.20274432   
   1589000   478.12299      1314.2256      1792.3486      255.076        294.12638      0.19881815   
   1590000   514.8403       1282.6369      1797.4772      117.45628      287.05676      0.19066378   
   1591000   523.95255      1296.3014      1820.254       13.387299      290.11492      0.18606728   
   1592000   542.17545      1327.4494      1869.6248      24.632294      297.08589      0.18480481   
   1593000   516.86388      1334.7385      1851.6023      77.93106       298.71721      0.18583601   
   1594000   529.4804       1347.1329      1876.6133      127.56229      301.49111      0.18892892   
   1595000   513.39879      1358.4206      1871.8194      191.86123      304.01731      0.1951056    
   1596000   511.00251      1344.2384      1855.2409      276.23946      300.84331      0.19947931   
   1597000   531.53972      1320.8136      1852.3533      254.62067      295.60079      0.19924495   
   1598000   496.94574      1360.9237      1857.8695      285.44013      304.57752      0.19775249   
   1599000   510.752        1344.9934      1855.7454      207.25199      301.01229      0.19510573   
   1600000   533.06214      1327.3754      1860.4375      113.30522      297.06934      0.19166375   
   1601000   505.97332      1312.1181      1818.0914      96.250907      293.65473      0.18706308   
   1602000   503.02603      1347.0316      1850.0576      96.770689      301.46844      0.18365879   
   1603000   543.88717      1341.8936      1885.7808      177.7993       300.31855      0.18430442   
   1604000   540.44373      1362.3764      1902.8201      238.07671      304.90264      0.18532469   
   1605000   517.33153      1361.2267      1878.5583      269.68207      304.64534      0.1870904    
   1606000   522.41695      1364.0771      1886.4941      229.8089       305.28326      0.18924013   
   1607000   548.91865      1385.3965      1934.3151      172.95128      310.05458      0.19214919   
   1608000   536.55539      1372.993       1909.5484      111.49998      307.27866      0.19525649   
   1609000   541.40195      1355.2079      1896.6098      22.954786      303.29831      0.19840898   
   1610000   514.10608      1338.662       1852.7681      21.097683      299.59531      0.20137091   
   1611000   512.65499      1361.1359      1873.7909      99.80763       304.62502      0.20475637   
   1612000   519.64622      1328.2638      1847.9101      209.55523      297.26818      0.20575675   
   1613000   529.49559      1322.0457      1851.5413      285.53767      295.87654      0.20132221   
   1614000   526.44759      1347.6011      1874.0487      285.73268      301.59589      0.19692769   
   1615000   545.4212       1356.8288      1902.25        236.22842      303.66108      0.19511743   
   1616000   533.00679      1371.6204      1904.6272      103.33961      306.97146      0.19485527   
   1617000   510.90281      1354.9481      1865.8509      14.035259      303.24017      0.19622052   
   1618000   545.37885      1315.6833      1861.0621      0.15815296     294.45262      0.1963033    
   1619000   545.63034      1311.7477      1857.378      -12.277909      293.57183      0.1937783    
   1620000   511.40296      1360.0596      1871.4626      111.68115      304.38414      0.19325999   
   1621000   496.78471      1353.486       1850.2707      199.23939      302.91295      0.19625447   
   1622000   534.3015       1324.8867      1859.1882      203.37159      296.51236      0.20188078   
   1623000   528.80349      1287.3906      1816.1941      153.0743       288.12067      0.20222173   
   1624000   506.70052      1324.8977      1831.5982      169.51422      296.51483      0.20312473   
   1625000   504.15769      1325.8226      1829.9803      177.18226      296.72183      0.20181261   
   1626000   491.68105      1300.5925      1792.2736      164.99736      291.07528      0.1942523    
   1627000   524.28779      1321.1193      1845.4071      198.26881      295.66921      0.18699321   
   1628000   511.3945       1351.931       1863.3255      218.01651      302.56493      0.18495118   
   1629000   569.55003      1300.5946      1870.1446      171.16284      291.07573      0.18574923   
   1630000   522.16446      1302.3324      1824.4969      175.09365      291.46467      0.18927221   
   1631000   520.0455       1320.3824      1840.4279      171.25145      295.50429      0.19400439   
   1632000   521.65484      1304.2416      1825.8965      191.5827       291.89195      0.19532288   
   1633000   513.67262      1354.536       1868.2086      154.72814      303.14794      0.19279758   
   1634000   540.78219      1370.2755      1911.0577      179.67496      306.67046      0.18763309   
   1635000   563.37163      1324.3496      1887.7212      111.51345      296.39215      0.17543835   
   1636000   557.83696      1302.8648      1860.7018      58.888981      291.58383      0.17340528   
   1637000   549.97347      1324.2658      1874.2393      51.457424      296.37341      0.1777845    
   1638000   554.09205      1320.1909      1874.2829      134.97927      295.46142      0.18433795   
   1639000   518.50595      1333.5072      1852.0132      153.50163      298.44165      0.18573158   
   1640000   507.11021      1313.805       1820.9152      257.17758      294.03225      0.18695589   
   1641000   502.23884      1332.4021      1834.6409      260.33804      298.19431      0.18733249   
   1642000   511.72127      1298.0158      1809.7371      239.37769      290.4986       0.18872763   
   1643000   492.59174      1288.7754      1781.3671      224.4411       288.43058      0.19121892   
   1644000   522.19213      1320.9169      1843.109       193.72871      295.62391      0.19799692   
   1645000   516.6439       1319.4079      1836.0518      185.55489      295.28619      0.2068867    
   1646000   498.39294      1329.211       1827.604       134.52378      297.48016      0.20503169   
   1647000   548.75011      1341.8762      1890.6263      98.149181      300.31465      0.19688897   
   1648000   535.95178      1375.6815      1911.6333      167.71648      307.88035      0.1918145    
   1649000   526.32257      1352.4446      1878.7671      294.12329      302.67987      0.18962378   
   1650000   541.68855      1339.7637      1881.4523      307.73956      299.84187      0.19082506   
   1651000   535.70434      1339.3174      1875.0217      331.67038      299.74198      0.19395865   
   1652000   518.84598      1376.1843      1895.0303      249.5339       307.99287      0.19406862   
   1653000   520.7036       1348.6757      1869.3793      133.88279      301.83639      0.19179659   
   1654000   541.4767       1359.7428      1901.2195      45.511796      304.31324      0.18671407   
   1655000   559.80877      1338.9825      1898.7913      44.009013      299.66703      0.18150423   
   1656000   535.4033       1377.7182      1913.1215      119.00356      308.33615      0.18320165   
   1657000   528.12473      1410.273       1938.3977      196.41434      315.62199      0.1910835    
   1658000   511.47012      1387.7793      1899.2494      221.76352      310.58786      0.19669484   
   1659000   527.98726      1326.8821      1854.8693      174.58709      296.95893      0.196567     
   1660000   527.97938      1336.2028      1864.1822      128.36092      299.04492      0.19336431   
   1661000   564.41623      1333.407       1897.8232      113.54987      298.41923      0.18709997   
   1662000   530.3705       1363.2552      1893.6257      80.173414      305.09931      0.18217903   
   1663000   543.42337      1347.9601      1891.3834      177.96087      301.67623      0.18535664   
   1664000   529.47414      1352.7046      1882.1787      227.91674      302.73807      0.18863966   
   1665000   516.99886      1344.0144      1861.0133      225.3401       300.79319      0.19169213   
   1666000   545.84075      1336.3593      1882.2         177.33137      299.07995      0.19185492   
   1667000   514.90621      1351.8837      1866.7899      207.12195      302.55434      0.19044001   
   1668000   520.3366       1342.7653      1863.1019      150.83017      300.51362      0.18799777   
   1669000   529.00112      1299.8487      1828.8499      106.11806      290.90881      0.18616782   
   1670000   536.54126      1299.1063      1835.6475      94.059069      290.74265      0.18869358   
   1671000   504.65529      1336.3772      1841.0325      119.21121      299.08397      0.19834388   
   1672000   514.28889      1384.6561      1898.945       132.50493      309.88887      0.20412477   
   1673000   539.74005      1355.136       1894.8761      121.95717      303.28223      0.2020931    
   1674000   530.25837      1342.6871      1872.9455      124.02239      300.49614      0.1961521    
   1675000   532.31343      1341.2925      1873.606       118.26076      300.18402      0.19098482   
   1676000   574.05058      1343.4299      1917.4805      146.97073      300.66238      0.18984759   
   1677000   553.44606      1331.6803      1885.1263      118.06665      298.03278      0.18986735   
   1678000   524.81077      1348.7265      1873.5372      141.33709      301.84775      0.18880997   
   1679000   540.2771       1396.9669      1937.244       147.37599      312.64407      0.18818159   
   1680000   533.91228      1376.5685      1910.4807      130.2911       308.07885      0.18750841   
   1681000   512.79939      1362.6444      1875.4438      98.281219      304.96261      0.18858805   
   1682000   516.77924      1389.7384      1906.5176      105.44903      311.0263       0.1918706    
   1683000   517.54122      1413.3905      1930.9317      118.63518      316.31969      0.19555577   
   1684000   532.87729      1335.8372      1868.7145      197.21821      298.9631       0.19712489   
   1685000   502.11718      1379.963       1882.0802      207.53279      308.83856      0.19572914   
   1686000   499.11652      1382.1197      1881.2362      217.657        309.32123      0.19161199   
   1687000   539.97368      1372.3602      1912.3338      199.02416      307.13702      0.18876427   
   1688000   547.31486      1369.9612      1917.276       230.32615      306.60013      0.18760197   
   1689000   573.54993      1347.2983      1920.8482      239.37522      301.52812      0.1876417    
   1690000   543.33975      1356.308       1899.6478      229.00662      303.54452      0.18998412   
   1691000   533.22178      1342.6048      1875.8265      181.47093      300.4777       0.19272309   
   1692000   512.77665      1340.3683      1853.1449      128.14961      299.97717      0.19493213   
   1693000   506.38703      1297.3993      1803.7863      114.16831      290.36062      0.19330091   
   1694000   524.55977      1328.703       1853.2628      87.359389      297.36646      0.19013482   
   1695000   516.94495      1335.0528      1851.9977      116.02302      298.78756      0.18668574   
   1696000   488.19831      1362.593       1850.7913      204.34646      304.95111      0.18546321   
   1697000   553.82259      1342.7924      1896.615       317.36507      300.51969      0.18756182   
   1698000   536.18842      1348.9767      1885.1651      292.99106      301.90375      0.18759189   
   1699000   456.55063      1343.4732      1800.0239      278.96061      300.67207      0.18963266   
   1700000   496.16612      1326.9952      1823.1613      172.33897      296.98425      0.19188365   
   1701000   535.26159      1316.6909      1851.9525      75.898251      294.67813      0.19020867   
   1702000   539.55145      1304.6878      1844.2392      8.6610314      291.9918       0.18596919   
   1703000   511.12651      1287.5064      1798.6329      139.5066       288.14658      0.18123412   
   1704000   529.67583      1300.9757      1830.6515      208.72776      291.16102      0.1788726    
   1705000   531.07034      1313.1876      1844.258       276.51454      293.89408      0.18262419   
   1706000   545.91171      1313.4517      1859.3634      294.00477      293.95318      0.1899021    
   1707000   503.60309      1319.3955      1822.9986      236.69905      295.28342      0.19926801   
   1708000   496.37907      1335.3916      1831.7707      198.14772      298.86338      0.20117541   
   1709000   535.67372      1352.1518      1887.8255      117.61827      302.61434      0.19739437   
   1710000   523.4722       1384.9974      1908.4696      127.85756      309.96526      0.19153914   
   1711000   536.6906       1363.0532      1899.7438      125.88925      305.05411      0.18945609   
   1712000   525.25851      1349.6403      1874.8988      177.79133      302.05226      0.19352261   
   1713000   525.45244      1361.5702      1887.0227      222.66852      304.72221      0.19882088   
   1714000   493.06544      1291.6078      1784.6732      263.05619      289.06447      0.20261093   
   1715000   506.3244       1329.678       1836.0024      221.55316      297.58466      0.2030081    
   1716000   514.08434      1321.8513      1835.9357      133.415        295.83304      0.19987162   
   1717000   498.14824      1324.5296      1822.6778      68.19976       296.43244      0.19521966   
   1718000   537.10204      1311.2196      1848.3216      78.432599      293.45364      0.19258793   
   1719000   519.76454      1329.3662      1849.1307      161.42572      297.51489      0.19146031   
   1720000   495.19883      1327.6837      1822.8826      190.69591      297.13835      0.18914616   
   1721000   572.18452      1300.3609      1872.5454      154.31905      291.02344      0.18720226   
   1722000   544.52981      1328.1998      1872.7296      181.1165       297.25384      0.18741211   
   1723000   499.33741      1337.2726      1836.61        211.31656      299.28435      0.19045198   
   1724000   509.29391      1325.197       1834.4909      191.37941      296.58181      0.19753259   
   1725000   498.3969       1353.0355      1851.4324      189.92322      302.81212      0.20694276   
   1726000   513.85981      1375.2793      1889.1391      202.40486      307.79034      0.21011096   
   1727000   497.94054      1352.4981      1850.4387      206.58014      302.69186      0.20823026   
   1728000   505.34462      1365.8855      1871.2301      250.98823      305.68797      0.20819168   
   1729000   496.2598       1398.3804      1894.6402      246.43319      312.96041      0.20720581   
   1730000   506.63251      1395.4412      1902.0738      175.11058      312.30261      0.20501658   
   1731000   521.20106      1353.9035      1875.1046      143.83936      303.00638      0.20205281   
   1732000   508.84167      1353.867       1862.7086      104.90572      302.9982       0.19928236   
   1733000   514.763        1367.1778      1881.9408      136.27034      305.97719      0.19838224   
   1734000   542.32455      1336.2029      1878.5274      150.57091      299.04495      0.19656127   
   1735000   500.0659       1372.8974      1872.9633      160.94807      307.25726      0.19699903   
   1736000   489.39162      1375.2841      1864.6757      206.57231      307.79141      0.19978065   
   1737000   479.27094      1381.5925      1860.8635      247.57444      309.20324      0.20425301   
   1738000   506.22157      1378.0403      1884.2619      298.14311      308.40826      0.20585916   
   1739000   525.03547      1353.2436      1878.2791      307.50676      302.85871      0.20040194   
   1740000   515.34059      1362.4858      1877.8264      335.69609      304.92712      0.19402357   
   1741000   524.789        1378.0405      1902.8295      336.88792      308.40829      0.19034679   
   1742000   524.7091       1322.4115      1847.1206      260.81536      295.95841      0.189968     
   1743000   531.25511      1325.005       1856.2601      228.46687      296.53884      0.19147644   
   1744000   496.16669      1356.7088      1852.8755      183.93366      303.63422      0.19052766   
   1745000   501.47745      1334.3861      1835.8636      161.01796      298.63835      0.186012     
   1746000   535.99537      1353.1147      1889.1101      148.73318      302.82985      0.17679237   
   1747000   563.91199      1365.7814      1929.6934      140.71763      305.66467      0.17244358   
   1748000   551.51632      1359.4824      1910.9988      94.12858       304.25496      0.1749459    
   1749000   565.51079      1346.1197      1911.6304      77.79437       301.26434      0.18174055   
   1750000   538.15976      1389.4488      1927.6086     -40.618467      310.9615       0.18655139   
   1751000   532.62569      1382.3682      1914.9939     -82.668098      309.37685      0.19208805   
   1752000   515.53518      1356.5857      1872.1209     -19.567013      303.60666      0.19652862   
   1753000   539.3446       1367.1721      1906.5167      121.86149      305.97592      0.20032952   
   1754000   517.2376       1350.2462      1867.4838      209.55486      302.18787      0.19914934   
   1755000   539.79699      1356.1579      1895.9549      246.64103      303.51092      0.19707474   
   1756000   531.21041      1381.5568      1912.7672      240.68633      309.19524      0.19574303   
   1757000   541.85777      1348.6733      1890.5311      242.88856      301.83586      0.1946525    
   1758000   529.92847      1360.5434      1890.4719      191.04118      304.4924       0.18947563   
   1759000   564.37351      1386.4351      1950.8086      170.55946      310.28702      0.18533655   
   1760000   527.60766      1368.7112      1896.3188      139.14994      306.32037      0.17956067   
   1761000   548.87365      1336.8849      1885.7585      152.2512       299.19758      0.17796307   
   1762000   549.87742      1335.2393      1885.1167      109.61603      298.8293       0.1831502    
   1763000   497.73677      1306.5342      1804.271       110.42358      292.40504      0.19029786   
   1764000   519.80741      1318.3464      1838.1538      124.51053      295.04863      0.19405913   
   1765000   522.72         1302.9288      1825.6488      113.98009      291.59814      0.19196379   
   1766000   525.50125      1326.0362      1851.5374      147.03457      296.76962      0.19052175   
   1767000   518.14525      1310.459       1828.6042      139.86068      293.28341      0.18972637   
   1768000   531.87093      1296.7027      1828.5736      116.01186      290.20472      0.18865828   
   1769000   532.42842      1310.4963      1842.9247      97.219652      293.29176      0.19095433   
   1770000   513.16269      1288.7505      1801.9132      150.52876      288.42501      0.19603333   
   1771000   510.99466      1341.8738      1852.8685      153.73828      300.31412      0.19846569   
   1772000   475.26219      1372.4344      1847.6966      304.91968      307.15364      0.19638222   
   1773000   539.78388      1314.288       1854.0718      324.32588      294.14034      0.1876188    
   1774000   529.53285      1240.2677      1769.8006      266.53152      277.57446      0.18061348   
   1775000   500.44109      1319.7355      1820.1765      247.80717      295.3595       0.18029818   
   1776000   512.76622      1350.6121      1863.3783      77.376113      302.26975      0.18204061   
   1777000   550.71911      1309.522       1860.2411     -1.8230442      293.07371      0.18769238   
   1778000   513.6231       1295.8622      1809.4853      0.25787911     290.01662      0.19335871   
   1779000   520.90258      1331.7008      1852.6034      91.684359      298.03738      0.19695899   
   1780000   520.27825      1308.678       1828.9562      178.38995      292.88482      0.1989397    
   1781000   530.4931       1295.7041      1826.1972      201.54071      289.98124      0.19886243   
   1782000   505.11491      1325.3193      1830.4342      200.53433      296.60917      0.19539479   
   1783000   542.36789      1383.0314      1925.3993      181.5619       309.52527      0.1915949    
   1784000   505.51135      1392.2336      1897.745       156.14173      311.58474      0.18742098   
   1785000   531.80476      1356.9893      1888.7941      97.488491      303.697        0.18091472   
   1786000   561.76804      1336.9736      1898.7417      69.073924      299.21745      0.17698073   
   1787000   532.27844      1358.2605      1890.5389      125.34608      303.98148      0.17944132   
   1788000   532.17796      1370.117       1902.295       226.30862      306.635        0.18931643   
   1789000   523.53866      1363.804       1887.3426      268.74488      305.22213      0.19653624   
   1790000   488.42105      1335.2833      1823.7043      285.31996      298.83914      0.19714648   
   1791000   481.29887      1349.4875      1830.7864      300.86631      302.01808      0.1976391    
   1792000   503.34203      1312.3261      1815.6682      222.71555      293.70128      0.19670874   
   1793000   487.07326      1272.5795      1759.6527      99.545595      284.80589      0.19395786   
   1794000   499.72548      1333.6268      1833.3523     -46.72371       298.46842      0.18992569   
   1795000   525.03325      1327.0115      1852.0447     -68.62344       296.98789      0.18731925   
   1796000   547.36236      1329.0038      1876.3661      31.192916      297.43377      0.1878052    
   1797000   526.34601      1331.662       1858.008       107.04404      298.02868      0.19137496   
   1798000   547.45003      1344.2624      1891.7124      170.7988       300.84867      0.19451629   
   1799000   499.24318      1301.799       1801.0422      143.3868       291.3453       0.19214714   
   1800000   523.35419      1303.8967      1827.2509      188.38551      291.81477      0.19255758   
   1801000   491.72851      1327.708       1819.4365      155.52008      297.14378      0.19191426   
   1802000   539.16407      1305.4902      1844.6543      223.82537      292.17139      0.19122647   
   1803000   537.86589      1330.5674      1868.4333      173.45439      297.78372      0.18483282   
   1804000   536.39903      1335.6311      1872.0302      209.35059      298.91699      0.17935428   
   1805000   557.52857      1323.7866      1881.3151      154.99487      296.26615      0.17776591   
   1806000   553.89666      1356.358       1910.2546      110.0789       303.55569      0.18151404   
   1807000   538.18438      1380.6956      1918.8799      147.28783      309.0025       0.18659985   
   1808000   524.2726       1372.0251      1896.2976      98.958998      307.06202      0.18986037   
   1809000   551.72366      1338.7932      1890.5168      133.99667      299.62466      0.19095052   
   1810000   544.43308      1337.3296      1881.7627      253.41972      299.2971       0.19025509   
   1811000   531.90901      1342.686       1874.595       260.04218      300.49588      0.18877201   
   1812000   536.92514      1338.8597      1875.7848      219.93132      299.63954      0.18749339   
   1813000   498.10726      1363.0188      1861.126       75.717796      305.0464       0.18587107   
   1814000   522.96272      1340.8918      1863.8545      20.138838      300.09433      0.18880908   
   1815000   534.14204      1328.5356      1862.6776      46.112059      297.329        0.19303011   
   1816000   499.30142      1316.1606      1815.462       99.313416      294.55945      0.1936278    
   1817000   513.29032      1285.2139      1798.5042      133.75124      287.6335       0.19186065   
   1818000   509.86302      1358.8746      1868.7376      139.30283      304.11891      0.18967602   
   1819000   527.73325      1339.132       1866.8653      94.138141      299.70049      0.18758881   
   1820000   545.79327      1363.753       1909.5462      42.767374      305.21071      0.18367682   
   1821000   549.51007      1365.7716      1915.2817      89.774091      305.66249      0.18022524   
   1822000   530.62667      1340.3748      1871.0015      164.57165      299.97864      0.17774443   
   1823000   527.94123      1306.739       1834.6803      223.23756      292.45088      0.17965867   
   1824000   532.62776      1315.4618      1848.0896      211.39685      294.40306      0.18760768   
   1825000   503.43712      1340.2907      1843.7278      231.0215       299.9598       0.19272312   
   1826000   508.55775      1299.6695      1808.2272      176.31094      290.86869      0.19164717   
   1827000   549.17536      1306.5292      1855.7046      169.89535      292.40393      0.18830124   
   1828000   533.29154      1338.2024      1871.494       141.43797      299.49245      0.18411445   
   1829000   532.55661      1343.7025      1876.2591      196.94025      300.72338      0.18274714   
   1830000   572.14622      1371.2252      1943.3714      215.70007      306.88302      0.18614324   
   1831000   565.26995      1387.2119      1952.4819      271.47982      310.46088      0.18812872   
   1832000   509.01138      1376.7317      1885.7431      268.00732      308.11538      0.18890949   
   1833000   512.98145      1380.0164      1892.9978      222.97433      308.8505       0.19216251   
   1834000   542.61705      1342.0556      1884.6727      87.028096      300.3548       0.19328597   
   1835000   527.00618      1354.9175      1881.9237      14.361938      303.23333      0.19538175   
   1836000   521.11392      1386.0243      1907.1382     -6.9284014      310.19508      0.2017887    
   1837000   557.79633      1333.6142      1891.4106      26.181967      298.4656       0.20388905   
   1838000   539.63747      1355.7797      1895.4172      116.22588      303.42628      0.19704025   
   1839000   522.32127      1395.2765      1917.5978      223.27469      312.26574      0.18697106   
   1840000   536.36628      1369.4535      1905.8198      341.49961      306.48651      0.18502316   
   1841000   543.42873      1331.6305      1875.0592      333.46439      298.02164      0.18551252   
   1842000   536.05756      1359.4259      1895.4835      296.27486      304.24231      0.187578     
   1843000   535.4602       1385.4169      1920.8771      176.208        310.05914      0.18862455   
   1844000   562.88063      1374.1182      1936.9988      124.60418      307.53047      0.19073871   
   1845000   541.49683      1363.4345      1904.9313      86.217063      305.13944      0.19283075   
   1846000   484.69606      1391.4819      1876.1779      82.375819      311.4165       0.19601919   
   1847000   511.65089      1364.0017      1875.6526      132.55948      305.26637      0.19807635   
   1848000   516.8346       1349.4591      1866.2937      174.53637      302.01172      0.19715126   
   1849000   502.3791       1378.3615      1880.7406      204.54529      308.48014      0.19601892   
   1850000   530.2399       1349.2682      1879.5081      165.261        301.96899      0.19407448   
   1851000   499.19829      1368.289       1867.4873      167.31231      306.22589      0.19148432   
   1852000   511.93087      1373.0524      1884.9833      249.03169      307.29195      0.18581759   
   1853000   538.74908      1356.253       1895.0021      224.12927      303.53221      0.17810815   
   1854000   565.33474      1347.0311      1912.3658      181.49802      301.46832      0.17586473   
   1855000   512.62923      1355.0791      1867.7083      187.68763      303.26948      0.18027037   
   1856000   520.12666      1359.7376      1879.8643      144.5499       304.31206      0.18635456   
   1857000   522.18256      1315.9426      1838.1251      107.99728      294.51065      0.18982277   
   1858000   520.44661      1344.0942      1864.5408      86.149439      300.81105      0.19119353   
   1859000   530.00004      1382.6595      1912.6596      103.19488      309.44204      0.19268321   
   1860000   528.32155      1398.3183      1926.6398      73.661533      312.9465       0.19098001   
   1861000   531.87738      1355.2743      1887.1517      172.43368      303.31317      0.18930859   
   1862000   528.48916      1349.6442      1878.1334      210.83255      302.05315      0.18639708   
   1863000   558.29202      1320.356       1878.6481      216.13948      295.49839      0.18195721   
   1864000   580.35866      1352.3059      1932.6646      283.21662      302.64883      0.1775882    
   1865000   559.59534      1351.2114      1910.8067      258.43969      302.40387      0.17611797   
   1866000   530.06858      1341.4188      1871.4874      265.83406      300.21228      0.18073669   
   1867000   528.39981      1337.1665      1865.5663      198.89835      299.26061      0.18691327   
   1868000   532.67012      1307.9335      1840.6036      171.03935      292.7182       0.19032684   
   1869000   507.00928      1286.6826      1793.6919      87.425733      287.96221      0.19053886   
   1870000   496.51415      1301.6376      1798.1517      141.68855      291.30916      0.18933598   
   1871000   540.63947      1309.7814      1850.4209      135.1916       293.13178      0.18590669   
   1872000   506.06366      1310.7046      1816.7683      170.06785      293.33838      0.18298845   
   1873000   517.35267      1285.6654      1803.0181      155.56774      287.73456      0.18143339   
   1874000   533.40793      1311.2093      1844.6173      179.24487      293.45134      0.18524868   
   1875000   521.36474      1322.55        1843.9148      132.23516      295.98941      0.19367746   
   1876000   502.77347      1315.1888      1817.9623      98.665809      294.34195      0.20260372   
   1877000   477.74259      1348.3465      1826.0891      96.300937      301.76271      0.20766245   
   1878000   519.84126      1336.0544      1855.8957      47.723793      299.01172      0.20746032   
   1879000   525.31758      1382.6308      1907.9484      130.02906      309.43562      0.205665     
   1880000   502.12519      1373.6952      1875.8204      206.23506      307.43581      0.20466156   
   1881000   506.54634      1357.7213      1864.2676      205.40456      303.86081      0.2049885    
   1882000   488.42442      1338.5466      1826.971       209.8307       299.56947      0.20373894   
   1883000   501.8654       1298.5637      1800.4291      165.54316      290.62121      0.19910959   
   1884000   510.06663      1279.0802      1789.1469      164.27911      286.26078      0.19213059   
   1885000   524.20069      1305.2995      1829.5002      189.86504      292.12871      0.18653855   
   1886000   520.69605      1340.4964      1861.1925      189.62192      300.00585      0.18345279   
   1887000   549.55594      1312.2801      1861.836       146.38987      293.69097      0.18325483   
   1888000   529.96101      1313.8209      1843.7819      82.637164      294.03581      0.18792272   
   1889000   531.64301      1330.6507      1862.2937      46.431888      297.80235      0.19663593   
   1890000   513.89466      1320.8622      1834.7569      97.427264      295.61168      0.19982623   
   1891000   521.677        1335.8089      1857.4859      119.9033       298.95678      0.20095522   
   1892000   520.59209      1410.6936      1931.2857      123.27587      315.71611      0.1982       
   1893000   536.48816      1356.6052      1893.0933      158.56235      303.61103      0.19598727   
   1894000   537.60524      1344.4096      1882.0148      167.43968      300.88162      0.19382126   
   1895000   527.99734      1315.7961      1843.7935      100.28718      294.47787      0.19112912   
   1896000   531.4891       1366.472       1897.9611      115.49778      305.81924      0.1907843    
   1897000   538.79208      1371.0148      1909.8069      185.50097      306.83592      0.19380818   
   1898000   508.6523       1338.4832      1847.1355      220.76407      299.5553       0.20025449   
   1899000   469.73898      1364.0312      1833.7702      268.36221      305.27298      0.20729527   
   1900000   493.11177      1335.6455      1828.7572      222.42671      298.9202       0.2125024    
   1901000   497.43247      1307.9432      1805.3757      206.20759      292.72038      0.20997982   
   1902000   508.02788      1346.1587      1854.1866      155.59996      301.27308      0.20156336   
   1903000   521.13703      1327.6573      1848.7943      141.98709      297.13243      0.19624755   
   1904000   523.88736      1318.1963      1842.0837      96.614642      295.01504      0.19329358   
   1905000   508.87749      1340.1855      1849.063       126.0746       299.93626      0.19429172   
   1906000   527.78023      1334.8476      1862.6279      157.85612      298.74164      0.19626795   
   1907000   522.94018      1321.0712      1844.0114      246.52769      295.65844      0.19797616   
   1908000   518.904        1339.5428      1858.4468      213.66482      299.79242      0.19421583   
   1909000   535.70259      1344.0179      1879.7205      147.20889      300.79397      0.18858663   
   1910000   562.76275      1336.8233      1899.5861      77.117533      299.18381      0.1847927    
   1911000   555.09039      1398.334       1953.4244      73.00488       312.95003      0.18438211   
   1912000   522.91945      1402.9849      1925.9043      92.35006       313.99089      0.18862234   
   1913000   541.20702      1336.0971      1877.3041      13.390089      299.02127      0.19865534   
   1914000   516.27171      1313.9475      1830.2192     -9.7365694      294.06415      0.20349094   
   1915000   507.26449      1326.1567      1833.4212      38.577153      296.7966       0.20240776   
   1916000   492.69693      1338.9429      1831.6399      172.66023      299.65818      0.20026569   
   1917000   527.77426      1315.6404      1843.4147      224.61824      294.44303      0.19523877   
   1918000   549.23427      1297.1566      1846.3909      264.39425      290.30632      0.18820734   
   1919000   528.29394      1307.6584      1835.9524      218.54699      292.65664      0.18216821   
   1920000   496.19651      1300.5631      1796.7596      193.21756      291.06869      0.18310859   
   1921000   518.24466      1308.6006      1826.8453      179.36757      292.86751      0.18764134   
   1922000   516.79668      1324.4514      1841.2481      145.43885      296.41495      0.1914261    
   1923000   521.68432      1346.8402      1868.5245      120.20747      301.4256       0.19436919   
   1924000   516.72912      1331.0499      1847.779       74.557556      297.8917       0.19427766   
   1925000   530.36558      1277.3554      1807.7209      103.61585      285.87475      0.19301817   
   1926000   502.1978       1284.7819      1786.9797      148.0887       287.53683      0.19153544   
   1927000   518.3899       1309.8908      1828.2807      194.01859      293.15625      0.19115053   
   1928000   512.49201      1318.3867      1830.8787      249.04862      295.05766      0.18939978   
   1929000   522.87767      1338.7579      1861.6356      228.8741       299.61677      0.18833664   
   1930000   524.51871      1336.4895      1861.0082      195.04049      299.1091       0.19092841   
   1931000   530.11442      1370.9891      1901.1035      164.08177      306.83017      0.19616639   
   1932000   517.19007      1324.3604      1841.5505      88.609408      296.39458      0.20104072   
   1933000   510.28859      1293.2155      1803.5041      106.77567      289.42428      0.20519092   
   1934000   510.13899      1345.4181      1855.5571      173.62534      301.10733      0.20567602   
   1935000   514.87431      1342.4149      1857.2892      137.91365      300.43522      0.20145997   
   1936000   557.05869      1287.6232      1844.6819      97.239754      288.17272      0.19194478   
   1937000   537.62779      1344.7349      1882.3627      56.310285      300.95442      0.18823215   
   1938000   499.54521      1330.0013      1829.5465      45.078903      297.65702      0.19102356   
   1939000   498.08844      1300.0216      1798.11        78.504265      290.9475       0.19919525   
   1940000   518.51683      1275.9907      1794.5075      161.13311      285.56933      0.20284281   
   1941000   483.38036      1324.0605      1807.4408      234.21517      296.32745      0.20447202   
   1942000   470.15668      1334.7883      1804.945       332.5037       298.72836      0.20341868   
   1943000   517.1608       1316.0189      1833.1797      282.19559      294.52773      0.1995849    
   1944000   484.94981      1325.885       1810.8348      220.70814      296.73578      0.19551518   
   1945000   512.77386      1283.5361      1796.31        168.23637      287.25802      0.19188171   
   1946000   546.05649      1301.6266      1847.6831      165.19652      291.30671      0.18991082   
   1947000   570.32605      1273.3839      1843.7099      126.28134      284.98592      0.1879761    
   1948000   518.70325      1292.3965      1811.0997      101.37144      289.24099      0.19345171   
   1949000   510.47525      1318.0228      1828.4981      136.16421      294.97622      0.20386591   
   1950000   533.78454      1300.2719      1834.0564      135.50093      291.00351      0.20703198   
   1951000   485.96566      1306.5658      1792.5315      79.671692      292.41211      0.20243203   
   1952000   495.65026      1317.6195      1813.2697      112.98367      294.88594      0.19696004   
   1953000   556.65131      1293.314       1849.9654      154.47226      289.44634      0.1937808    
   1954000   532.64551      1316.7859      1849.4314      202.22319      294.69938      0.19249437   
   1955000   489.84564      1360.1854      1850.0311      219.59024      304.41229      0.1950461    
   1956000   501.66362      1279.981       1781.6446      173.48589      286.46238      0.20062694   
   1957000   479.79773      1304.1573      1783.955       201.12903      291.87308      0.20664855   
   1958000   499.39717      1332.3472      1831.7443      270.9955       298.18203      0.2068289    
   1959000   503.04306      1312.1717      1815.2147      317.50479      293.66671      0.20161514   
   1960000   490.99439      1364.294       1855.2884      242.37055      305.33179      0.19234203   
   1961000   547.17338      1373.1878      1920.3612      273.80085      307.32226      0.19006626   
   1962000   528.83791      1367.569       1896.4069      207.47129      306.06474      0.1880569    
   1963000   550.77862      1331.568       1882.3466      106.56573      298.00765      0.18854813   
   1964000   537.99278      1368.4775      1906.4703      38.599377      306.26808      0.1904104    
   1965000   534.16953      1421.0322      1955.2017      8.1561734      318.02991      0.19556746   
   1966000   500.39574      1357.6463      1858.0421      57.302989      303.84403      0.20139941   
   1967000   535.89757      1338.1462      1874.0438      40.710817      299.47988      0.20149685   
   1968000   541.04787      1319.5709      1860.6188      100.55452      295.32268      0.1951221    
   1969000   532.98288      1323.4633      1856.4462      169.43842      296.1938       0.18620638   
   1970000   506.38882      1327.3066      1833.6954      220.46399      297.05394      0.18358967   
   1971000   528.51823      1359.7164      1888.2347      201.84656      304.30733      0.18662044   
   1972000   541.44544      1320.1399      1861.5854      131.34014      295.45002      0.1916999    
   1973000   538.11272      1340.7446      1878.8573      121.5233       300.06139      0.19417383   
   1974000   529.6694       1327.3159      1856.9853      133.5374       297.05603      0.19478532   
   1975000   510.57549      1332.4039      1842.9794      181.2642       298.19473      0.19543134   
   1976000   507.79516      1372.1286      1879.9238      204.47277      307.08521      0.19437879   
   1977000   506.373        1374.3209      1880.6939      235.53978      307.57583      0.19332761   
   1978000   527.6426       1316.4173      1844.0599      190.99182      294.61689      0.18726596   
   1979000   530.62635      1320.2362      1850.8625      109.99787      295.47156      0.17946858   
   1980000   519.95155      1308.5349      1828.4865      90.244966      292.8528       0.17789047   
   1981000   574.33729      1314.4142      1888.7515      50.170281      294.16859      0.18174479   
   1982000   543.60139      1309.4323      1853.0337      84.838856      293.05363      0.19070501   
   1983000   520.41526      1305.8128      1826.2281      195.00174      292.24359      0.19570048   
   1984000   525.21899      1323.0153      1848.2343      259.67221      296.09354      0.19705284   
   1985000   527.33891      1323.649       1850.988       212.56093      296.23537      0.19745517   
   1986000   539.28052      1299.3531      1838.6336      216.99007      290.7979       0.19927249   
   1987000   526.41469      1342.3724      1868.7871      201.70487      300.4257       0.19901031   
   1988000   515.91219      1361.4226      1877.3348      185.09933      304.68917      0.19525926   
   1989000   529.89011      1329.7736      1859.6637      148.66754      297.60606      0.18967539   
   1990000   528.91913      1347.9356      1876.8547      155.04816      301.67074      0.1876394    
   1991000   521.53218      1363.1666      1884.6988      215.72903      305.07949      0.18795438   
   1992000   556.23253      1345.0173      1901.2499      184.55894      301.01764      0.19346119   
   1993000   522.7324       1352.3437      1875.0761      158.14426      302.6573       0.20381592   
   1994000   504.6793       1347.5148      1852.1941      163.32318      301.57657      0.20884728   
   1995000   490.14791      1300.8963      1791.0442      165.98735      291.14326      0.20577002   
   1996000   482.23777      1313.9575      1796.1953      135.85396      294.06639      0.1986809    
   1997000   502.01426      1316.7817      1818.796       177.85301      294.69845      0.19426337   
   1998000   528.77899      1320.6062      1849.3852      162.46469      295.55438      0.19366248   
   1999000   513.48865      1329.3768      1842.8654      122.16486      297.51725      0.19204943   
   2000000   503.21674      1330.2336      1833.4503      109.03832      297.709        0.19039914   
Loop time of 8816.52 on 8 procs for 2000000 steps with 1500 atoms

Performance: 9.800 ns/day, 2.449 hours/ns, 226.847 timesteps/s, 340.270 katom-step/s
99.4% CPU use with 8 MPI tasks x 1 OpenMP threads

MPI task timing breakdown:
Section |  min time  |  avg time  |  max time  |%varavg| %total
---------------------------------------------------------------
Pair    | 423.49     | 436.06     | 452.56     |  50.3 |  4.95
Bond    | 22.5       | 23.037     | 23.608     |   7.7 |  0.26
Kspace  | 3601.6     | 3618.3     | 3630.2     |  17.2 | 41.04
Neigh   | 6.7218     | 6.7413     | 6.7628     |   0.5 |  0.08
Comm    | 176.73     | 177.95     | 179.81     |   7.2 |  2.02
Output  | 0.20803    | 0.21459    | 0.25911    |   3.6 |  0.00
Modify  | 4343.9     | 4437       | 4533.3     |  91.6 | 50.33
Other   |            | 117.3      |            |       |  1.33

Nlocal:          187.5 ave         221 max         157 min
Histogram: 1 0 1 1 1 2 1 0 0 1
Nghost:        1813.75 ave        1870 max        1767 min
Histogram: 2 0 2 0 0 1 0 2 0 1
Neighs:        16406.2 ave       20329 max       13194 min
Histogram: 1 0 3 1 0 1 0 0 1 1

Total # of neighbors = 131250
Ave neighs/atom = 87.5
Ave special neighs/atom = 2
Neighbor list builds = 12178
Dangerous builds = 0
System init for write_data ...
PPPM initialization ...
  using 12-bit tables for long-range coulomb (src/kspace.cpp:342)
  G vector (1/distance) = 0.270929
  grid = 48 48 48
  stencil order = 5
  estimated absolute RMS force accuracy = 0.0003523718
  estimated relative force accuracy = 1.0611572e-06
  using single precision FFTW3
  3d grid and FFT values/proc = 29791 13824
Generated 1 of 1 mixed pair_coeff terms from arithmetic mixing rule
Last active /omp style is kspace_style pppm/omp
