LAMMPS (19 Nov 2024)
OMP_NUM_THREADS environment is not set. Defaulting to 1 thread. (src/comm.cpp:99)
  using 1 OpenMP thread(s) per MPI task
using multi-threaded neighbor list subroutines
Reading data file ...
  orthogonal box = (0 0 0) to (54.965023 54.965023 54.965023)
  2 by 2 by 2 MPI processor grid
  reading atoms ...
  1500 atoms
  scanning bonds ...
  1 = max bonds/atom
  scanning angles ...
  1 = max angles/atom
  orthogonal box = (0 0 0) to (54.965023 54.965023 54.965023)
  2 by 2 by 2 MPI processor grid
  reading bonds ...
  1000 bonds
  reading angles ...
  500 angles
Finding 1-2 1-3 1-4 neighbors ...
  special bond factors lj:    0        0        0       
  special bond factors coul:  0        0        0       
     2 = max # of 1-2 neighbors
     1 = max # of 1-3 neighbors
     1 = max # of 1-4 neighbors
     2 = max # of special neighbors
  special bonds CPU = 0.000 seconds
  read_data CPU = 0.025 seconds
Setting atom values ...
  1000 settings made for charge
Setting atom values ...
  500 settings made for charge
1000 atoms in group oxy
500 atoms in group carb
PPPM initialization ...
  using 12-bit tables for long-range coulomb (src/kspace.cpp:342)
  G vector (1/distance) = 0.2675861
  grid = 50 50 50
  stencil order = 5
  estimated absolute RMS force accuracy = 0.00039584402
  estimated relative force accuracy = 1.1920725e-06
  using single precision FFTW3
  3d grid and FFT values/proc = 32768 16250
Generated 1 of 1 mixed pair_coeff terms from arithmetic mixing rule
Last active /omp style is kspace_style pppm/omp
Neighbor list info ...
  update: every = 1 steps, delay = 0 steps, check = yes
  max neighbors/atom: 2000, page size: 100000
  master list distance cutoff = 15
  ghost atom cutoff = 15
  binsize = 7.5, bins = 8 8 8
  1 neighbor lists, perpetual/occasional/extra = 1 0 0
  (1) pair lj/cut/coul/long/omp, perpetual
      attributes: half, newton on, omp
      pair build: half/bin/newton/omp
      stencil: half/bin/3d
      bin: standard
Setting up cg style minimization ...
  Unit style    : real
  Current step  : 0
Per MPI rank memory allocation (min/avg/max) = 9.757 | 9.787 | 9.817 Mbytes
   Step          Temp          E_pair         E_mol          TotEng         Press     
         0   0              13.07258       1.4941382e-05  13.072595      255.08911    
      9001   0             -525.61491      0.31230724    -525.30261     -9.7387309    
Loop time of 49.1956 on 8 procs for 9001 steps with 1500 atoms

99.3% CPU use with 8 MPI tasks x 1 OpenMP threads

Minimization stats:
  Stopping criterion = energy tolerance
  Energy initial, next-to-last, final = 
      13.0725954212713  -525.302547005264  -525.302606450238
  Force two-norm initial, final = 99.496544 0.52539965
  Force max component initial, final = 12.457849 0.10334814
  Final line search alpha, max atom move = 0.59392817 0.061381369
  Iterations, force evaluations = 9001 18001

MPI task timing breakdown:
Section |  min time  |  avg time  |  max time  |%varavg| %total
---------------------------------------------------------------
Pair    | 3.3377     | 6.1972     | 8.8462     |  84.6 | 12.60
Bond    | 0.11599    | 0.14952    | 0.18373    |   6.6 |  0.30
Kspace  | 38.466     | 41.149     | 44.056     |  33.2 | 83.64
Neigh   | 0.018557   | 0.018701   | 0.018833   |   0.1 |  0.04
Comm    | 1.2726     | 1.2934     | 1.3085     |   1.0 |  2.63
Output  | 0          | 0          | 0          |   0.0 |  0.00
Modify  | 0.032712   | 0.036724   | 0.040899   |   1.4 |  0.07
Other   |            | 0.3514     |            |       |  0.71

Nlocal:          187.5 ave         262 max         122 min
Histogram: 2 1 1 0 1 0 0 0 1 2
Nghost:        1604.88 ave        1667 max        1506 min
Histogram: 1 0 1 0 1 0 0 2 1 2
Neighs:        18354.6 ave       27051 max        7425 min
Histogram: 1 2 0 0 0 1 0 1 0 3

Total # of neighbors = 146837
Ave neighs/atom = 97.891333
Ave special neighs/atom = 2
Neighbor list builds = 40
Dangerous builds = 0
PPPM initialization ...
  using 12-bit tables for long-range coulomb (src/kspace.cpp:342)
  G vector (1/distance) = 0.2675861
  grid = 50 50 50
  stencil order = 5
  estimated absolute RMS force accuracy = 0.00039584402
  estimated relative force accuracy = 1.1920725e-06
  using single precision FFTW3
  3d grid and FFT values/proc = 32768 16250
Generated 1 of 1 mixed pair_coeff terms from arithmetic mixing rule
Last active /omp style is kspace_style pppm/omp
Setting up Verlet run ...
  Unit style    : real
  Current step  : 9001
  Time step     : 0.1
Per MPI rank memory allocation (min/avg/max) = 8.649 | 8.671 | 8.693 Mbytes
   Step         PotEng         KinEng         TotEng         Press           Temp        v_Density   
      9001  -525.30261      1340.4703      815.16767      359.26504      300            0.13956373   
     10000   285.56329      1144.597       1430.1603      205.75259      256.16317      0.1165168    
     11000   91.16468       1429.5017      1520.6664      183.89838      319.92541      0.103075     
     12000   231.38045      1306.2161      1537.5966      99.679845      292.33385      0.10127378   
     13000   234.56893      1319.4573      1554.0262      144.98211      295.29724      0.10610478   
     14000   196.73824      1373.6634      1570.4016      135.87455      307.42868      0.10935965   
     15000   275.06453      1272.5225      1547.587       92.479622      284.79315      0.11733942   
     16000   179.93225      1406.982       1586.9142      179.23049      314.88546      0.12132895   
     17000   290.33714      1273.4375      1563.7746      109.6103       284.99792      0.12670877   
     18000   202.85537      1423.9188      1626.7741      172.99799      318.67594      0.13369221   
     19000   293.3566       1345.3821      1638.7387      113.75309      301.09927      0.1362124    
     20000   237.53959      1377.7087      1615.2483      109.72728      308.33403      0.13790911   
     21000   278.01337      1356.3089      1634.3223      155.50981      303.54472      0.1460094    
     22000   273.64327      1355.8008      1629.4441      156.76235      303.431        0.14808985   
     23000   291.5072       1362.2598      1653.767       121.50866      304.87654      0.1479916    
     24000   316.18471      1332.6917      1648.8764      78.533986      298.25914      0.1451284    
     25000   259.51941      1343.8103      1603.3297      197.55264      300.74751      0.15368279   
     26000   317.29029      1253.8807      1571.171       161.06735      280.62107      0.1591235    
     27000   269.48687      1335.2228      1604.7096      136.38018      298.82559      0.15045712   
     28000   336.83193      1311.4318      1648.2637      103.97351      293.50113      0.15092048   
     29000   298.35647      1355.187       1653.5435      179.86652      303.29364      0.15064421   
     30000   347.48262      1279.0143      1626.497       116.79566      286.24604      0.14093171   
     31000   317.46197      1333.0878      1650.5498      156.23492      298.34778      0.14126446   
     32000   341.72555      1297.181       1638.9065      136.33138      290.31176      0.14078461   
     33000   327.36627      1312.7652      1640.1315      136.63787      293.79954      0.1374889    
     34000   315.4083       1318.0833      1633.4916      137.8777       294.98974      0.13828205   
     35000   325.95087      1328.6259      1654.5768      147.76882      297.3492       0.13868428   
     36000   347.09967      1381.0192      1728.1189      133.30427      309.07493      0.13427186   
     37000   347.79367      1351.9264      1699.7201      100.81071      302.56391      0.13099897   
     38000   302.35816      1335.211       1637.5692      156.38425      298.82297      0.14297718   
     39000   333.35657      1293.1688      1626.5254      142.1086       289.41383      0.14155308   
     40000   314.44473      1348.0971      1662.5419      163.01618      301.70691      0.13705282   
     41000   354.27504      1296.3086      1650.5837      114.83999      290.11653      0.13672141   
     42000   323.32411      1328.3463      1651.6704      129.69455      297.28664      0.13954064   
     43000   327.43567      1317.1327      1644.5683      178.38665      294.777        0.1420151    
     44000   344.65548      1263.2822      1607.9377      137.89595      282.72516      0.13566673   
     45000   332.03975      1321.6894      1653.7292      105.81762      295.79681      0.13117398   
     46000   348.70898      1271.6048      1620.3137      105.81988      284.58776      0.13758219   
     47000   320.63756      1344.7292      1665.3667      181.11047      300.95314      0.14247572   
     48000   336.23888      1251.1458      1587.3847      119.50198      280.009        0.13639563   
     49000   348.41006      1313.2098      1661.6199      116.10969      293.89905      0.13404592   
     50000   346.90238      1325.1907      1672.0931      130.36884      296.58039      0.12607652   
     51000   353.00002      1280.949       1633.949       164.43096      286.67902      0.12859202   
     52000   352.79354      1316.0203      1668.8139      150.59409      294.52805      0.13866192   
     53000   306.85455      1286.4326      1593.2871      129.04375      287.90625      0.13848635   
     54000   344.34067      1318.0149      1662.3555      142.53373      294.97443      0.13712447   
     55000   332.51706      1334.3868      1666.9039      166.3094       298.63851      0.13615444   
     56000   350.48119      1324.916       1675.3972      114.84082      296.51893      0.1263747    
     57000   371.0752       1331.9466      1703.0218      130.09742      298.09238      0.12244117   
     58000   336.84342      1322.2422      1659.0856      175.34916      295.92051      0.12578262   
     59000   388.80658      1310.0535      1698.8601      129.30127      293.19267      0.12969362   
     59001   384.02544      1315.1155      1699.1409      130.90894      294.32554      0.12969055   
Loop time of 253.89 on 8 procs for 50000 steps with 1500 atoms

Performance: 1.702 ns/day, 14.105 hours/ns, 196.936 timesteps/s, 295.403 katom-step/s
99.4% CPU use with 8 MPI tasks x 1 OpenMP threads

MPI task timing breakdown:
Section |  min time  |  avg time  |  max time  |%varavg| %total
---------------------------------------------------------------
Pair    | 4.5289     | 8.7444     | 11.243     |  69.6 |  3.44
Bond    | 0.36007    | 0.48225    | 0.56331    |   9.2 |  0.19
Kspace  | 114.24     | 116.8      | 121.12     |  19.5 | 46.00
Neigh   | 0.044262   | 0.044371   | 0.044505   |   0.0 |  0.02
Comm    | 3.5391     | 3.602      | 3.6679     |   2.6 |  1.42
Output  | 0.0020959  | 0.0022503  | 0.0032457  |   0.8 |  0.00
Modify  | 110.39     | 117.28     | 123.61     |  48.2 | 46.19
Other   |            | 6.94       |            |       |  2.73

Nlocal:          187.5 ave         230 max         120 min
Histogram: 1 0 1 0 1 1 0 0 1 3
Nghost:        1475.12 ave        1582 max        1380 min
Histogram: 1 1 1 2 0 0 1 0 0 2
Neighs:        11756.9 ave       17093 max        4823 min
Histogram: 1 1 0 1 0 1 1 0 0 3

Total # of neighbors = 94055
Ave neighs/atom = 62.703333
Ave special neighs/atom = 2
Neighbor list builds = 93
Dangerous builds = 0
PPPM initialization ...
  using 12-bit tables for long-range coulomb (src/kspace.cpp:342)
  G vector (1/distance) = 0.26625503
  grid = 50 50 50
  stencil order = 5
  estimated absolute RMS force accuracy = 0.00042452553
  estimated relative force accuracy = 1.278446e-06
  using single precision FFTW3
  3d grid and FFT values/proc = 32768 16250
Generated 1 of 1 mixed pair_coeff terms from arithmetic mixing rule
Last active /omp style is kspace_style pppm/omp
Setting up Verlet run ...
  Unit style    : real
  Current step  : 59001
  Time step     : 0.25
Per MPI rank memory allocation (min/avg/max) = 8.65 | 8.672 | 8.694 Mbytes
   Step         PotEng         KinEng         TotEng         Press           Temp        v_Density   
     59001   384.02581      1315.1155      1699.1413      130.9087       294.32554      0.12969055   
     60000   375.98245      1283.9742      1659.9566      105.7465       287.35606      0.14260782   
     61000   391.23146      1360.5815      1751.8129      138.85799      304.50092      0.13858287   
     62000   393.34249      1349.8284      1743.1709      136.26676      302.09437      0.12991211   
     63000   374.38287      1366.3801      1740.763       143.88433      305.79868      0.12840035   
     64000   379.39477      1339.6676      1719.0624      111.14528      299.82036      0.13291272   
     65000   406.6873       1348.6656      1755.3529      140.7386       301.83414      0.13576328   
     66000   399.94861      1363.7493      1763.6979      124.19314      305.2099       0.12717916   
     67000   385.77062      1303.6142      1689.3848      144.32928      291.75153      0.13390896   
     68000   397.71788      1309.0152      1706.7331      126.45621      292.96029      0.12950881   
     69000   366.20965      1365.1913      1731.401       118.82115      305.53262      0.1314139    
     70000   387.08749      1354.8261      1741.9136      118.63595      303.21286      0.14136289   
     71000   379.65974      1335.59        1715.2497      136.13991      298.90778      0.126092     
     72000   385.51274      1346.7035      1732.2163      141.69207      301.39502      0.13218512   
     73000   388.09911      1345.0772      1733.1763      157.71684      301.03103      0.13043308   
     74000   387.16484      1348.0642      1735.2291      139.66837      301.69954      0.12043048   
     75000   385.74267      1284.6236      1670.3662      132.34552      287.50139      0.12801513   
     76000   372.88371      1310.7268      1683.6105      96.311376      293.34334      0.13369846   
     77000   399.70122      1322.2617      1721.9629      62.830592      295.92488      0.13567354   
     78000   402.95355      1337.7972      1740.7507      49.224551      299.40175      0.13496776   
     79000   384.3335       1320.7544      1705.0879      179.50446      295.58755      0.12841325   
     80000   403.37983      1340.2098      1743.5896      250.76126      299.94169      0.12658093   
     81000   378.0997       1365.3603      1743.46        216.81076      305.57044      0.13810272   
     82000   390.5662       1321.6659      1712.2321      123.76698      295.79154      0.12756497   
     83000   390.32122      1336.0777      1726.3989      69.442408      299.01692      0.12813418   
     84000   376.17535      1356.8216      1732.997       64.911515      303.65946      0.12838985   
     85000   391.43565      1307.8519      1699.2875      140.58064      292.69993      0.12637868   
     86000   374.00427      1319.6388      1693.643       219.53685      295.33786      0.13454293   
     87000   374.78396      1328.6149      1703.3989      246.78879      297.34675      0.12968771   
     88000   413.75538      1316.737       1730.4924      151.54432      294.68845      0.12759167   
     89000   390.86399      1305.9961      1696.8601      100.13976      292.28462      0.12660244   
     90000   359.64094      1315.9563      1675.5972      82.826566      294.51372      0.135953     
     91000   372.79044      1313.59        1686.3804      143.05338      293.98414      0.13215962   
     92000   379.1664       1342.5727      1721.7391      186.1952       300.47053      0.13391535   
     93000   359.41284      1332.838       1692.2508      177.99032      298.29187      0.12938034   
     94000   402.04533      1328.9136      1730.9589      142.47659      297.41359      0.12977565   
     95000   386.48593      1364.6368      1751.1227      116.4277       305.40851      0.12693459   
     96000   382.08006      1357.4131      1739.4932      94.253498      303.79184      0.1328421    
     97000   374.98243      1353.7569      1728.7393      118.40149      302.97357      0.13509795   
     98000   389.46839      1353.0487      1742.5171      147.09127      302.81508      0.12502133   
     99000   408.46237      1315.2619      1723.7243      166.28087      294.35832      0.13121882   
    100000   394.21734      1312.1516      1706.369       167.54401      293.66223      0.12107515   
    101000   430.25605      1348.9877      1779.2437      109.5704       301.90621      0.12534995   
    102000   380.11841      1326.2754      1706.3938      98.58923       296.82316      0.13603206   
    103000   397.31004      1354.9171      1752.2272      52.53743       303.23323      0.12252434   
    104000   389.26225      1377.0298      1766.2921      134.66023      308.1821       0.13031261   
    105000   378.20597      1358.8007      1737.0066      198.9587       304.10238      0.13396417   
    106000   381.79857      1344.6053      1726.4038      230.97491      300.92542      0.12841484   
    107000   362.34731      1349.2283      1711.5756      232.10465      301.96007      0.13916466   
    108000   375.16044      1336.5965      1711.7569      89.181446      299.13304      0.13255721   
    109000   399.42964      1318.2647      1717.6943     -0.85268832     295.03035      0.12688392   
    109001   398.70054      1319.464       1718.1646     -2.1303698      295.29875      0.12687109   
Loop time of 246.781 on 8 procs for 50000 steps with 1500 atoms

Performance: 4.376 ns/day, 5.484 hours/ns, 202.609 timesteps/s, 303.913 katom-step/s
99.4% CPU use with 8 MPI tasks x 1 OpenMP threads

MPI task timing breakdown:
Section |  min time  |  avg time  |  max time  |%varavg| %total
---------------------------------------------------------------
Pair    | 6.2574     | 7.1815     | 8.1336     |  21.5 |  2.91
Bond    | 0.44696    | 0.47827    | 0.50826    |   3.1 |  0.19
Kspace  | 111.55     | 112.5      | 113.43     |   5.5 | 45.59
Neigh   | 0.09024    | 0.090441   | 0.090657   |   0.0 |  0.04
Comm    | 3.3142     | 3.3481     | 3.373      |   1.0 |  1.36
Output  | 0.0020821  | 0.002232   | 0.003194   |   0.8 |  0.00
Modify  | 109.89     | 116.53     | 122.53     |  47.9 | 47.22
Other   |            | 6.65       |            |       |  2.69

Nlocal:          187.5 ave         212 max         168 min
Histogram: 3 0 0 1 0 1 1 0 1 1
Nghost:        1452.25 ave        1487 max        1426 min
Histogram: 2 1 0 0 2 1 0 1 0 1
Neighs:        11122.6 ave       13079 max        8878 min
Histogram: 2 0 0 0 1 2 1 0 0 2

Total # of neighbors = 88981
Ave neighs/atom = 59.320667
Ave special neighs/atom = 2
Neighbor list builds = 208
Dangerous builds = 0
PPPM initialization ...
  using 12-bit tables for long-range coulomb (src/kspace.cpp:342)
  G vector (1/distance) = 0.27029947
  grid = 54 54 54
  stencil order = 5
  estimated absolute RMS force accuracy = 0.00030769069
  estimated relative force accuracy = 9.2660136e-07
  using single precision FFTW3
  3d grid and FFT values/proc = 39304 20412
Generated 1 of 1 mixed pair_coeff terms from arithmetic mixing rule
Last active /omp style is kspace_style pppm/omp
Setting up Verlet run ...
  Unit style    : real
  Current step  : 109001
  Time step     : 0.5
Per MPI rank memory allocation (min/avg/max) = 9.056 | 9.081 | 9.107 Mbytes
   Step         PotEng         KinEng         TotEng         Press           Temp        v_Density   
    109001   398.69942      1319.464       1718.1634     -2.1309987      295.29875      0.12687109   
    110000   466.02196      1347.0067      1813.0287      159.97479      301.46287      0.15664986   
    111000   489.25586      1366.8204      1856.0762      172.67404      305.89721      0.14592518   
    112000   473.6982       1340.5103      1814.2085      112.46124      300.00896      0.14694363   
    113000   476.40619      1364.2905      1840.6967      162.59262      305.33102      0.14729139   
    114000   456.38718      1375.7762      1832.1634      126.97201      307.90155      0.14264266   
    115000   475.14733      1319.2177      1794.365       111.75357      295.24362      0.1473082    
    116000   477.97402      1338.9416      1816.9156      174.7851       299.65788      0.15183551   
    117000   454.98281      1372.3857      1827.3686      135.4325       307.14275      0.16192622   
    118000   483.9875       1350.8358      1834.8233      91.572098      302.31982      0.15798046   
    119000   469.0601       1333.5801      1802.6402      213.00784      298.45796      0.15539153   
    120000   502.75112      1347.0107      1849.7618      143.21897      301.46376      0.15436903   
    121000   459.60666      1346.4274      1806.034       35.604173      301.33321      0.15683863   
    122000   467.99839      1350.7884      1818.7867      185.96708      302.30921      0.1617331    
    123000   469.59641      1328.583       1798.1794      196.99177      297.33959      0.15151167   
    124000   474.4309       1339.135       1813.5659      77.985466      299.70116      0.14982543   
    125000   479.2445       1337.6624      1816.9069      181.46447      299.37158      0.15796833   
    126000   494.86234      1355.4898      1850.3521      172.69341      303.36139      0.15354484   
    127000   472.85665      1318.4714      1791.3281      86.469359      295.07661      0.15628787   
    128000   475.59883      1377.4123      1853.0112      121.36034      308.26771      0.16239416   
    129000   459.74818      1315.9847      1775.7328      219.94008      294.52007      0.16538792   
    130000   472.41468      1352.1621      1824.5768      39.872341      302.61665      0.14952732   
    131000   485.06798      1333.2334      1818.3014      120.86687      298.38037      0.15536247   
    132000   469.16461      1336.4112      1805.5758      222.38099      299.09157      0.15558784   
    133000   456.84819      1361.5531      1818.4013      111.31635      304.71839      0.15653238   
    134000   487.90145      1317.8041      1805.7056      87.727201      294.92727      0.14736804   
    135000   488.19874      1334.015       1822.2138      182.89628      298.55531      0.14915153   
    136000   457.49826      1322.6416      1780.1399      153.18941      296.00991      0.14679768   
    137000   484.24933      1355.0369      1839.2862      125.69935      303.26004      0.14965712   
    138000   490.89972      1336.8086      1827.7084      162.94092      299.18052      0.15325484   
    139000   498.5408       1330.6803      1829.2211      114.82615      297.80898      0.15414641   
    140000   496.81375      1350.2027      1847.0164      92.931576      302.17813      0.14824138   
    141000   485.71783      1358.4081      1844.1259      245.87265      304.01451      0.14641436   
    142000   487.30437      1340.1668      1827.4711      123.12528      299.93207      0.15461702   
    143000   476.79825      1338.9871      1815.7854      58.4485        299.66806      0.14787119   
    144000   440.22796      1323.8399      1764.0679      228.89457      296.27809      0.1679419    
    145000   471.9732       1334.9125      1806.8857      178.4228       298.75617      0.15449665   
    146000   455.49171      1315.0063      1770.498       49.48174       294.3011       0.1545871    
    147000   454.60777      1379.6027      1834.2104      149.38375      308.75791      0.15519284   
    148000   489.90363      1395.5309      1885.4346      203.26646      312.32269      0.15123583   
    149000   482.75983      1334.3276      1817.0874      64.837401      298.62525      0.15158065   
    150000   461.88754      1362.5047      1824.3922      142.44824      304.93134      0.15750171   
    151000   496.44736      1310.1473      1806.5947      237.06844      293.21365      0.15181249   
    152000   470.30129      1367.8722      1838.1735      77.165056      306.1326       0.15812327   
    153000   482.20609      1351.1342      1833.3403      81.754459      302.38661      0.1462935    
    154000   471.3365       1330.4747      1801.8111      218.70931      297.76296      0.15065908   
    155000   475.36534      1308.4345      1783.7999      92.592504      292.83033      0.17092417   
    156000   480.85815      1327.3558      1808.2139      81.820992      297.06495      0.16344566   
    157000   465.23825      1350.6267      1815.8649      213.02399      302.27302      0.1595764    
    158000   474.42831      1342.5066      1816.9349      83.179595      300.45574      0.1513556    
    159000   465.7264       1326.5503      1792.2767      136.59331      296.88468      0.16197773   
    159001   464.84635      1326.0664      1790.9128      138.76532      296.77639      0.16192554   
Loop time of 312.709 on 8 procs for 50000 steps with 1500 atoms

Performance: 6.907 ns/day, 3.475 hours/ns, 159.893 timesteps/s, 239.839 katom-step/s
99.5% CPU use with 8 MPI tasks x 1 OpenMP threads

MPI task timing breakdown:
Section |  min time  |  avg time  |  max time  |%varavg| %total
---------------------------------------------------------------
Pair    | 8.028      | 8.3092     | 8.5063     |   7.4 |  2.66
Bond    | 0.47279    | 0.48887    | 0.52235    |   2.0 |  0.16
Kspace  | 144.1      | 144.31     | 144.61     |   1.8 | 46.15
Neigh   | 0.18395    | 0.18438    | 0.18461    |   0.0 |  0.06
Comm    | 3.8468     | 3.8777     | 3.9012     |   0.8 |  1.24
Output  | 0.0020483  | 0.0022199  | 0.0033298  |   0.9 |  0.00
Modify  | 140.29     | 147.91     | 154.75     |  48.8 | 47.30
Other   |            | 7.627      |            |       |  2.44

Nlocal:          187.5 ave         213 max         139 min
Histogram: 1 0 0 0 0 1 2 2 1 1
Nghost:        1647.12 ave        1712 max        1601 min
Histogram: 1 1 1 1 1 2 0 0 0 1
Neighs:        14177.9 ave       17954 max       10035 min
Histogram: 1 0 0 0 3 1 2 0 0 1

Total # of neighbors = 113423
Ave neighs/atom = 75.615333
Ave special neighs/atom = 2
Neighbor list builds = 402
Dangerous builds = 0
PPPM initialization ...
  using 12-bit tables for long-range coulomb (src/kspace.cpp:342)
  G vector (1/distance) = 0.26813771
  grid = 48 48 48
  stencil order = 5
  estimated absolute RMS force accuracy = 0.00040960449
  estimated relative force accuracy = 1.2335118e-06
  using single precision FFTW3
  3d grid and FFT values/proc = 29791 13824
Generated 1 of 1 mixed pair_coeff terms from arithmetic mixing rule
Last active /omp style is kspace_style pppm/omp
Setting up Verlet run ...
  Unit style    : real
  Current step  : 0
  Time step     : 0.5
Per MPI rank memory allocation (min/avg/max) = 8.467 | 8.468 | 8.469 Mbytes
   Step         PotEng         KinEng         TotEng         Press           Temp        v_Density   
         0   464.84646      1326.0664      1790.9129      138.76478      296.77639      0.16192554   
      1000   446.5945       1323.5744      1770.1689      89.327769      296.21866      0.16008099   
      2000   490.61217      1317.8854      1808.4976      79.536745      294.94546      0.15621762   
      3000   472.85108      1306.8558      1779.7069      137.58854      292.47701      0.15354557   
      4000   476.50641      1362.5243      1839.0307      118.13598      304.93573      0.15159572   
      5000   459.90856      1359.1016      1819.0102      123.15099      304.16973      0.15461754   
      6000   456.00208      1381.6619      1837.664       165.89847      309.21876      0.16464024   
      7000   455.10062      1374.0366      1829.1372      176.47037      307.51221      0.16832608   
      8000   456.31897      1357.4309      1813.7498      109.121        303.79581      0.16622581   
      9000   481.70832      1349.2499      1830.9582      137.95686      301.96489      0.16296856   
     10000   463.49         1378.1015      1841.5915      143.46861      308.42194      0.1596674    
     11000   481.56668      1338.813       1820.3797      110.47068      299.6291       0.15563134   
     12000   473.0181       1314.69        1787.7081      105.75786      294.23033      0.15506637   
     13000   488.84599      1283.9111      1772.7571      101.48534      287.34195      0.15724396   
     14000   448.48567      1350.8366      1799.3223      82.06563       302.32001      0.15919533   
     15000   483.62518      1342.4302      1826.0553      123.91875      300.43862      0.16017546   
     16000   451.62277      1373.9893      1825.6121      180.00245      307.50163      0.15990807   
     17000   484.73218      1333.0173      1817.7494      183.25948      298.332        0.15741917   
     18000   460.88476      1343.1178      1804.0026      156.44174      300.59253      0.15595487   
     19000   495.63397      1321.3036      1816.9375      102.31014      295.71045      0.15554105   
     20000   487.27098      1343.1203      1830.3913      97.244144      300.59308      0.15187958   
     21000   466.41996      1367.4807      1833.9007      134.79561      306.04499      0.14849267   
     22000   488.31515      1316.8566      1805.1717      193.85742      294.7152       0.14978407   
     23000   459.58196      1349.3447      1808.9266      228.90696      301.98611      0.15591814   
     24000   436.63664      1378.3467      1814.9833      186.05189      308.47681      0.16082514   
     25000   449.01716      1329.6419      1778.6591      154.63139      297.57659      0.16332385   
     26000   484.76659      1347.8959      1832.6625      90.069436      301.66188      0.16119091   
     27000   480.75256      1349.6046      1830.3572      88.204604      302.04428      0.15758085   
     28000   503.077        1360.3418      1863.4188      92.781029      304.44728      0.15436373   
     29000   464.76471      1382.8302      1847.5949      131.33199      309.48023      0.15332937   
     30000   473.3433       1319.9862      1793.3295      125.67236      295.41562      0.15388928   
     31000   469.66925      1336.6581      1806.3274      140.69106      299.14683      0.15570355   
     32000   457.78297      1288.9203      1746.7033      181.20572      288.46301      0.15730128   
     33000   474.85556      1299.4427      1774.2983      195.15322      290.81795      0.1587691    
     34000   469.01737      1324.1777      1793.195       215.17357      296.35368      0.16024407   
     35000   469.64667      1334.6358      1804.2825      146.93797      298.69423      0.15910441   
     36000   464.85086      1346.5704      1811.4212      118.23684      301.36522      0.1584089    
     37000   495.99398      1383.8277      1879.8217      119.0188       309.70349      0.15910841   
     38000   481.52098      1341.1059      1822.6269      120.9329       300.14225      0.15911297   
     39000   472.07558      1347.0648      1819.1404      96.520474      301.47587      0.15704522   
     40000   462.26749      1348.5352      1810.8027      156.46296      301.80494      0.15611443   
     41000   473.69847      1357.6187      1831.3172      185.64776      303.83785      0.15947356   
     42000   448.81341      1365.9696      1814.783       205.96707      305.7068       0.1646858    
     43000   454.48482      1306.7992      1761.284       228.09795      292.46434      0.16932362   
     44000   451.91543      1364.0563      1815.9718      180.16866      305.27861      0.1688145    
     45000   459.89782      1371.9723      1831.8701      136.61256      307.05022      0.16315001   
     46000   458.62852      1375.0796      1833.7081      102.32385      307.74564      0.15738951   
     47000   507.69627      1335.8118      1843.5081      71.902388      298.95742      0.15473321   
     48000   490.7654       1302.6739      1793.4393      32.673491      291.54109      0.15453099   
     49000   470.54318      1330.1731      1800.7163      2.649845       297.69547      0.15556039   
     50000   468.428        1345.3688      1813.7968      38.606556      301.0963       0.15916961   
     51000   452.71985      1338.4662      1791.1861      78.834338      299.55149      0.16202798   
     52000   482.48062      1342.5053      1824.9859      78.956789      300.45545      0.1654302    
     53000   456.75891      1374.552       1831.3109      131.87763      307.62757      0.16726704   
     54000   500.55284      1318.99        1819.5429      82.954674      295.19267      0.16467316   
     55000   478.66418      1302.3021      1780.9663      99.190346      291.45789      0.15907685   
     56000   473.51491      1283.0232      1756.5381      93.10126       287.14322      0.1549208    
     57000   445.51464      1305.0075      1750.5222      105.16516      292.06336      0.15341814   
     58000   478.62428      1320.4721      1799.0964      134.68807      295.52436      0.15384182   
     59000   472.75643      1337.5955      1810.3519      182.29143      299.35661      0.1553466    
     60000   471.42284      1395.6011      1867.0239      207.78722      312.33839      0.1576944    
     61000   472.87493      1409.1747      1882.0496      256.40555      315.37618      0.16252072   
     62000   478.10642      1345.9458      1824.0522      196.79731      301.22544      0.16336164   
     63000   479.61485      1343.5121      1823.127       139.23809      300.68077      0.16035779   
     64000   484.18083      1345.8446      1830.0254      97.304264      301.20277      0.15641044   
     65000   454.08315      1356.5586      1810.6417      108.34377      303.60059      0.15405055   
     66000   466.69982      1298.1846      1764.8844      88.878569      290.53638      0.15575619   
     67000   469.45615      1323.9971      1793.4533      127.50627      296.31327      0.15922539   
     68000   480.49023      1318.201       1798.6912      143.20566      295.01609      0.16047976   
     69000   479.25693      1318.1202      1797.3772      155.82785      294.99802      0.16087743   
     70000   466.59883      1323.7333      1790.3322      181.24012      296.25423      0.15989305   
     71000   467.87137      1294.031       1761.9024      168.26018      289.60679      0.15568512   
     72000   510.10156      1359.9182      1870.0198      123.42809      304.35249      0.14733954   
     73000   490.64355      1357.0524      1847.696       67.69787       303.71112      0.14269315   
     74000   487.85703      1340.8686      1828.7256      66.587289      300.08914      0.14455155   
     75000   504.75545      1384.5119      1889.2674      86.21085       309.85661      0.14911963   
     76000   490.0109       1373.5634      1863.5743      119.04014      307.4063       0.15463603   
     77000   498.1897       1362.5726      1860.7623      173.89921      304.94655      0.1587494    
     78000   497.88736      1359.3459      1857.2332      141.98055      304.2244       0.15894351   
     79000   510.0683       1333.3987      1843.467       117.20771      298.41736      0.15720522   
     80000   525.51726      1358.5165      1884.0337      83.414362      304.03878      0.15395887   
     81000   512.81378      1429.7512      1942.565       87.087952      319.98126      0.15260647   
     82000   498.94655      1357.4284      1856.3749      91.584049      303.79525      0.15279581   
     83000   489.24935      1364.4469      1853.6963      159.44604      305.36602      0.15568404   
     84000   476.2545       1360.8171      1837.0716      217.81968      304.55367      0.16039529   
     85000   483.1796       1336.6289      1819.8085      188.90607      299.1403       0.16284966   
     86000   457.96954      1364.2408      1822.2103      186.56954      305.31989      0.16200405   
     87000   469.78787      1375.38        1845.1678      153.47143      307.81286      0.160756     
     88000   493.70648      1368.5562      1862.2627      101.80319      306.28569      0.15847765   
     89000   489.17852      1389.7609      1878.9394      88.76815       311.03133      0.15498585   
     90000   496.92503      1346.8747      1843.7997      86.443905      301.43333      0.15079621   
     91000   510.59843      1335.7087      1846.3071      95.083919      298.93435      0.14749479   
     92000   501.41981      1368.0277      1869.4476      124.51932      306.16742      0.14784036   
     93000   475.21502      1357.9058      1833.1208      205.49454      303.90211      0.1561799    
     94000   466.29175      1353.4793      1819.7711      215.30181      302.91145      0.16050619   
     95000   481.42012      1338.5414      1819.9615      211.89948      299.56831      0.16100741   
     96000   447.05567      1321.5144      1768.5701      104.96137      295.75764      0.15902321   
     97000   492.14811      1301.5763      1793.7244      74.931743      291.29544      0.15833152   
     98000   493.41027      1302.6511      1796.0613      104.2026       291.53598      0.16020538   
     99000   471.7266       1321.8282      1793.5548      103.0441       295.82786      0.16164711   
    100000   461.47277      1313.432       1774.9047      148.99058      293.94877      0.16544433   
    101000   433.60045      1343.964       1777.5644      176.81377      300.78189      0.1710578    
    102000   431.55062      1335.6302      1767.1808      184.75202      298.91678      0.17461697   
    103000   432.13068      1304.918       1737.0487      129.681        292.04333      0.17295799   
    104000   434.45864      1287.626       1722.0846      121.34041      288.17334      0.16849848   
    105000   461.97296      1329.5738      1791.5467      156.92156      297.56134      0.16005182   
    106000   488.68081      1294.6782      1783.359       118.43177      289.75164      0.15464081   
    107000   494.67557      1313.9812      1808.6567      138.79216      294.07168      0.15546598   
    108000   464.3841       1339.5105      1803.8946      124.05407      299.78521      0.15805794   
    109000   464.75836      1342.1106      1806.8689      102.06345      300.3671       0.15928353   
    110000   471.28638      1311.2399      1782.5263      105.09781      293.45819      0.15878445   
    111000   464.86153      1338.3572      1803.2187      111.87727      299.52709      0.15478844   
    112000   501.01071      1362.749       1863.7597      122.18047      304.98602      0.15247255   
    113000   468.38033      1378.9949      1847.3752      155.42063      308.62189      0.15232154   
    114000   504.25812      1343.5234      1847.7816      228.10976      300.6833       0.15636737   
    115000   458.34686      1374.7325      1833.0794      245.32533      307.66797      0.16511042   
    116000   469.81286      1365.0513      1834.8642      216.71876      305.50129      0.17035032   
    117000   439.39172      1353.589       1792.9807      158.96198      302.936        0.1694604    
    118000   469.08606      1355.4588      1824.5449      117.11575      303.35447      0.16709923   
    119000   494.65913      1341.7368      1836.3959      129.60625      300.28344      0.16255882   
    120000   474.04276      1346.2918      1820.3345      204.00425      301.30286      0.15609986   
    121000   487.91026      1339.1458      1827.0561      230.50755      299.70358      0.15125429   
    122000   478.95853      1311.4699      1790.4284      254.26783      293.50966      0.14965845   
    123000   504.26944      1320.15        1824.4195      240.07381      295.45228      0.15147474   
    124000   469.14991      1334.6608      1803.8108      163.97232      298.69983      0.15390568   
    125000   478.30137      1320.4257      1798.7271      106.51741      295.51399      0.15612913   
    126000   496.51107      1312.0982      1808.6093      61.04565       293.65027      0.15460311   
    127000   489.51955      1290.5875      1780.107       90.695976      288.83612      0.15119532   
    128000   502.30837      1299.5154      1801.8238      99.601788      290.83421      0.14366058   
    129000   534.02325      1322.8824      1856.9057      127.60389      296.0638       0.14062492   
    130000   496.5874       1319.8411      1816.4285      117.06798      295.38314      0.14246541   
    131000   485.44897      1330.6577      1816.1067      121.8852       297.80392      0.14719532   
    132000   465.58235      1332.3964      1797.9787      157.04772      298.19304      0.15049413   
    133000   469.16052      1346.2814      1815.4419      182.26884      301.30053      0.15168198   
    134000   513.44419      1356.1227      1869.5669      198.65191      303.50305      0.15268758   
    135000   497.73957      1374.782       1872.5216      198.463        307.67903      0.15262399   
    136000   496.3118       1406.5461      1902.8579      169.14447      314.78791      0.14999085   
    137000   512.28683      1365.4165      1877.7033      148.39309      305.58302      0.14583856   
    138000   523.87692      1338.3172      1862.1941      113.34896      299.51814      0.14320543   
    139000   494.80554      1340.6978      1835.5033      106.64506      300.05091      0.14662728   
    140000   490.69778      1329.5485      1820.2463      81.396876      297.55568      0.15404209   
    141000   500.49946      1292.8757      1793.3752      35.578289      289.34824      0.15831218   
    142000   513.02174      1319.692       1832.7137      43.962923      295.34978      0.15748604   
    143000   486.60367      1317.0498      1803.6534      106.50814      294.75844      0.15603794   
    144000   478.69149      1286.126       1764.8175      71.814741      287.83763      0.15349289   
    145000   482.385        1313.6454      1796.0304      111.1816       293.99654      0.15358266   
    146000   465.40094      1308.8027      1774.2037      164.03362      292.91274      0.15457465   
    147000   460.57219      1352.116       1812.6882      123.68815      302.60634      0.15460785   
    148000   478.97181      1306.078       1785.0498      124.8753       292.30293      0.15868634   
    149000   485.3556       1320.7365      1806.0921      110.18161      295.58354      0.16597528   
    150000   462.10244      1370.3259      1832.4284      178.34356      306.68175      0.16961296   
    151000   471.59883      1352.6969      1824.2957      160.74908      302.73634      0.16415478   
    152000   486.06544      1358.3006      1844.3661      165.13089      303.99047      0.15647477   
    153000   502.89531      1415.7618      1918.6571      188.15628      316.8504       0.15120393   
    154000   521.58935      1367.7388      1889.3282      153.60715      306.10276      0.14683768   
    155000   531.55604      1338.9233      1870.4794      93.919283      299.65379      0.14455316   
    156000   503.06594      1348.3452      1851.4111      101.61165      301.76242      0.14725998   
    157000   474.49164      1365.5402      1840.0318      99.640217      305.61069      0.1516609    
    158000   476.34215      1346.9795      1823.3217      152.1763       301.45679      0.15403707   
    159000   480.77221      1339.3809      1820.1531      173.43804      299.75619      0.15495066   
    160000   502.57933      1335.152       1837.7313      154.55751      298.80975      0.15475793   
    161000   450.15204      1355.4145      1805.5665      125.71859      303.34454      0.15554033   
    162000   471.9515       1352.1458      1824.0972      55.317423      302.61299      0.15724735   
    163000   495.36166      1322.7785      1818.1402      30.693059      296.04055      0.15818071   
    164000   480.51657      1314.1851      1794.7017      41.579222      294.11733      0.15980417   
    165000   464.19866      1341.1105      1805.3092      148.10684      300.14328      0.16163857   
    166000   482.18689      1329.5781      1811.765       166.37693      297.56231      0.1594459    
    167000   479.30013      1313.3215      1792.6217      167.76797      293.92405      0.15351504   
    168000   502.64447      1339.6008      1842.2452      152.95846      299.8054       0.14903248   
    169000   484.17131      1342.9369      1827.1082      127.73357      300.55203      0.14930709   
    170000   503.08727      1326.8481      1829.9354      108.91442      296.95134      0.15192193   
    171000   501.81986      1325.8483      1827.6681      127.49662      296.72756      0.15546887   
    172000   475.95837      1287.7349      1763.6933      148.98909      288.19772      0.15797009   
    173000   445.53867      1337.8941      1783.4327      146.92445      299.42344      0.15972004   
    174000   450.94068      1349.9939      1800.9346      143.90955      302.1314       0.1592921    
    175000   485.00975      1300.9748      1785.9845      75.003816      291.16083      0.15659088   
    176000   491.69009      1323.4762      1815.1663      29.680215      296.1967       0.1544228    
    177000   469.11652      1312.2095      1781.326      -9.8066153      293.67517      0.15498578   
    178000   441.04455      1328.7739      1769.8185      85.422775      297.38233      0.15906582   
    179000   480.43879      1297.9228      1778.3616      147.71885      290.47779      0.15859412   
    180000   473.19767      1301.9445      1775.1422      197.91168      291.37786      0.15718393   
    181000   486.44362      1323.5273      1809.971       249.00789      296.20814      0.1566845    
    182000   469.45835      1345.7032      1815.1616      240.87048      301.17115      0.15767721   
    183000   466.65905      1276.5838      1743.2429      184.39346      285.70208      0.15802629   
    184000   468.23564      1344.2121      1812.4478      134.71937      300.83744      0.16012907   
    185000   471.69897      1345.293       1816.9919      96.890614      301.07933      0.16187769   
    186000   460.21413      1388.0095      1848.2236      133.81469      310.63938      0.16182878   
    187000   457.85604      1354.5494      1812.4055      203.19651      303.15095      0.15848208   
    188000   487.59689      1336.9406      1824.5375      282.37634      299.21005      0.15589608   
    189000   490.86539      1382.7357      1873.601       299.56699      309.45908      0.15461697   
    190000   471.08179      1356.3933      1827.4751      236.66933      303.56361      0.15644058   
    191000   476.05771      1355.9472      1832.0049      187.78286      303.46377      0.1623419    
    192000   471.92773      1356.7542      1828.682       128.77939      303.64438      0.16860414   
    193000   457.80137      1349.3541      1807.1555      79.920358      301.98822      0.16970113   
    194000   465.56424      1354.1739      1819.7381      49.09597       303.0669       0.16643759   
    195000   500.82667      1355.8823      1856.709       85.036451      303.44924      0.16213623   
    196000   495.294        1370.3652      1865.6592      96.470228      306.69056      0.1584185    
    197000   478.73222      1397.0474      1875.7796      150.69436      312.66207      0.15629327   
    198000   474.01551      1381.6142      1855.6297      152.35899      309.2081       0.15553667   
    199000   498.67747      1358.264       1856.9414      185.74665      303.98227      0.15634563   
    200000   507.55433      1332.4274      1839.9817      180.04929      298.19998      0.15966606   
    201000   459.14426      1329.256       1788.4003      152.52248      297.49023      0.16415042   
    202000   426.62737      1340.1052      1766.7326      105.9694       299.9183       0.16865328   
    203000   477.67714      1316.9195      1794.5966      65.43581       294.72928      0.1711452    
    204000   466.45022      1301.3662      1767.8164      78.582599      291.24843      0.17152446   
    205000   452.99763      1245.718       1698.7157      109.20728      278.79425      0.16709648   
    206000   475.03842      1295.5191      1770.5576      152.95103      289.93984      0.16134229   
    207000   469.13908      1323.5745      1792.7136      165.50611      296.21869      0.15757248   
    208000   491.07398      1338.3811      1829.4551      146.27141      299.53244      0.155661     
    209000   492.76202      1336.3388      1829.1008      96.588096      299.07536      0.1556935    
    210000   469.24789      1333.8835      1803.1314      74.476242      298.52588      0.15786514   
    211000   455.98454      1320.8153      1776.7998      136.66043      295.60117      0.16650314   
    212000   439.84101      1327.0071      1766.8481      181.59224      296.9869       0.16960582   
    213000   453.43163      1301.7706      1755.2023      247.67382      291.33894      0.16688141   
    214000   454.14326      1292.3692      1746.5125      223.04047      289.23488      0.16181376   
    215000   479.45643      1354.9738      1834.4302      168.80186      303.24591      0.15799575   
    216000   488.8736       1365.8295      1854.7031      45.292207      305.67546      0.15319533   
    217000   508.70198      1356.5535      1865.2555     -22.062946      303.59947      0.15157718   
    218000   522.02322      1326.1012      1848.1244     -42.276181      296.78417      0.15183047   
    219000   489.78739      1378.5326      1868.32        44.812058      308.51844      0.15516365   
    220000   487.06466      1344.4439      1831.5086      129.33919      300.8893       0.16073686   
    221000   467.50955      1341.5555      1809.0651      224.57455      300.24288      0.16371506   
    222000   485.6882       1373.3109      1858.9991      206.18366      307.3498       0.16185209   
    223000   461.89546      1359.1473      1821.0428      228.56073      304.17997      0.161258     
    224000   482.69728      1358.5678      1841.2651      136.04427      304.05026      0.15991078   
    225000   518.34012      1337.6286      1855.9687      87.342129      299.36403      0.15710618   
    226000   502.53483      1366.287       1868.8219      77.8108        305.77784      0.15413784   
    227000   495.86564      1335.5693      1831.4349      121.0467       298.90314      0.15379834   
    228000   487.58449      1344.5335      1832.118       164.21916      300.90937      0.15571235   
    229000   470.52446      1325.9855      1796.51        190.06392      296.75828      0.15782668   
    230000   478.04439      1319.5507      1797.595       192.65274      295.31815      0.16004385   
    231000   483.8267       1291.0164      1774.8431      160.12071      288.93212      0.16017101   
    232000   468.01754      1299.6972      1767.7147      119.26367      290.8749       0.16039456   
    233000   470.07192      1309.9787      1780.0506      85.575817      293.17592      0.16044032   
    234000   488.55213      1313.9803      1802.5325      90.094585      294.0715       0.15988142   
    235000   460.35472      1334.5933      1794.948       113.64714      298.68472      0.15909868   
    236000   450.84165      1350.0574      1800.899       105.92468      302.14561      0.15814527   
    237000   478.93281      1288.9706      1767.9034      101.63832      288.47427      0.1606383    
    238000   500.8927       1313.9774      1814.8701      99.387936      294.07083      0.16339313   
    239000   474.3468       1342.3052      1816.652       114.7562       300.41065      0.16259305   
    240000   476.84952      1297.4841      1774.3336      135.44458      290.37961      0.15868561   
    241000   488.76219      1318.7976      1807.5598      114.07011      295.1496       0.15484803   
    242000   489.12199      1382.764       1871.886       164.28885      309.46543      0.15329993   
    243000   513.18525      1357.2199      1870.4051      149.8297       303.74859      0.15332173   
    244000   491.55962      1358.6818      1850.2414      145.28621      304.07577      0.15723569   
    245000   475.36596      1380.0381      1855.404       144.48167      308.85535      0.16637655   
    246000   463.47253      1359.5093      1822.9818      160.23661      304.26097      0.16887388   
    247000   468.17181      1365.1998      1833.3716      153.66904      305.53452      0.16781774   
    248000   464.54942      1370.6316      1835.181       162.89624      306.75017      0.16237722   
    249000   458.85377      1381.0225      1839.8763      200.43619      309.07567      0.15726689   
    250000   485.60815      1365.4291      1851.0373      191.02277      305.58584      0.15409115   
    251000   495.71787      1375.9257      1871.6436      153.41911      307.93499      0.15228704   
    252000   481.90551      1327.993       1809.8985      126.60993      297.20756      0.15429929   
    253000   453.76239      1318.7763      1772.5387      120.17654      295.14485      0.15786761   
    254000   511.31966      1330.5265      1841.8461      122.12557      297.77455      0.16039779   
    255000   484.11581      1363.2151      1847.3309      118.25104      305.09034      0.16075686   
    256000   451.25323      1346.2682      1797.5214      72.596889      301.29758      0.15736833   
    257000   478.40312      1351.6355      1830.0387      72.444831      302.49881      0.1557995    
    258000   468.37244      1337.3446      1805.7171      104.85443      299.30048      0.15569082   
    259000   462.24593      1364.7751      1827.021       145.51989      305.43946      0.15520591   
    260000   482.60072      1319.4694      1802.0701      197.26575      295.29995      0.15680566   
    261000   469.43165      1275.1697      1744.6013      156.14611      285.38559      0.15967732   
    262000   477.0824       1286.3302      1763.4126      163.80546      287.88334      0.16542635   
    263000   460.33829      1327.3287      1787.667       121.56239      297.0589       0.168083     
    264000   456.60065      1340.7247      1797.3253      107.15205      300.05693      0.16339276   
    265000   471.70109      1338.4723      1810.1734      118.45533      299.55286      0.15730053   
    266000   495.40311      1359.3726      1854.7757      164.64621      304.23037      0.15372298   
    267000   483.16905      1354.059       1837.2281      204.06326      303.04119      0.15234611   
    268000   488.46039      1353.3354      1841.7958      217.88567      302.87924      0.15306248   
    269000   518.1049       1352.4332      1870.5381      177.69744      302.67732      0.15588696   
    270000   485.8061       1401.2479      1887.054       152.65751      313.60215      0.159049     
    271000   455.46553      1358.7425      1814.2081      132.51067      304.08937      0.16167217   
    272000   485.70413      1343.4523      1829.1565      132.47435      300.66739      0.1633107    
    273000   473.93444      1367.2568      1841.1913      186.63342      305.99488      0.15943329   
    274000   496.74435      1388.5436      1885.2879      168.43412      310.75891      0.15108426   
    275000   485.6219       1370.8937      1856.5156      158.36575      306.80881      0.14796659   
    276000   483.43119      1363.8677      1847.2989      107.46204      305.23639      0.15122453   
    277000   487.0915       1351.1794      1838.2709      55.465345      302.39672      0.15680469   
    278000   503.91867      1330.4137      1834.3324      58.88993       297.74931      0.15871911   
    279000   480.23571      1347.4002      1827.6359      122.93012      301.55093      0.15861488   
    280000   486.2229       1408.3794      1894.6023      177.27461      315.1982       0.15734173   
    281000   506.50703      1395.1757      1901.6827      231.04246      312.24319      0.15671154   
    282000   461.1418       1392.6813      1853.8231      278.03479      311.68494      0.15611247   
    283000   482.8154       1357.1155      1839.9309      265.90061      303.72522      0.15363829   
    284000   511.29231      1341.4632      1852.7555      175.90728      300.22223      0.14814322   
    285000   488.87353      1336.9336      1825.8072      99.098386      299.20849      0.14487082   
    286000   494.79513      1337.9734      1832.7685      56.712143      299.44119      0.14631352   
    287000   487.07196      1344.588       1831.66        76.505004      300.92156      0.15070831   
    288000   491.10589      1336.6692      1827.7751      123.47979      299.14931      0.15591285   
    289000   501.77774      1329.9787      1831.7564      220.32358      297.65196      0.15947266   
    290000   478.63458      1347.4529      1826.0875      272.30913      301.56272      0.1601365    
    291000   472.53333      1291.1809      1763.7142      192.66505      288.96893      0.15797368   
    292000   465.68229      1303.3013      1768.9836      159.77155      291.68152      0.1588529    
    293000   472.29551      1313.5999      1785.8954      107.95861      293.98634      0.15880744   
    294000   475.42174      1337.4295      1812.8513      79.247818      299.31947      0.1572698    
    295000   491.35679      1330.6945      1822.0513      128.12686      297.81217      0.15747365   
    296000   477.82826      1356.8163      1834.6446      165.74077      303.65828      0.15794718   
    297000   486.7923       1355.5793      1842.3716      197.08716      303.38144      0.16110976   
    298000   479.81856      1365.121       1844.9395      185.93423      305.51687      0.16523641   
    299000   473.11272      1343.511       1816.6237      107.39851      300.68051      0.1680178    
    300000   493.21288      1313.501       1806.7139      84.467743      293.96423      0.16656749   
    301000   471.97455      1324.9147      1796.8892      100.54699      296.51863      0.1618548    
    302000   469.53621      1319.0673      1788.6035      154.04744      295.20996      0.15638659   
    303000   467.69474      1312.847       1780.5417      217.7239       293.81785      0.15315427   
    304000   476.81871      1343.9225      1820.7412      228.17045      300.77262      0.15158136   
    305000   465.31941      1319.4265      1784.7459      189.1773       295.29036      0.15116771   
    306000   514.02541      1317.9201      1831.9455      116.01641      294.95322      0.14973192   
    307000   483.34793      1303.6378      1786.9857      104.38427      291.75681      0.14948938   
    308000   501.72987      1333.9327      1835.6626      98.76086       298.53688      0.15252873   
    309000   483.64483      1382.5017      1866.1465      141.47217      309.40672      0.15930271   
    310000   484.44317      1368.8506      1853.2937      130.34758      306.35156      0.16252275   
    311000   493.29022      1371.1825      1864.4727      145.51184      306.87346      0.16086274   
    312000   504.06882      1353.4584      1857.5272      160.13891      302.90677      0.15936543   
    313000   450.20029      1379.3311      1829.5314      138.54431      308.69713      0.15823507   
    314000   486.36331      1340.3354      1826.6987      127.82058      299.96981      0.15725169   
    315000   487.46981      1318.2135      1805.6833      136.36896      295.01889      0.15718508   
    316000   467.54545      1309.6627      1777.2082      136.16181      293.1052       0.15877876   
    317000   461.70301      1275.9625      1737.6655      102.16419      285.56302      0.16101246   
    318000   468.5262       1289.6755      1758.2017      161.502        288.63203      0.16648358   
    319000   450.26393      1325.4003      1775.6642      125.69601      296.62731      0.16967773   
    320000   458.63548      1327.6602      1786.2957      75.298499      297.13308      0.16769636   
    321000   490.04829      1281.152       1771.2003      68.59077       286.72445      0.16167556   
    322000   468.09789      1317.7348      1785.8327      108.36477      294.91176      0.15751242   
    323000   470.61189      1340.8843      1811.4962      197.96337      300.09266      0.15654972   
    324000   489.22777      1319.4439      1808.6716      221.43946      295.29425      0.15722851   
    325000   488.75213      1294.9847      1783.7368      179.68768      289.82024      0.15771154   
    326000   474.14559      1345.3402      1819.4858      103.35613      301.08989      0.15909446   
    327000   462.39015      1331.9836      1794.3737      91.698236      298.10065      0.16204947   
    328000   473.44222      1298.138       1771.5802      80.436174      290.52595      0.1644052    
    329000   432.70014      1268.6356      1701.3357      119.49557      283.92324      0.1654455    
    330000   450.18163      1318.6073      1768.7889      210.64175      295.10701      0.16459247   
    331000   456.56536      1319.8575      1776.4228      308.80999      295.38681      0.16258689   
    332000   483.21291      1317.7795      1800.9924      306.8135       294.92177      0.15914309   
    333000   476.69159      1315.9546      1792.6462      247.30735      294.51335      0.15537915   
    334000   448.94888      1274.8879      1723.8368      163.24906      285.32254      0.15443331   
    335000   481.01992      1306.6718      1787.6917      81.366861      292.43584      0.15590541   
    336000   467.97464      1322.2128      1790.1875      41.894377      295.91394      0.15576903   
    337000   494.3806       1316.7917      1811.1723      53.800892      294.70069      0.15395405   
    338000   506.60549      1313.5258      1820.1313      90.960588      293.96978      0.1526651    
    339000   482.87994      1358.3943      1841.2742      146.04009      304.01143      0.15310389   
    340000   462.50425      1362.1846      1824.6889      205.28544      304.85971      0.15436687   
    341000   514.08678      1361.2183      1875.3051      207.92488      304.64345      0.15993489   
    342000   464.84563      1348.9057      1813.7513      141.50271      301.88786      0.16653541   
    343000   473.0456       1354.0318      1827.0774      103.60927      303.03509      0.1699366    
    344000   480.22855      1364.0824      1844.311       71.817853      305.28445      0.16759649   
    345000   493.53564      1354.426       1847.9616      68.671506      303.12332      0.16187848   
    346000   474.51157      1363.1817      1837.6933      133.56377      305.08287      0.15873059   
    347000   495.08746      1369.923       1865.0104      189.19353      306.59158      0.15787234   
    348000   486.03099      1360.6302      1846.6612      224.17428      304.51183      0.1574574    
    349000   478.00338      1334.2694      1812.2728      177.37723      298.61223      0.15705587   
    350000   472.97635      1327.6493      1800.6256      145.36988      297.13063      0.15694409   
    351000   465.8754       1313.7733      1779.6487      93.306838      294.02517      0.15570584   
    352000   474.82533      1294.4509      1769.2762      3.4111436      289.70077      0.154551     
    353000   502.57684      1282.4035      1784.9803      28.138195      287.00453      0.15474806   
    354000   474.94581      1320.9947      1795.9405      72.060179      295.64132      0.15311394   
    355000   491.08898      1330.8315      1821.9204      150.483        297.84281      0.15146804   
    356000   470.48396      1313.3026      1783.7866      247.47332      293.91982      0.15359769   
    357000   469.9655       1288.2996      1758.2651      268.08412      288.3241       0.16044624   
    358000   480.18327      1305.9745      1786.1578      277.03998      292.27978      0.16557957   
    359000   446.73795      1349.5461      1796.2841      200.86355      302.03119      0.16524787   
    360000   472.65306      1302.2436      1774.8967      90.616785      291.4448       0.16271755   
    361000   497.19072      1313.2091      1810.3999      6.928753       293.8989       0.16000703   
    362000   488.26862      1327.4127      1815.6813      5.9805993      297.07769      0.15749391   
    363000   473.35139      1284.5876      1757.939       61.631128      287.49335      0.15408164   
    364000   470.28827      1297.4477      1767.736       135.59994      290.37147      0.15396857   
    365000   481.8901       1320.2061      1802.0962      151.60666      295.46484      0.15701096   
    366000   479.41201      1344.7076      1824.1196      154.98441      300.94831      0.16806087   
    367000   447.20198      1382.1139      1829.3159      166.13099      309.31994      0.17437758   
    368000   450.73452      1404.5834      1855.3179      162.22828      314.34864      0.17099625   
    369000   475.00112      1355.5559      1830.557       155.94384      303.37619      0.16473361   
    370000   497.03819      1329.6524      1826.6905      133.39034      297.57893      0.16102447   
    371000   490.45295      1349.1828      1839.6358      144.27344      301.94989      0.15845507   
    372000   483.06495      1335.5029      1818.5679      117.26413      298.8883       0.15539758   
    373000   500.4529       1329.7284      1830.1813      125.87006      297.59595      0.15308853   
    374000   488.58332      1323.4507      1812.034       138.12116      296.19098      0.15169507   
    375000   469.1467       1286.2331      1755.3798      177.8805       287.8616       0.15327746   
    376000   457.64024      1296.5953      1754.2355      171.02356      290.18069      0.15817344   
    377000   467.43371      1316.4914      1783.9251      147.06654      294.63348      0.16470768   
    378000   466.33571      1338.9121      1805.2478      111.34896      299.65127      0.16984889   
    379000   470.0747       1333.1231      1803.1978      110.44678      298.35569      0.17136549   
    380000   476.42003      1361.1353      1837.5554      88.891742      304.62488      0.1690126    
    381000   486.49654      1371.835       1858.3315      107.93967      307.01949      0.16294514   
    382000   506.32831      1359.8602      1866.1885      122.95576      304.3395       0.15888518   
    383000   497.46419      1377.6656      1875.1297      186.33856      308.32438      0.15569488   
    384000   498.03668      1345.8343      1843.8709      147.73736      301.20047      0.15343686   
    385000   495.79342      1349.0248      1844.8182      126.37716      301.91451      0.15360103   
    386000   497.40378      1349.3835      1846.7873      104.90843      301.99481      0.1554826    
    387000   474.94268      1317.3712      1792.3139      113.61678      294.83039      0.15720607   
    388000   460.45095      1307.0795      1767.5304      71.924334      292.52707      0.16157978   
    389000   482.50982      1310.3096      1792.8194      91.266543      293.24998      0.16702371   
    390000   469.19177      1316.551       1785.7428      103.4033       294.64682      0.16772293   
    391000   482.01516      1294.6395      1776.6547      54.645458      289.74298      0.16131817   
    392000   509.07612      1332.0611      1841.1373      75.450119      298.11802      0.15236133   
    393000   504.22506      1327.5674      1831.7925      120.26504      297.11231      0.14954854   
    394000   492.35262      1314.6861      1807.0388      107.03479      294.22946      0.14998218   
    395000   475.10729      1348.1869      1823.2942      172.43981      301.72699      0.15517753   
    396000   460.08007      1380.2523      1840.3323      197.4696       308.90329      0.15970962   
    397000   483.33884      1343.9535      1827.2923      177.59676      300.77955      0.16036375   
    398000   473.05525      1348.4428      1821.498       124.7897       301.78427      0.1568987    
    399000   463.15617      1323.8905      1787.0467      127.93092      296.28942      0.15286183   
    400000   493.82857      1320.1832      1814.0118      89.796863      295.45972      0.15002711   
Loop time of 1666.95 on 8 procs for 400000 steps with 1500 atoms

Performance: 10.366 ns/day, 2.315 hours/ns, 239.959 timesteps/s, 359.938 katom-step/s
99.4% CPU use with 8 MPI tasks x 1 OpenMP threads

MPI task timing breakdown:
Section |  min time  |  avg time  |  max time  |%varavg| %total
---------------------------------------------------------------
Pair    | 64.33      | 66.51      | 68.774     |  20.8 |  3.99
Bond    | 3.6952     | 3.7855     | 3.9182     |   3.1 |  0.23
Kspace  | 713        | 715.2      | 717.18     |   6.0 | 42.90
Neigh   | 1.182      | 1.1827     | 1.1836     |   0.1 |  0.07
Comm    | 27.805     | 27.986     | 28.192     |   2.6 |  1.68
Output  | 0.015917   | 0.017004   | 0.024066   |   2.0 |  0.00
Modify  | 822.73     | 836.94     | 846.6      |  29.9 | 50.21
Other   |            | 15.33      |            |       |  0.92

Nlocal:          187.5 ave         214 max         156 min
Histogram: 2 0 0 2 0 0 0 1 1 2
Nghost:        1631.62 ave        1697 max        1574 min
Histogram: 1 1 1 0 1 1 2 0 0 1
Neighs:          13084 ave       16035 max       10137 min
Histogram: 3 0 0 1 0 0 0 1 1 2

Total # of neighbors = 104672
Ave neighs/atom = 69.781333
Ave special neighs/atom = 2
Neighbor list builds = 2488
Dangerous builds = 0
PPPM initialization ...
  using 12-bit tables for long-range coulomb (src/kspace.cpp:342)
  G vector (1/distance) = 0.26884491
  grid = 50 50 50
  stencil order = 5
  estimated absolute RMS force accuracy = 0.00037001144
  estimated relative force accuracy = 1.1142785e-06
  using single precision FFTW3
  3d grid and FFT values/proc = 32768 16250
Generated 1 of 1 mixed pair_coeff terms from arithmetic mixing rule
Last active /omp style is kspace_style pppm/omp
Setting up Verlet run ...
  Unit style    : real
  Current step  : 0
  Time step     : 0.5
Per MPI rank memory allocation (min/avg/max) = 8.651 | 8.672 | 8.694 Mbytes
   Step         PotEng         KinEng         TotEng         Press           Temp        v_Density   
         0   493.82779      1320.1832      1814.011       89.798302      295.45972      0.15002711   
      1000   465.07232      1324.5968      1789.6691      96.643819      296.44748      0.15017175   
      2000   512.14455      1298.8297      1810.9742      133.13811      290.68075      0.1512499    
      3000   483.93973      1312.187       1796.1268      143.47899      293.67015      0.15363331   
      4000   477.96074      1273.2892      1751.2499      139.59135      284.96473      0.15740622   
      5000   481.17625      1303.7282      1784.9044      81.696382      291.77704      0.15927828   
      6000   474.30568      1329.5872      1803.8929      59.535556      297.56434      0.15848887   
      7000   519.75411      1377.2901      1897.0442      73.742909      308.24035      0.15639102   
      8000   524.10008      1339.0854      1863.1855      70.612451      299.69007      0.15168952   
      9000   503.41028      1383.0431      1886.4534      85.187465      309.52789      0.14863839   
     10000   488.16565      1363.7855      1851.9511      96.540834      305.21799      0.14755371   
     11000   512.60224      1391.1941      1903.7964      184.99322      311.3521       0.15199754   
     12000   488.72037      1391.1813      1879.9017      200.45859      311.34923      0.15866256   
     13000   443.41733      1376.5386      1819.9559      250.12353      308.07217      0.16361456   
     14000   469.41405      1327.3702      1796.7843      192.23284      297.06818      0.16404403   
     15000   462.77889      1358.6613      1821.4402      152.43546      304.07118      0.16407822   
     16000   475.1819       1351.8359      1827.0178      143.38446      302.54366      0.16457417   
     17000   465.1771       1350.1886      1815.3657      129.48831      302.17498      0.16309078   
     18000   490.25541      1313.4646      1803.72        88.035486      293.95608      0.15885199   
     19000   495.52086      1323.5916      1819.1125      47.59699       296.22252      0.15576972   
     20000   475.54912      1328.7783      1804.3274      31.384463      297.3833       0.15585144   
     21000   465.25993      1303.4034      1768.6634      11.96021       291.70436      0.1606548    
     22000   467.83304      1337.915       1805.748       89.617368      299.42812      0.17038403   
     23000   475.17093      1312.8978      1788.0687      101.04741      293.82922      0.17211567   
     24000   474.92192      1315.1867      1790.1087      98.234896      294.34149      0.16977458   
     25000   439.95236      1320.8571      1760.8094      115.14809      295.61053      0.16437233   
     26000   454.97417      1309.0792      1764.0533      178.81005      292.97461      0.16127768   
     27000   461.5623       1335.7268      1797.2891      196.64523      298.9384       0.15937707   
     28000   500.48266      1321.941       1822.4237      228.82382      295.85311      0.15869      
     29000   490.71338      1348.5379      1839.2513      183.77287      301.80556      0.15722349   
     30000   495.8716       1355.2223      1851.0939      130.51305      303.30154      0.15552851   
     31000   476.14105      1399.5914      1875.7325      115.91652      313.23143      0.15483677   
     32000   515.71984      1388.7577      1904.4775      132.91779      310.80683      0.15199916   
     33000   512.94119      1359.8358      1872.777       173.09009      304.33405      0.14714499   
     34000   499.18386      1358.3773      1857.5612      171.23694      304.00763      0.14616327   
     35000   488.69032      1384.7953      1873.4857      175.65466      309.92004      0.15207984   
     36000   499.21755      1414.5721      1913.7897      133.44269      316.58415      0.15870508   
     37000   484.16775      1371.1335      1855.3012      124.6421       306.86249      0.16026662   
     38000   502.52266      1351.536       1854.0587      89.295398      302.47654      0.15865547   
     39000   494.24382      1381.0012      1875.245       115.80389      309.0709       0.1573481    
     40000   511.20667      1334.8075      1846.0141      130.14534      298.73265      0.15474212   
     41000   490.70962      1327.9684      1818.678       133.40997      297.20205      0.15127879   
     42000   516.7792       1301.1924      1817.9716      116.19835      291.20954      0.14791747   
     43000   488.19276      1332.6993      1820.892       128.19151      298.26083      0.1473214    
     44000   478.08857      1309.3329      1787.4214      189.10122      293.03138      0.15603171   
     45000   481.31555      1297.7821      1779.0976      162.21155      290.4463       0.16362449   
     46000   476.28889      1337.8005      1814.0894      144.44817      299.4025       0.16665063   
     47000   462.75665      1357.9569      1820.7136      144.27375      303.91355      0.16618801   
     48000   505.84324      1345.1297      1850.9729      59.754165      301.04279      0.16262782   
     49000   498.44006      1347.904       1846.3441      44.847341      301.66368      0.15813018   
     50000   488.08738      1364.0983      1852.1857      31.361867      305.288        0.15518448   
     51000   511.8901       1390.7619      1902.652       117.55533      311.25538      0.15568241   
     52000   501.09466      1335.1867      1836.2813      192.04914      298.81752      0.15574397   
     53000   487.43396      1327.4668      1814.9007      196.52879      297.08978      0.15465494   
     54000   459.80316      1285.9349      1745.738       178.86447      287.79486      0.15349545   
     55000   480.80779      1319.6909      1800.4986      142.55186      295.34952      0.15385229   
     56000   473.77315      1331.8953      1805.6685      115.95933      298.0809       0.15609135   
     57000   484.68876      1325.3238      1810.0126      83.941905      296.6102       0.16040889   
     58000   458.30804      1353.8899      1812.1979      125.40841      303.00333      0.16478698   
     59000   480.22904      1376.3547      1856.5837      202.53762      308.03101      0.16654883   
     60000   472.30421      1349.5205      1821.8247      198.04501      302.02547      0.16260379   
     61000   506.57176      1360.3579      1866.9296      116.338        304.45089      0.15600248   
     62000   513.65733      1331.8013      1845.4587      136.64848      298.05987      0.15361284   
     63000   490.36668      1380.264       1870.6307      115.35173      308.90593      0.15279177   
     64000   482.83262      1357.0688      1839.9014      101.3984       303.71478      0.15244431   
     65000   468.16479      1378.6504      1846.8152      91.27497       308.54479      0.1518372    
     66000   483.00499      1339.6041      1822.6091      72.997339      299.80616      0.15115811   
     67000   503.16043      1302.1104      1805.2709      70.359513      291.41499      0.15396859   
     68000   474.48156      1339.7256      1814.2072      115.71239      299.83334      0.15776943   
     69000   503.8166       1290.5214      1794.338       127.51255      288.82134      0.15904032   
     70000   483.03067      1328.2439      1811.2745      112.7138       297.26371      0.15780369   
     71000   480.36303      1316.6665      1797.0295      57.985053      294.67266      0.14768979   
     72000   516.86156      1356.962       1873.8235      62.166966      303.69088      0.14129013   
     73000   507.64835      1361.3112      1868.9595      75.269417      304.66424      0.14093188   
     74000   508.79238      1357.3257      1866.1181      156.86471      303.77227      0.145748     
     75000   501.96487      1357.7854      1859.7503      180.68311      303.87516      0.15051267   
     76000   475.10318      1354.492       1829.5952      222.43967      303.13809      0.15323761   
     77000   464.91824      1299.5895      1764.5077      200.47716      290.8508       0.15403298   
     78000   488.03054      1318.944       1806.9746      164.40892      295.18238      0.15508255   
     79000   482.96154      1313.1767      1796.1382      108.88502      293.89164      0.15650988   
     80000   466.96601      1310.1358      1777.1018      55.557218      293.21108      0.15880643   
     81000   475.69673      1321.9859      1797.6826      92.432024      295.86315      0.1646056    
     82000   467.27989      1315.703       1782.9829      83.990852      294.45702      0.16802489   
     83000   454.95205      1298.1259      1753.0779      104.46711      290.52324      0.16749125   
     84000   466.95735      1323.7066      1790.6639      119.21363      296.24825      0.16043401   
     85000   476.02944      1298.4424      1774.4718      162.56597      290.59407      0.15296757   
     86000   490.09256      1347.6546      1837.7472      129.39965      301.60788      0.1513969    
     87000   465.22704      1385.1192      1850.3463      127.34772      309.99253      0.15534339   
     88000   475.47745      1352.4342      1827.9116      109.83647      302.67755      0.16045565   
     89000   458.12215      1369.0963      1827.2184      144.77913      306.40656      0.16387055   
     90000   497.70057      1381.7876      1879.4882      180.36195      309.24691      0.16548291   
     91000   456.28433      1379.4028      1835.6872      158.48099      308.71319      0.16499289   
     92000   474.4004       1347.6816      1822.082       125.5616       301.61392      0.16325414   
     93000   471.95851      1347.682       1819.6405      81.964729      301.61399      0.16040225   
     94000   467.83608      1333.4775      1801.3136      20.821421      298.43501      0.15760975   
     95000   475.49794      1312.8054      1788.3033      3.5032744      293.80854      0.15215769   
     96000   484.5247       1274.6727      1759.1974      37.044579      285.27437      0.1485215    
     97000   477.72194      1303.5896      1781.3116      59.585208      291.74604      0.15048029   
     98000   493.07629      1319.6181      1812.6944      126.45594      295.33323      0.15705673   
     99000   476.33749      1320.3287      1796.6662      166.90867      295.49228      0.16016749   
    100000   475.35136      1325.0784      1800.4298      212.76989      296.55527      0.16151943   
    101000   464.09831      1328.2978      1792.3961      211.4065       297.27578      0.16084595   
    102000   474.88504      1277.2618      1752.1469      190.99598      285.85382      0.15935281   
    103000   480.58049      1329.8598      1810.4402      136.07178      297.62534      0.15768196   
    104000   516.96981      1332.3473      1849.3171      105.73504      298.18207      0.15850628   
    105000   477.393        1350.0372      1827.4302      44.742774      302.14109      0.15922009   
    106000   489.47592      1374.4261      1863.902       23.829852      307.59938      0.16051221   
    107000   469.10186      1365.3812      1834.483       10.217891      305.57511      0.16227671   
    108000   494.73597      1341.7379      1836.4739      86.855088      300.2837       0.16525668   
    109000   477.17807      1376.432       1853.6101      165.52308      308.04831      0.16521704   
    110000   496.10807      1391.8077      1887.9157      221.56174      311.48942      0.16059913   
    111000   505.25758      1361.2552      1866.5128      208.19162      304.65171      0.15132848   
    112000   500.77465      1398.4866      1899.2613      187.45286      312.98418      0.14844425   
    113000   484.28114      1371.5927      1855.8738      159.51804      306.96525      0.15038465   
    114000   489.95165      1351.4989      1841.4505      149.79941      302.46823      0.1546829    
    115000   444.98888      1343.1601      1788.149       178.36884      300.602        0.15714174   
    116000   460.60964      1305.1204      1765.73        135.51308      292.08863      0.15778425   
    117000   492.24765      1263.2933      1755.541       92.266448      282.72764      0.15941197   
    118000   460.80416      1326.677       1787.4812      132.65625      296.91304      0.16307128   
    119000   469.05028      1354.8848      1823.9351      113.85081      303.226        0.16529893   
    120000   463.51317      1378.5959      1842.1091      117.17317      308.53259      0.16534024   
    121000   482.32379      1358.9093      1841.2331      94.597286      304.12669      0.16107598   
    122000   518.72365      1364.5877      1883.3114      77.569519      305.39753      0.1543076    
    123000   502.84532      1379.7683      1882.6136      100.96169      308.79497      0.15041264   
    124000   505.98126      1402.6507      1908.6319      151.8766       313.91609      0.15011982   
    125000   484.51575      1371.437       1855.9528      165.17632      306.93042      0.15186282   
    126000   472.63864      1350.132       1822.7706      205.17142      302.16231      0.1550166    
    127000   498.57508      1328.5842      1827.1593      241.49051      297.33988      0.15874877   
    128000   487.38256      1346.3154      1833.698       276.97026      301.30816      0.16097288   
    129000   519.85591      1359.9801      1879.836       240.06909      304.36634      0.16089645   
    130000   469.96782      1352.5644      1822.5322      134.13776      302.70668      0.16014112   
    131000   498.00264      1324.2367      1822.2394      45.673117      296.36689      0.15843655   
    132000   481.53681      1298.5983      1780.1351     -22.153494      290.62896      0.15126487   
    133000   495.67228      1297.0753      1792.7476      15.334643      290.28812      0.14675788   
    134000   497.74907      1314.9573      1812.7064      64.439794      294.29014      0.14779213   
    135000   458.38264      1334.2572      1792.6398      160.24261      298.60949      0.15192336   
    136000   496.10462      1336.7754      1832.88        180.56094      299.17307      0.15511289   
    137000   468.56374      1312.9115      1781.4752      227.38498      293.83229      0.15635963   
    138000   478.36411      1338.2981      1816.6622      167.47463      299.51386      0.15547342   
    139000   466.11948      1309.8926      1776.012       122.73088      293.15664      0.1551829    
    140000   492.17399      1324.3586      1816.5326      57.716236      296.39417      0.15351373   
    141000   511.87888      1295.1008      1806.9797      74.088928      289.84622      0.15085443   
    142000   441.11395      1324.3944      1765.5084      130.06276      296.40219      0.14969791   
    143000   468.8519       1335.2377      1804.0896      208.04489      298.82893      0.15253228   
    144000   500.86575      1326.3935      1827.2593      218.41911      296.84959      0.15728918   
    145000   472.41396      1364.7351      1837.149       172.937        305.43051      0.16043497   
    146000   479.06335      1362.0395      1841.1029      105.17384      304.82725      0.16183519   
    147000   487.79052      1347.4723      1835.2628      7.8532994      301.56707      0.15873825   
    148000   500.637        1369.9691      1870.6061      86.182428      306.60189      0.15372409   
    149000   499.29478      1356.1192      1855.414       121.93834      303.50227      0.14563998   
    150000   514.70469      1369.8638      1884.5685      202.81392      306.57833      0.14300587   
    151000   508.94279      1339.8267      1848.7695      247.97119      299.85597      0.14647325   
    152000   492.09521      1354.3936      1846.4889      185.31353      303.11608      0.15124255   
    153000   525.66693      1351.64        1877.307       116.84277      302.49981      0.15496454   
    154000   511.44149      1379.0764      1890.5179      142.14185      308.64014      0.15676349   
    155000   476.59141      1370.5535      1847.1449      107.52118      306.73268      0.15588093   
    156000   491.01312      1353.2429      1844.256       84.281152      302.85854      0.15598392   
    157000   457.9238       1365.656       1823.5798      111.61079      305.63662      0.16060102   
    158000   479.90834      1395.9729      1875.8813      154.13236      312.42161      0.16486087   
    159000   490.40852      1341.3142      1831.7227      149.3545       300.18886      0.16214564   
    160000   507.73083      1314.2986      1822.0294      178.18058      294.14272      0.1568427    
    161000   495.66639      1319.9122      1815.5786      148.69922      295.39905      0.1533938    
    162000   486.05429      1314.7822      1800.8365      133.48696      294.25096      0.15271162   
    163000   477.48809      1318.6202      1796.1083      120.74421      295.1099       0.15332017   
    164000   488.17169      1328.1637      1816.3354      92.099274      297.24576      0.15686291   
    165000   500.86516      1360.3333      1861.1985      89.941567      304.44539      0.16150821   
    166000   485.05085      1360.5173      1845.5682      91.103883      304.48657      0.16180484   
    167000   494.46805      1334.0741      1828.5422      135.06454      298.56853      0.16024669   
    168000   459.08877      1289.373       1748.4617      144.95538      288.56432      0.15723633   
    169000   467.81639      1294.6392      1762.4556      131.06986      289.74291      0.15578315   
    170000   475.89978      1313.0292      1788.929       154.48204      293.85864      0.15705863   
    171000   472.81316      1333.7041      1806.5172      125.43875      298.4857       0.15917264   
    172000   475.58313      1333.0711      1808.6542      146.31143      298.34405      0.16350396   
    173000   462.39636      1347.4755      1809.8719      198.27079      301.56779      0.17059121   
    174000   473.56675      1335.4232      1808.99        211.39555      298.87046      0.17509076   
    175000   468.70106      1352.2122      1820.9132      231.48413      302.62786      0.17199974   
    176000   483.16472      1330.393       1813.5577      160.45431      297.74468      0.16509148   
    177000   440.40642      1359.983       1800.3894      181.45707      304.36698      0.16240422   
    178000   479.25874      1314.5701      1793.8288      75.98875       294.20348      0.15929157   
    179000   487.85313      1306.443       1794.2961      24.788709      292.38462      0.15574209   
    180000   464.01751      1302.8668      1766.8843      46.902924      291.58427      0.15369972   
    181000   478.53131      1296.5715      1775.1028      88.637158      290.17535      0.1546361    
    182000   479.89721      1336.6636      1816.5608      172.62244      299.14806      0.15883665   
    183000   466.59214      1334.9773      1801.5695      208.17255      298.77067      0.16305545   
    184000   470.14382      1302.9313      1773.0751      216.89775      291.59869      0.16678011   
    185000   465.05666      1336.8372      1801.8938      157.49661      299.18691      0.16734471   
    186000   471.93073      1302.8281      1774.7588      107.10829      291.5756       0.1675118    
    187000   467.63123      1340.9427      1808.5739      106.04156      300.10572      0.16677805   
    188000   469.00785      1356.7133      1825.7212      148.46612      303.63522      0.16236054   
    189000   489.81781      1349.7698      1839.5876      130.17259      302.08125      0.15685298   
    190000   501.00649      1346.5328      1847.5393      131.29989      301.3568       0.15428781   
    191000   497.49655      1336.3452      1833.8418      102.25164      299.0768       0.15410513   
    192000   473.67133      1336.8074      1810.4788      107.27875      299.18025      0.15555262   
    193000   491.86745      1272.4428      1764.3102      78.708868      284.77531      0.15684539   
    194000   507.77639      1269.2347      1777.0111      84.698918      284.05733      0.15912102   
    195000   457.57473      1330.2498      1787.8246      88.002739      297.71265      0.1588746    
    196000   511.76015      1290.0586      1801.8187      96.735018      288.71776      0.15734658   
    197000   504.97255      1317.0237      1821.9963      46.991904      294.75262      0.1544581    
    198000   526.33823      1356.8721      1883.2104      54.925586      303.67077      0.15226388   
    199000   498.31088      1408.6588      1906.9696      119.23027      315.26072      0.15352111   
    200000   514.88288      1340.9718      1855.8547      143.05521      300.11225      0.15745248   
    201000   492.02028      1368.4266      1860.4469      145.02263      306.25668      0.16307538   
    202000   493.03058      1348.9697      1842.0003      194.52407      301.90218      0.16621509   
    203000   462.84065      1361.9665      1824.8071      168.52814      304.81089      0.16447806   
    204000   492.59992      1379.001       1871.6009      186.75607      308.62325      0.16236726   
    205000   514.06002      1324.5489      1838.609       100.89773      296.43677      0.15731763   
    206000   502.24796      1357.5461      1859.794       80.485583      303.8216       0.15520902   
    207000   498.26055      1368.1308      1866.3914      72.487585      306.19049      0.15448737   
    208000   457.80342      1360.9028      1818.7063      86.872484      304.57285      0.15311456   
    209000   486.12021      1331.2609      1817.3811      118.75594      297.93893      0.15341954   
    210000   489.42114      1342.288       1831.7091      128.91555      300.40681      0.15503761   
    211000   464.41624      1336.1407      1800.5569      136.76421      299.03103      0.16072268   
    212000   461.0981       1293.7519      1754.85        183.1737       289.54433      0.16810857   
    213000   443.9844       1330.2669      1774.2513      158.97694      297.71646      0.16751681   
    214000   479.97804      1304.1433      1784.1214      139.17491      291.86995      0.1635625    
    215000   468.83101      1323.5706      1792.4016      101.48633      296.21782      0.15817504   
    216000   466.06276      1332.2915      1798.3542      105.4946       298.16957      0.15591966   
    217000   492.79275      1325.4071      1818.1998      152.90157      296.62882      0.15700649   
    218000   479.87656      1335.6179      1815.4945      161.99018      298.91403      0.15768334   
    219000   497.47262      1302.4005      1799.8731      125.861        291.47991      0.15877504   
    220000   494.60577      1313.1744      1807.7801      131.11546      293.89112      0.16024867   
    221000   492.82157      1343.778       1836.5996      188.86749      300.74027      0.16222884   
    222000   486.18115      1344.6134      1830.7945      197.82423      300.92723      0.16340099   
    223000   490.6221       1352.6159      1843.238       168.58685      302.71822      0.16182782   
    224000   472.59058      1294.0502      1766.6408      114.28685      289.6111       0.1586109    
    225000   477.80523      1312.9144      1790.7196      76.590261      293.83294      0.15818717   
    226000   473.74672      1347.8414      1821.5882      87.197761      301.64968      0.15936758   
    227000   505.70292      1372.6091      1878.312       138.7398       307.19273      0.15668382   
    228000   507.57621      1349.995       1857.5713      207.12242      302.13166      0.1504522    
    229000   508.77866      1369.5061      1878.2848      220.21162      306.49828      0.14592983   
    230000   520.57565      1363.248       1883.8236      236.07263      305.0977       0.14760517   
    231000   497.03532      1340.3316      1837.3669      205.32284      299.96896      0.15276198   
    232000   479.17487      1336.1958      1815.3706      178.04329      299.04335      0.15741423   
    233000   483.24478      1335.6245      1818.8693      139.0556       298.91552      0.16000482   
    234000   490.42494      1362.2568      1852.6818      186.09126      304.87588      0.16263214   
    235000   477.13542      1374.384       1851.5195      180.14939      307.58997      0.16271625   
    236000   478.16082      1375.0654      1853.2263      193.03038      307.74247      0.16004837   
    237000   503.78556      1386.4484      1890.2339      130.9285       310.28999      0.15516303   
    238000   492.66381      1351.3734      1844.0372      135.53778      302.44015      0.15232218   
    239000   495.94281      1333.0259      1828.9687      119.23946      298.33392      0.15000602   
    240000   490.07124      1319.9593      1810.0305      130.87975      295.4096       0.15122809   
    241000   454.05656      1322.5078      1776.5644      181.06225      295.97997      0.1611467    
    242000   470.06977      1329.4598      1799.5295      171.77904      297.53582      0.16669314   
    243000   455.0207       1311.2025      1766.2232      142.63639      293.44982      0.16869318   
    244000   492.96389      1310.9699      1803.9338      112.45961      293.39775      0.16728909   
    245000   470.62259      1310.7545      1781.377       62.072208      293.34954      0.1628001    
    246000   485.81754      1305.2758      1791.0933      63.996082      292.1234       0.15838923   
    247000   510.19255      1305.46        1815.6525      66.176126      292.16462      0.15627653   
    248000   485.99316      1296.7328      1782.7259      71.233138      290.21146      0.15580772   
    249000   453.76579      1347.9314      1801.6972      179.0516       301.66981      0.15652114   
    250000   494.76645      1303.9024      1798.6689      204.52619      291.81604      0.15749178   
    251000   491.35755      1307.6112      1798.9687      218.19839      292.64606      0.15903779   
    252000   462.10031      1303.88        1765.9803      181.94158      291.81102      0.16194824   
    253000   464.88687      1328.696       1793.5829      183.46185      297.36489      0.16714966   
    254000   475.84788      1332.5677      1808.4156      112.27474      298.23138      0.16763948   
    255000   484.5399       1332.5584      1817.0983      80.236335      298.22931      0.16164056   
    256000   510.07892      1304.2282      1814.3072      64.946135      291.88896      0.15812306   
    257000   496.13061      1310.6427      1806.7733      116.51447      293.32453      0.15977504   
    258000   474.98202      1345.5214      1820.5035      102.16073      301.13046      0.1625434    
    259000   479.93636      1319.0153      1798.9517      125.64606      295.19833      0.16706726   
    260000   467.91818      1310.9509      1778.8691      143.09572      293.3935       0.17257886   
    261000   457.93969      1303.6431      1761.5828      148.41315      291.758        0.17450792   
    262000   488.98561      1287.8372      1776.8229      96.463038      288.22062      0.16755818   
    263000   463.77538      1340.0481      1803.8235      116.25007      299.90551      0.15902196   
    264000   504.06561      1375.6679      1879.7335      140.09746      307.8773       0.15590641   
    265000   482.90441      1372.9522      1855.8566      174.25144      307.26952      0.15628667   
    266000   490.74486      1359.6132      1850.358       98.54333       304.28422      0.15818131   
    267000   502.83637      1387.3808      1890.2171      91.676771      310.49866      0.16316724   
    268000   483.42703      1361.5371      1844.9641      80.524211      304.71479      0.16516593   
    269000   466.1196       1306.7512      1772.8707      100.53138      292.45359      0.16494178   
    270000   476.0654       1307.3929      1783.4583      112.20185      292.59722      0.16651739   
    271000   448.26199      1341.9291      1790.1911      202.74735      300.32649      0.17134234   
    272000   442.69823      1346.7694      1789.4676      222.85512      301.40975      0.1772019    
    273000   463.84022      1341.887       1805.7272      199.08122      300.31707      0.17817334   
    274000   453.29004      1397.3679      1850.658       164.01365      312.73381      0.17021477   
    275000   489.63072      1336.256       1825.8867      69.111107      299.05684      0.16105019   
    276000   498.76353      1343.3972      1842.1607      84.733818      300.65505      0.15614734   
    277000   501.25803      1341.2835      1842.5416      115.85406      300.18201      0.15278405   
    278000   494.90926      1339.2568      1834.166       202.26914      299.72842      0.15271039   
    279000   510.30625      1329.4701      1839.7763      243.0747       297.53814      0.1553524    
    280000   466.39625      1358.0877      1824.484       280.39598      303.94282      0.15823244   
    281000   452.03191      1356.2024      1808.2343      212.12499      303.52088      0.16146013   
    282000   488.33         1332.5297      1820.8597      191.63876      298.22289      0.16619597   
    283000   469.66913      1330.9958      1800.6649      140.78967      297.87959      0.16753748   
    284000   471.64413      1330.5087      1802.1529      101.80233      297.77058      0.16606385   
    285000   476.11893      1360.4319      1836.5508      70.863858      304.46745      0.16290713   
    286000   505.40506      1371.8462      1877.2513      108.02768      307.022        0.15742143   
    287000   482.46695      1355.9254      1838.3924      128.90497      303.45889      0.15236866   
    288000   488.19351      1381.1129      1869.3064      120.53785      309.09589      0.14991168   
    289000   509.79749      1382.7232      1892.5207      144.24658      309.45629      0.15190828   
    290000   532.46681      1370.439       1902.9058      138.74314      306.70707      0.15563167   
    291000   480.52062      1328.2179      1808.7385      149.60452      297.25788      0.1606693    
    292000   441.21562      1368.7347      1809.9504      193.70218      306.32564      0.1643919    
    293000   477.11797      1340.2125      1817.3304      200.79795      299.9423       0.16382308   
    294000   495.94521      1317.4499      1813.3951      217.33711      294.84799      0.16115787   
    295000   469.00377      1304.1313      1773.1351      222.76895      291.86727      0.15828274   
    296000   474.42788      1320.4006      1794.8285      183.52599      295.50836      0.15722128   
    297000   476.1656       1309.3668      1785.5324      150.57499      293.03899      0.156361     
    298000   482.77366      1324.0187      1806.7924      138.73692      296.3181       0.15590629   
    299000   481.93516      1295.6639      1777.599       57.886578      289.97223      0.15534388   
    300000   476.67942      1319.4506      1796.13        31.816923      295.29575      0.15698402   
    301000   492.83567      1325.0633      1817.8989      96.814603      296.55188      0.15991619   
    302000   470.1997       1347.8778      1818.0775      139.20144      301.65782      0.15858029   
    303000   508.4732       1322.7575      1831.2307      235.03374      296.03585      0.15457671   
    304000   497.04241      1333.4976      1830.54        257.04571      298.4395       0.15214964   
    305000   456.46491      1364.1924      1820.6573      261.42324      305.30905      0.15292241   
    306000   490.52312      1313.9842      1804.5074      227.41801      294.07237      0.15708214   
    307000   497.19326      1348.3547      1845.5479      193.04389      301.76454      0.16078562   
    308000   479.40366      1371.6289      1851.0326      127.95517      306.97336      0.16075508   
    309000   481.67162      1373.4897      1855.1613      143.91676      307.38982      0.1567941    
    310000   486.22699      1369.4297      1855.6567      143.70524      306.48118      0.14968192   
    311000   511.53104      1358.3038      1869.8348      107.17566      303.99117      0.14657181   
    312000   506.72506      1427.6867      1934.4118      89.456192      319.51923      0.14868309   
    313000   516.74581      1380.5351      1897.2809      64.113377      308.96658      0.15402611   
    314000   515.81466      1369.141       1884.9556      60.975811      306.41656      0.1592637    
    315000   486.28406      1359.8652      1846.1492      123.2156       304.34062      0.16292471   
    316000   476.52354      1348.7796      1825.3032      184.04846      301.85965      0.16589893   
    317000   469.78475      1338.7032      1808.4879      196.81322      299.60452      0.1648174    
    318000   489.08088      1286.9316      1776.0125      176.67044      288.01794      0.16096509   
    319000   484.22862      1324.4464      1808.675       121.81325      296.41383      0.15838797   
    320000   504.3677       1307.086       1811.4537      89.941319      292.52853      0.15736954   
    321000   508.39991      1319.5744      1827.9743      124.89511      295.32347      0.15907351   
    322000   474.95424      1323.8708      1798.8251      130.03596      296.28501      0.16162366   
    323000   465.36142      1345.1909      1810.5523      153.66992      301.05649      0.16898827   
    324000   474.71555      1316.2437      1790.9592      160.42673      294.57804      0.17638423   
    325000   452.93326      1335.919       1788.8523      184.97706      298.98141      0.17762704   
    326000   449.35969      1332.7004      1782.0601      230.28353      298.26109      0.17138932   
    327000   465.37272      1337.9377      1803.3104      262.98283      299.4332       0.16458361   
    328000   499.89379      1296.6935      1796.5873      210.03742      290.20267      0.16160181   
    329000   472.95387      1342.6978      1815.6517      164.92013      300.49853      0.15966042   
    330000   484.95416      1352.211       1837.1652      101.39989      302.6276       0.15806953   
    331000   495.84663      1374.1586      1870.0052      64.646366      307.53951      0.15803081   
    332000   527.97167      1322.0652      1850.0368      23.245081      295.8809       0.15784824   
    333000   504.3585       1343.0274      1847.3859      91.075923      300.57228      0.15950079   
    334000   481.15854      1373.4425      1854.6011      178.29001      307.37926      0.16292196   
    335000   496.26066      1343.8725      1840.1331      250.87402      300.76142      0.16410862   
    336000   493.94748      1362.718       1856.6655      228.86564      304.97909      0.16101943   
    337000   517.82239      1395.3591      1913.1815      210.72434      312.28423      0.15709699   
    338000   515.88357      1355.606       1871.4896      177.89592      303.3874       0.15286681   
    339000   487.26373      1368.1921      1855.4559      144.23754      306.20421      0.15089953   
    340000   522.33295      1397.4949      1919.8279      124.32653      312.76223      0.15118821   
    341000   502.45155      1380.7028      1883.1543      100.64801      309.00412      0.15350631   
    342000   481.4321       1375.523       1856.9551      192.0781       307.84486      0.16142411   
    343000   451.9707       1318.1715      1770.1422      200.43166      295.0095       0.1669234    
    344000   462.07974      1342.1891      1804.2689      196.2861       300.38468      0.16820848   
    345000   464.0858       1341.9156      1806.0014      141.79237      300.32347      0.16549811   
    346000   489.6236       1349.1819      1838.8055      143.85968      301.94968      0.16308306   
    347000   503.44075      1330.7951      1834.2359      154.68975      297.83468      0.16151947   
    348000   519.66458      1347.4282      1867.0928      127.50113      301.55721      0.15843748   
    349000   511.15481      1349.8882      1861.043       125.42131      302.10774      0.15545234   
    350000   486.2986       1360.1324      1846.431       126.43217      304.40043      0.15474685   
    351000   508.03287      1361.6741      1869.707       100.5699       304.74546      0.15400077   
    352000   487.03979      1338.3274      1825.3672      137.93852      299.52042      0.15725555   
    353000   494.18511      1337.2171      1831.4022      119.20474      299.27193      0.16361491   
    354000   498.18199      1352.4522      1850.6341      123.63749      302.68157      0.16966886   
    355000   488.6889       1359.1287      1847.8176      122.51069      304.17579      0.1704926    
    356000   481.13545      1363.3828      1844.5183      105.44568      305.12787      0.16656971   
    357000   503.54953      1407.0732      1910.6228      106.7597       314.90588      0.16132034   
    358000   498.00277      1363.6698      1861.6726      165.93072      305.1921       0.15649022   
    359000   504.09382      1334.774       1838.8678      177.47163      298.72516      0.15363877   
    360000   490.28395      1306.9595      1797.2435      192.17032      292.50023      0.15435833   
    361000   473.98552      1293.0389      1767.0245      181.13853      289.38477      0.15813444   
    362000   466.88621      1310.0934      1776.9796      106.40928      293.20158      0.16157848   
    363000   474.34282      1315.3486      1789.6914      78.04919       294.37771      0.16251218   
    364000   494.21923      1313.9883      1808.2075      100.90523      294.07327      0.16132863   
    365000   450.56221      1311.086       1761.6483      150.02427      293.42375      0.16035421   
    366000   489.68409      1323.8568      1813.5409      139.9894       296.28187      0.15841958   
    367000   466.32239      1306.7461      1773.0685      150.9519       292.45247      0.1561805    
    368000   489.69436      1317.2271      1806.9214      108.52858      294.79812      0.15531728   
    369000   503.93666      1322.901       1826.8377      99.842812      296.06796      0.15291284   
    370000   500.9303       1297.7832      1798.7135      96.584717      290.44655      0.1467918    
    371000   494.72951      1336.2956      1831.0251      89.178828      299.06569      0.1429922    
    372000   521.99341      1304.1571      1826.1505      76.673243      291.87304      0.14525268   
    373000   509.94574      1306.5128      1816.4586      102.23637      292.40026      0.15136398   
    374000   505.94491      1279.8218      1785.7667      141.50375      286.42675      0.15441701   
    375000   481.20363      1337.273       1818.4766      163.86922      299.28444      0.1559737    
    376000   481.02779      1340.3311      1821.3588      157.62671      299.96884      0.15627135   
    377000   479.71078      1344.3813      1824.092       126.3481       300.87529      0.15586807   
    378000   483.43419      1341.8607      1825.2949      92.777168      300.31117      0.15651813   
    379000   478.08376      1382.5176      1860.6014      82.126895      309.41028      0.15965397   
    380000   498.43795      1382.0699      1880.5079      86.837303      309.31009      0.1641994    
    381000   492.59952      1358.9119      1851.5114      158.44589      304.12727      0.16405563   
    382000   511.69325      1337.6042      1849.2975      167.45654      299.35858      0.16066267   
    383000   498.10797      1354.1639      1852.2719      154.21474      303.06466      0.15279846   
    384000   521.19304      1358.0684      1879.2615      141.22477      303.9385       0.14852215   
    385000   496.00291      1355.9041      1851.907       71.258892      303.45413      0.14790872   
    386000   501.81846      1356.2374      1858.0558      92.8846        303.52871      0.15211539   
    387000   510.02776      1377.4429      1887.4706      94.1259        308.27454      0.15703741   
    388000   504.17773      1412.0784      1916.2561      126.03558      316.02604      0.16080836   
    389000   520.66848      1353.0503      1873.7188      178.25372      302.81543      0.16210538   
    390000   495.26561      1344.3831      1839.6487      199.7908       300.8757       0.16167901   
    391000   483.37831      1351.185       1834.5633      170.28642      302.39797      0.15898206   
    392000   471.90555      1389.3828      1861.2883      133.04937      310.94672      0.15714076   
    393000   509.44676      1421.6377      1931.0845      134.86237      318.16544      0.15594765   
    394000   497.58323      1375.4128      1872.996       127.67528      307.8202       0.15163149   
    395000   485.51666      1373.9062      1859.4228      183.0987       307.48302      0.15037815   
    396000   485.65311      1370.3051      1855.9583      225.90271      306.6771       0.15314066   
    397000   488.96139      1379.3215      1868.2828      189.16308      308.69497      0.15944116   
    398000   503.7647       1358.5022      1862.2669      152.50349      304.03559      0.16506248   
    399000   472.66791      1366.6763      1839.3442      91.008211      305.86495      0.16750095   
    400000   500.54671      1377.543       1878.0897      110.26168      308.29695      0.16961188   
    401000   492.50529      1353.6234      1846.1287      155.94885      302.9437       0.16824405   
    402000   465.92503      1362.3821      1828.3072      193.00706      304.90392      0.16558713   
    403000   485.08619      1369.9401      1855.0263      134.27031      306.5954       0.16153889   
    404000   509.83155      1327.9603      1837.7918      93.507086      297.20023      0.15699892   
    405000   484.4364       1375.4331      1859.8695      89.031134      307.82476      0.15533263   
    406000   511.44975      1357.6302      1869.08        92.71778       303.84043      0.15553754   
    407000   480.72823      1373.8337      1854.562       155.12593      307.46681      0.15761622   
    408000   510.94926      1377.7248      1888.6741      148.61102      308.33764      0.15788976   
    409000   481.95742      1361.8432      1843.8006      138.04628      304.7833       0.15653774   
    410000   502.5629       1370.493       1873.0559      95.190132      306.71915      0.15445871   
    411000   515.46548      1345.8669      1861.3324      68.047067      301.20778      0.1526291    
    412000   527.67152      1347.4593      1875.1308      136.98125      301.56416      0.15295084   
    413000   533.41406      1328.2037      1861.6178      146.01506      297.25472      0.15285196   
    414000   500.20895      1368.7872      1868.9962      221.54499      306.33738      0.15544948   
    415000   483.61346      1321.6675      1805.2809      177.81087      295.7919       0.15756637   
    416000   487.26361      1317.2607      1804.5243      135.01959      294.80565      0.15952692   
    417000   468.13672      1335.1912      1803.328       66.153165      298.81854      0.16091806   
    418000   446.28531      1354.2666      1800.5519      61.647398      303.08765      0.16071349   
    419000   498.62238      1301.1489      1799.7712      37.762978      291.19978      0.15904489   
    420000   499.94747      1282.2461      1782.1936      43.15901       286.96931      0.15559946   
    421000   476.20192      1292.9788      1769.1808      81.232291      289.37132      0.15450747   
    422000   488.7622       1311.1712      1799.9334      125.93291      293.4428       0.15615355   
    423000   478.86507      1339.4348      1818.2999      197.30418      299.76827      0.15885796   
    424000   447.43908      1336.2896      1783.7287      222.05421      299.06436      0.159299     
    425000   476.3354       1342.6553      1818.9907      248.54543      300.489        0.15674238   
    426000   486.60912      1306.19        1792.7991      207.3635       292.32801      0.15044809   
    427000   483.05448      1335.4908      1818.5452      162.83497      298.88557      0.14735217   
    428000   474.75509      1340.7336      1815.4887      137.7513       300.05894      0.14923466   
    429000   480.6649       1331.3305      1811.9954      82.105158      297.95449      0.15412009   
    430000   478.66753      1317.2348      1795.9024      101.16814      294.79986      0.16033237   
    431000   476.40479      1325.9569      1802.3616      115.58562      296.75187      0.16479262   
    432000   481.23283      1332.3328      1813.5656      71.450517      298.17881      0.16701141   
    433000   485.38592      1310.4014      1795.7874      90.061674      293.27053      0.16870408   
    434000   443.91115      1340.5202      1784.4314      141.05648      300.01118      0.16974804   
    435000   463.41618      1314.8724      1778.2885      189.18826      294.27113      0.17076382   
    436000   483.29609      1286.1328      1769.4289      194.86301      287.83916      0.17178437   
    437000   468.30479      1359.3329      1827.6377      149.92991      304.2215       0.16995722   
    438000   469.44946      1346.4893      1815.9387      97.594471      301.34706      0.16570781   
    439000   501.24704      1338.8149      1840.0619      49.641748      299.62952      0.16013671   
    440000   505.21736      1330.9468      1836.1642      75.374225      297.86863      0.15755114   
    441000   512.6359       1388.8239      1901.4598      93.83346       310.82164      0.1568337    
    442000   521.36221      1388.5964      1909.9586      142.32114      310.77072      0.15920079   
    443000   505.24522      1346.4284      1851.6736      153.92763      301.33344      0.16431667   
    444000   510.73322      1349.6512      1860.3845      123.25041      302.05472      0.16481855   
    445000   495.85817      1388.9364      1884.7946      139.23462      310.84682      0.16159501   
    446000   483.18886      1377.3207      1860.5096      131.8242       308.24721      0.1531267    
    447000   495.45891      1351.8885      1847.3474      187.75261      302.55542      0.14907288   
    448000   509.46777      1330.6582      1840.1259      212.39         297.80403      0.1510286    
    449000   495.05338      1354.6905      1849.7439      177.26942      303.18251      0.15531497   
    450000   475.18823      1334.101       1809.2892      124.45681      298.57454      0.1603999    
    451000   459.19527      1275.0521      1734.2474      79.25179       285.35928      0.16420313   
    452000   464.49501      1309.7825      1774.2775      68.506429      293.132        0.16510476   
    453000   474.05122      1316.7972      1790.8484      92.155953      294.70191      0.16418075   
    454000   465.92721      1327.2808      1793.208       50.313426      297.04817      0.16147872   
    455000   482.16476      1288.7358      1770.9006      67.085053      288.42173      0.16058061   
    456000   466.81439      1276.0676      1742.882       57.458465      285.58654      0.16179649   
    457000   466.94193      1322.4065      1789.3485      54.832947      295.95729      0.16627473   
    458000   462.57048      1333.5091      1796.0796      154.74341      298.44208      0.17154792   
    459000   473.6544       1318.3751      1792.0295      221.11183      295.05506      0.17036063   
    460000   467.81067      1331.4446      1799.2553      294.35587      297.98004      0.1649538    
    461000   499.82376      1299.4833      1799.307       261.63743      290.82703      0.15962678   
    462000   479.41787      1390.016       1869.4339      208.29703      311.08843      0.15906682   
    463000   466.72342      1334.4439      1801.1673      154.70822      298.65129      0.15993767   
    464000   485.72131      1336.1577      1821.879       112.42268      299.03484      0.16011825   
    465000   494.73123      1331.6987      1826.43        90.342605      298.03691      0.15962656   
    466000   509.83888      1296.319       1806.1579      181.19312      290.11885      0.1604472    
    467000   490.77703      1329.1306      1819.9076      180.35563      297.46215      0.15794371   
    468000   494.12676      1332.4916      1826.6183      156.08363      298.21435      0.15497024   
    469000   482.09395      1409.1341      1891.2281      162.97316      315.36711      0.15437056   
    470000   494.24378      1383.0867      1877.3305      192.66425      309.53764      0.15814604   
    471000   469.87441      1385.9237      1855.7981      169.80372      310.17258      0.16350012   
    472000   488.26453      1347.3094      1835.5739      112.07175      301.5306       0.16848199   
    473000   469.67381      1335.8028      1805.4766      92.260847      298.9554       0.17199425   
    474000   449.30854      1302.9614      1752.2699      97.507941      291.60543      0.16966484   
    475000   478.20374      1269.9265      1748.1302      115.09067      284.21215      0.163163     
    476000   486.61553      1323.9264      1810.5419      157.82865      296.29745      0.15779511   
    477000   491.28829      1324.7237      1816.012       180.732        296.47588      0.15600315   
    478000   477.46252      1271.6586      1749.1211      121.79518      284.5998       0.15515653   
    479000   493.38297      1298.5605      1791.9435      116.94073      290.62051      0.15753883   
    480000   502.55703      1314.9898      1817.5468      99.096005      294.29741      0.16081732   
    481000   466.97086      1331.4413      1798.4122      97.894689      297.97931      0.16547511   
    482000   458.03074      1310.1129      1768.1436      92.028429      293.20595      0.17108063   
    483000   467.33684      1287.2885      1754.6253      62.173027      288.09781      0.17593901   
    484000   441.696        1321.0782      1762.7742      145.96259      295.66001      0.17928314   
    485000   460.2147       1333.4683      1793.683       192.36378      298.43294      0.17719351   
    486000   479.40497      1329.4376      1808.8426      205.94486      297.53087      0.16819301   
    487000   462.77847      1323.4839      1786.2623      237.76021      296.1984       0.16165017   
    488000   457.822        1307.6154      1765.4374      228.36362      292.64701      0.15848889   
    489000   491.06271      1286.9692      1778.0319      194.60199      288.02634      0.15724098   
    490000   484.02528      1383.3161      1867.3414      194.36073      309.58898      0.15716339   
    491000   474.75112      1361.0234      1835.7745      151.61261      304.59982      0.15677165   
    492000   504.86422      1366.3042      1871.1685      127.94548      305.78169      0.15766922   
    493000   472.9006       1356.1914      1829.092       147.58859      303.51841      0.16029101   
    494000   509.29099      1326.8798      1836.1707      132.37397      296.95841      0.16525837   
    495000   476.25339      1344.539       1820.7924      136.95651      300.91059      0.16832506   
    496000   474.9118       1337.7165      1812.6283      138.86099      299.3837       0.16680912   
    497000   468.21471      1329.254       1797.4687      168.641        297.48976      0.16346503   
    498000   491.44637      1290.1705      1781.6169      174.62357      288.7428       0.15975066   
    499000   495.2244       1319.4935      1814.7179      168.66824      295.30535      0.15599281   
    500000   482.73937      1335.275       1818.0144      187.48644      298.8373       0.15444083   
    501000   483.61419      1325.4979      1809.1121      173.05987      296.64915      0.15496205   
    502000   485.97928      1328.819       1814.7983      146.2751       297.39242      0.1605639    
    503000   438.77424      1344.9412      1783.7155      136.93762      301.00061      0.16753383   
    504000   449.69289      1359.6708      1809.3637      130.07046      304.29712      0.16994635   
    505000   475.81082      1361.3254      1837.1362      104.75014      304.66742      0.16634263   
    506000   501.27843      1367.2043      1868.4827      106.09413      305.98312      0.1601056    
    507000   495.23132      1340.613       1835.8443      116.43505      300.03194      0.15777058   
    508000   506.07784      1350.3911      1856.469       135.41408      302.22031      0.15888316   
    509000   484.42865      1394.9828      1879.4115      173.82069      312.20003      0.16049909   
    510000   499.19865      1412.1376      1911.3362      183.35336      316.03928      0.16165802   
    511000   508.68944      1364.0887      1872.7782      110.55348      305.28586      0.1611221    
    512000   472.83674      1350.4183      1823.255       83.585232      302.22638      0.16010081   
    513000   499.34155      1344.3286      1843.6701      74.062777      300.8635       0.16062275   
    514000   518.14978      1343.3556      1861.5054      55.619737      300.64575      0.160444     
    515000   510.65835      1345.3042      1855.9626      57.302685      301.08185      0.15584637   
    516000   489.86456      1289.165       1779.0296      126.5599       288.51778      0.14907965   
    517000   508.46278      1308.2128      1816.6756      192.37368      292.7807       0.14873742   
    518000   474.20867      1336.0615      1810.2702      262.41053      299.01331      0.15314346   
    519000   486.9026       1336.8904      1823.793       210.8556       299.19881      0.15612406   
    520000   476.5057       1296.9313      1773.437       111.09943      290.25588      0.15807503   
    521000   478.93987      1325.4762      1804.416       32.694975      296.64429      0.16016938   
    522000   500.32613      1319.4461      1819.7722     -8.206772       295.29475      0.16044376   
    523000   477.39054      1321.7906      1799.1811      37.933207      295.81945      0.15765407   
    524000   512.91158      1319.8283      1832.7399      99.436178      295.38028      0.15535233   
    525000   480.71712      1315.6519      1796.369       143.49477      294.44559      0.15198778   
    526000   497.38359      1326.2638      1823.6474      172.98209      296.82055      0.14908416   
    527000   476.24384      1318.4597      1794.7036      143.60214      295.074        0.14918051   
    528000   463.40959      1293.8545      1757.2641      150.79564      289.5673       0.15328166   
    529000   498.00698      1312.6848      1810.6918      124.2846       293.78156      0.15681646   
    530000   487.15783      1337.9777      1825.1355      85.253637      299.44216      0.15622088   
    531000   470.56236      1316.3922      1786.9546      40.320159      294.61128      0.15096691   
    532000   498.10835      1331.437       1829.5453      27.978338      297.97832      0.14654616   
    533000   482.1894       1319.062       1801.2514      88.169317      295.20878      0.14578329   
    534000   508.817        1325.2299      1834.0469      102.29213      296.58918      0.14785825   
    535000   494.21816      1317.7448      1811.9629      154.15474      294.91398      0.15528517   
    536000   492.33721      1324.5481      1816.8853      136.02864      296.43657      0.16305331   
    537000   470.7715       1278.7179      1749.4894      126.16537      286.17969      0.16444916   
    538000   469.52299      1334.2723      1803.7953      189.02477      298.61289      0.16398316   
    539000   497.00733      1339.7578      1836.7651      155.13896      299.84054      0.16009226   
    540000   463.83305      1333.9292      1797.7622      132.73005      298.53609      0.15548476   
    541000   517.25446      1319.345       1836.5995      120.51187      295.27213      0.15289845   
    542000   502.66478      1345.7413      1848.406       127.1413       301.17966      0.15385103   
    543000   506.91195      1401.4422      1908.3542      81.466321      313.64565      0.15375195   
    544000   482.35496      1386.4048      1868.7598      121.75777      310.28025      0.15545194   
    545000   512.09424      1357.8879      1869.9822      90.72822       303.89811      0.15762763   
    546000   487.29073      1366.1152      1853.4059      116.73368      305.73938      0.16098698   
    547000   469.44447      1355.157       1824.6015      164.61283      303.28693      0.16465848   
    548000   496.55724      1350.4841      1847.0413      188.34255      302.2411       0.1647207    
    549000   506.15283      1347.4423      1853.5952      184.02016      301.56036      0.16040266   
    550000   510.8571       1321.7279      1832.585       204.70878      295.80542      0.15455607   
    551000   514.92457      1361.814       1876.7385      166.84586      304.77676      0.15180097   
    552000   489.0494       1357.4721      1846.5215      149.82787      303.80505      0.15088949   
    553000   481.39795      1313.3723      1794.7703      148.65236      293.93542      0.15329377   
    554000   474.24506      1333.845       1808.0901      144.31348      298.51725      0.15528584   
    555000   481.44301      1319.3193      1800.7623      196.20654      295.26637      0.1578382    
    556000   479.27293      1313.9672      1793.2401      228.46176      294.06855      0.15634016   
    557000   519.36815      1317.8021      1837.1702      207.33864      294.92681      0.15031505   
    558000   531.17477      1380.4504      1911.6252      185.59079      308.94764      0.147986     
    559000   511.67161      1379.73        1891.4016      165.93529      308.78641      0.14810123   
    560000   478.24152      1393.2753      1871.5169      183.94958      311.81788      0.14974032   
    561000   499.42734      1365.701       1865.1284      141.36054      305.64669      0.15454176   
    562000   480.74119      1339.9996      1820.7408      137.66048      299.89466      0.16074213   
    563000   465.67373      1374.0302      1839.7039      133.62733      307.51077      0.16494827   
    564000   465.15624      1312.5845      1777.7408      150.96887      293.75911      0.16586645   
    565000   483.7418       1345.8838      1829.6256      113.71836      301.21155      0.1648385    
    566000   477.61113      1351.045       1828.6562      156.49796      302.36665      0.16274515   
    567000   469.3507       1339.9437      1809.2944      143.39199      299.88214      0.15956626   
    568000   474.39352      1320.042       1794.4355      140.99119      295.4281       0.15662883   
    569000   490.06386      1291.9842      1782.0481      164.72099      289.14873      0.15425527   
    570000   480.11109      1337.4613      1817.5724      174.66497      299.32659      0.15120393   
    571000   500.76632      1295.4497      1796.2161      154.69975      289.92431      0.15065979   
    572000   515.11154      1294.1401      1809.2516      172.16826      289.63121      0.15498861   
    573000   494.31738      1331.3058      1825.6232      185.48212      297.94897      0.16238444   
    574000   441.01418      1366.7276      1807.7418      119.00289      305.87645      0.1650332    
    575000   477.09268      1340.4111      1817.5038      57.964318      299.98675      0.16568941   
    576000   460.75144      1334.437       1795.1885      80.951003      298.64974      0.16545514   
    577000   468.90622      1351.7736      1820.6799      80.323559      302.52972      0.16535613   
    578000   441.98829      1346.7858      1788.7741      130.32031      301.41344      0.16789059   
    579000   477.57275      1325.7605      1803.3332      110.52382      296.70792      0.17049983   
    580000   493.25461      1326.3526      1819.6072      138.51654      296.84044      0.17134569   
    581000   487.09607      1356.3818      1843.4779      165.46819      303.56103      0.16958199   
    582000   486.9638       1381.7477      1868.7115      138.22307      309.23798      0.16133411   
    583000   504.95623      1338.2853      1843.2415      97.968113      299.51099      0.1551427    
    584000   520.57017      1363.4833      1884.0535      74.879457      305.15036      0.15351174   
    585000   495.46589      1348.555       1844.0209      72.66337       301.80938      0.15504567   
    586000   492.7058       1361.8584      1854.5642      96.544279      304.7867       0.16022261   
    587000   490.65814      1369.5837      1860.2419      143.83894      306.51565      0.1637228    
    588000   477.75494      1349.294       1827.049       120.9324       301.97477      0.16464139   
    589000   487.95964      1347.0129      1834.9725      169.59634      301.46424      0.16356863   
    590000   482.39176      1384.979       1867.3708      172.99674      309.96115      0.15956146   
    591000   494.34721      1339.1074      1833.4546      160.91442      299.69499      0.15329735   
    592000   482.75917      1309.5781      1792.3372      229.63391      293.08626      0.15095021   
    593000   508.31078      1325.6955      1834.0063      226.21564      296.69338      0.15189558   
    594000   504.2537       1329.7096      1833.9633      171.33426      297.59174      0.15443721   
    595000   487.45008      1349.8407      1837.2908      92.047708      302.09712      0.15744846   
    596000   489.82141      1373.1102      1862.9316      50.998839      307.30488      0.15781276   
    597000   509.40438      1338.7393      1848.1436      31.202715      299.61259      0.15668546   
    598000   506.80374      1373.5456      1880.3493      48.346689      307.40232      0.15608199   
    599000   493.86361      1342.3192      1836.1828      142.91735      300.41379      0.1590898    
    600000   480.27996      1359.2168      1839.4967      174.55977      304.1955       0.16525859   
    601000   486.90088      1359.9591      1846.86        152.21334      304.36165      0.17132529   
    602000   482.0346       1399.2075      1881.2421      186.33747      313.14552      0.17135374   
    603000   478.34283      1360.808       1839.1508      128.7221       304.55162      0.16396993   
    604000   493.43728      1349.0614      1842.4987      104.54966      301.92271      0.16141095   
    605000   478.41884      1308.7123      1787.1312      94.578705      292.8925       0.16138251   
    606000   443.65616      1331.2477      1774.9038      119.58691      297.93596      0.16381362   
    607000   460.51435      1316.5037      1777.0181      178.70004      294.63624      0.16689869   
    608000   464.93915      1324.6691      1789.6083      113.15155      296.46367      0.16809833   
    609000   473.02122      1327.7139      1800.7351      79.968894      297.14509      0.16797358   
    610000   471.53125      1369.8991      1841.4303      47.142821      306.58623      0.1648835    
    611000   484.80938      1354.0926      1838.902       125.37128      303.04871      0.16109741   
    612000   490.51386      1333.8073      1824.3211      146.47187      298.50881      0.15618047   
    613000   487.65928      1360.516       1848.1753      222.59938      304.48628      0.15374673   
    614000   478.79767      1307.3634      1786.1611      213.08246      292.59062      0.15296666   
    615000   472.85667      1334.6915      1807.5482      226.9425       298.7067       0.15701991   
    616000   469.31298      1357.476       1826.789       193.84551      303.80591      0.16283645   
    617000   459.96172      1352.0639      1812.0256      162.69364      302.59467      0.16782998   
    618000   455.99772      1343.2989      1799.2966      149.85751      300.63306      0.16913594   
    619000   446.98977      1353.4624      1800.4521      137.56905      302.90765      0.16803873   
    620000   472.64874      1340.6186      1813.2673      90.735572      300.03319      0.16609768   
    621000   464.53861      1304.6048      1769.1435      123.83952      291.97324      0.16246013   
    622000   489.25084      1324.8853      1814.1361      115.39285      296.51205      0.15824133   
    623000   487.00843      1308.3182      1795.3267      144.28254      292.80431      0.15598653   
    624000   493.42264      1347.2003      1840.623       130.23334      301.5062       0.15704681   
    625000   506.94388      1344.8474      1851.7912      126.75912      300.9796       0.16229912   
    626000   467.69347      1372.2292      1839.9227      130.29767      307.10771      0.16825849   
    627000   481.93674      1374.6296      1856.5663      218.56702      307.64492      0.16860617   
    628000   476.02575      1395.1987      1871.2245      225.9977       312.24834      0.16453475   
    629000   471.39951      1401.2352      1872.6347      286.69399      313.59932      0.16244635   
    630000   500.29649      1344.1981      1844.4946      232.02476      300.8343       0.16077068   
    631000   477.88678      1367.6351      1845.5219      120.2284       306.07955      0.15860176   
    632000   485.59058      1382.772       1868.3626      97.146619      309.46721      0.15696859   
    633000   526.72725      1409.1888      1935.9161      111.66093      315.37935      0.15552188   
    634000   493.86477      1370.5363      1864.401       108.79282      306.72883      0.15397995   
    635000   482.4127       1357.2132      1839.6259      146.56039      303.7471       0.15401711   
    636000   485.167        1366.4502      1851.6172      177.99333      305.81436      0.15771048   
    637000   501.78246      1398.655       1900.4374      169.82808      313.02185      0.16347422   
    638000   482.63094      1354.1404      1836.7713      134.43378      303.05939      0.16545057   
    639000   477.90992      1370.8037      1848.7136      70.793466      306.78868      0.16290301   
    640000   498.14815      1389.1817      1887.3298      38.483062      310.90172      0.15952911   
    641000   504.77223      1378.9162      1883.6884      49.167273      308.60427      0.15642228   
    642000   495.99496      1348.3444      1844.3393      94.415442      301.76224      0.15553566   
    643000   473.50813      1363.1571      1836.6652      97.100463      305.07735      0.15829683   
    644000   481.97979      1347.4579      1829.4377      85.66458       301.56384      0.16575157   
    645000   488.03431      1328.5714      1816.6057      46.438357      297.33701      0.17201464   
    646000   466.97266      1337.1714      1804.144       92.927864      299.2617       0.17521328   
    647000   456.69718      1332.2214      1788.9186      134.56227      298.15389      0.17609226   
    648000   471.32009      1334.3691      1805.6892      174.65891      298.63455      0.17504683   
    649000   481.77211      1293.0281      1774.8002      225.95125      289.38234      0.17166443   
    650000   463.83152      1295.4438      1759.2753      168.27413      289.92297      0.16528317   
    651000   442.42522      1309.3895      1751.8147      133.7785       293.04405      0.1601184    
    652000   474.10689      1337.606       1811.7129      157.63195      299.35897      0.15834515   
    653000   499.97437      1337.4088      1837.3832      164.51564      299.31484      0.15949979   
    654000   488.66371      1324.4438      1813.1075      167.99536      296.41323      0.16209872   
    655000   502.89108      1343.7746      1846.6657      115.28552      300.73951      0.16488819   
    656000   437.92995      1321.0562      1758.9862      70.893866      295.6551       0.16856166   
    657000   469.05219      1319.1083      1788.1605      13.22211       295.21914      0.17170527   
    658000   473.52422      1339.7253      1813.2496     -26.98855       299.83328      0.17197569   
    659000   486.49438      1313.2416      1799.736       28.666198      293.90617      0.17171184   
    660000   500.8252       1341.3337      1842.1589      25.160974      300.19323      0.16935909   
    661000   490.03045      1329.5378      1819.5682      105.51189      297.55328      0.16643208   
    662000   482.71052      1342.7319      1825.4424      152.81052      300.50615      0.16409491   
    663000   495.67101      1354.9055      1850.5765      155.67329      303.23062      0.1620894    
    664000   484.0007       1377.3907      1861.3914      134.58955      308.26286      0.16091572   
    665000   494.01142      1371.01        1865.0214      155.03965      306.83484      0.16341021   
    666000   496.82904      1340.5895      1837.4185      142.23371      300.02667      0.16471357   
    667000   508.23845      1359.7634      1868.0018      145.92239      304.31783      0.16484887   
    668000   487.89746      1358.0678      1845.9653      133.19637      303.93836      0.16544035   
    669000   479.54429      1349.8376      1829.3818      140.59049      302.09642      0.16372119   
    670000   519.52291      1349.0261      1868.549       66.415865      301.91482      0.15706327   
    671000   510.59911      1345.4965      1856.0956     -3.2219592      301.12488      0.15315546   
    672000   519.05744      1333.2783      1852.3357      54.03381       298.39041      0.15414326   
    673000   514.92044      1334.4404      1849.3608      99.419845      298.65049      0.15667621   
    674000   487.78708      1353.6366      1841.4237      173.99161      302.94666      0.15977402   
    675000   496.9104       1353.82        1850.7304      242.04562      302.9877       0.16226025   
    676000   509.23598      1349.159       1858.395       242.93805      301.94456      0.16389384   
    677000   476.52329      1301.5792      1778.1025      181.8022       291.29611      0.16302315   
    678000   494.40619      1354.0231      1848.4293      82.322886      303.03315      0.16028084   
    679000   501.53882      1330.1556      1831.6944      37.292793      297.69156      0.15702405   
    680000   489.91171      1328.3065      1818.2182      46.726063      297.27772      0.155389     
    681000   467.56122      1319.4194      1786.9806      74.980838      295.28877      0.15310172   
    682000   486.03248      1340.3628      1826.3953      133.30809      299.97596      0.15270776   
    683000   498.02042      1361.0598      1859.0802      182.05859      304.60798      0.15738824   
    684000   516.15105      1342.2516      1858.4026      181.73073      300.39866      0.16396596   
    685000   527.44812      1325.9865      1853.4346      169.03913      296.75849      0.16737448   
    686000   477.23034      1358.6414      1835.8717      116.66442      304.06673      0.16665447   
    687000   457.79446      1376.6401      1834.4345      129.63181      308.09487      0.16431908   
    688000   478.55804      1328.1186      1806.6766      152.48895      297.23566      0.15968561   
    689000   482.96964      1328.136       1811.1056      169.40294      297.23955      0.15675172   
    690000   483.24044      1318.1128      1801.3532      173.63368      294.99634      0.15450761   
    691000   470.89285      1358.6308      1829.5237      166.10403      304.06436      0.1549664    
    692000   477.03907      1330.27        1807.309       183.66475      297.71715      0.15834932   
    693000   496.36218      1359.413       1855.7752      110.2951       304.23941      0.15864314   
    694000   485.83502      1364.9123      1850.7474      84.22214       305.47018      0.15758905   
    695000   509.94265      1375.0939      1885.0365      72.770757      307.74883      0.15764359   
    696000   510.73085      1348.9942      1859.725       120.95827      301.90767      0.15962983   
    697000   512.35158      1332.9265      1845.2781      105.10895      298.31169      0.15854372   
    698000   506.84938      1352.2343      1859.0836      135.40894      302.6328       0.15635444   
    699000   491.54401      1341.2915      1832.8355      114.5922       300.18379      0.15282027   
    700000   519.14286      1291.7399      1810.8827      88.552913      289.09404      0.1478032    
    701000   498.02969      1320.028       1818.0577      103.81342      295.42497      0.14715293   
    702000   493.10098      1331.2537      1824.3547      100.71975      297.93731      0.15015491   
    703000   480.60975      1330.0518      1810.6615      166.65335      297.66832      0.15659165   
    704000   496.21175      1346.1536      1842.3653      170.70786      301.27194      0.15959204   
    705000   518.24537      1343.5721      1861.8175      157.6779       300.6942       0.15974933   
    706000   480.08836      1376.3805      1856.4689      178.321        308.03679      0.16006768   
    707000   488.0598       1389.8605      1877.9203      164.06594      311.05363      0.1588991    
    708000   505.25155      1399.3089      1904.5605      109.69074      313.1682       0.1575388    
    709000   499.29203      1363.1489      1862.441       99.047319      305.07553      0.15772718   
    710000   490.78125      1347.8512      1838.6325      77.112906      301.65187      0.15826628   
    711000   472.71513      1345.893       1818.6082      86.255247      301.21362      0.16039745   
    712000   471.51855      1336.8166      1808.3352      116.1748       299.1823       0.16654467   
    713000   476.69192      1331.6822      1808.3741      181.66472      298.03321      0.17412639   
    714000   448.85685      1308.8269      1757.6838      209.5015       292.91815      0.17469582   
    715000   458.08438      1289.1897      1747.274       211.07877      288.52329      0.16998807   
    716000   482.60653      1318.925       1801.5316      222.6511       295.17813      0.16480082   
    717000   499.00395      1328.7885      1827.7925      158.80464      297.3856       0.16042814   
    718000   460.03068      1311.5049      1771.5355      160.73641      293.51748      0.15846733   
    719000   483.59105      1330.1257      1813.7168      90.739102      297.68487      0.15879963   
    720000   470.89291      1331.4231      1802.3161      55.829823      297.97523      0.16173368   
    721000   491.66702      1302.6254      1794.2924      27.322262      291.53024      0.16323038   
    722000   454.22597      1346.9947      1801.2207      66.933413      301.46019      0.16112642   
    723000   468.75483      1357.9119      1826.6667      103.0317       303.90347      0.15730237   
    724000   493.27556      1332.1929      1825.4684      152.76722      298.1475       0.15351278   
    725000   492.08433      1378.3142      1870.3986      135.88689      308.46956      0.15231994   
    726000   491.90565      1389.1996      1881.1053      157.35139      310.90573      0.1587179    
    727000   486.30056      1377.1222      1863.4228      108.79672      308.20278      0.16505333   
    728000   472.07426      1370.0351      1842.1093      64.078543      306.61666      0.16697794   
    729000   452.85487      1359.1424      1811.9973      94.466185      304.17886      0.16664152   
    730000   495.31489      1380.0157      1875.3306      146.02387      308.85034      0.16484906   
    731000   478.76771      1370.4644      1849.2321      128.98297      306.71274      0.16203644   
    732000   491.00873      1352.3722      1843.3809      93.3552        302.66367      0.16000466   
    733000   509.89424      1333.7201      1843.6143      46.020251      298.48929      0.16051863   
    734000   496.88442      1357.9618      1854.8462      87.678078      303.91464      0.16519411   
    735000   493.81155      1341.728       1835.5396      113.83396      300.28149      0.16903563   
    736000   507.95578      1319.8509      1827.8067      255.19609      295.38534      0.17108205   
    737000   477.03583      1337.176       1814.2119      297.21254      299.26274      0.16984693   
    738000   493.87812      1328.6446      1822.5227      289.72525      297.35339      0.16811732   
    739000   504.15017      1342.0007      1846.1509      237.39524      300.34252      0.16581884   
    740000   486.35163      1347.6396      1833.9912      131.46899      301.60451      0.1642689    
    741000   493.93991      1365.1191      1859.059       95.132317      305.51645      0.16247381   
    742000   482.68459      1336.0202      1818.7048      40.07147       299.00407      0.15984561   
    743000   470.52306      1343.7006      1814.2236      93.462863      300.72294      0.16015162   
    744000   476.00516      1335.1334      1811.1385      91.391204      298.80559      0.16029824   
    745000   480.72018      1334.595       1815.3151      118.90842      298.68509      0.16357489   
    746000   480.58725      1345.9583      1826.5455      116.62652      301.22822      0.16826696   
    747000   481.81994      1323.6258      1805.4458      105.2188       296.23018      0.17035746   
    748000   459.08313      1321.9968      1781.08        108.12881      295.86561      0.16879073   
    749000   482.48733      1285.4284      1767.9158      59.604126      287.68152      0.16200999   
    750000   489.50396      1288.3408      1777.8448      44.703559      288.33332      0.15722154   
    751000   475.21786      1339.1534      1814.3712      106.22072      299.70527      0.15775048   
    752000   467.30544      1325.4853      1792.7907      162.18933      296.64633      0.1584117    
    753000   500.76835      1304.7894      1805.5577      164.69897      292.01454      0.16025783   
    754000   463.256        1286.9779      1750.2339      182.75243      288.02831      0.16343214   
    755000   476.17654      1299.7909      1775.9674      198.1487       290.89587      0.1649061    
    756000   472.50926      1333.0822      1805.5915      108.7696       298.34653      0.16479405   
    757000   459.60652      1316.5046      1776.1111      92.96912       294.63643      0.16476705   
    758000   448.07297      1306.9548      1755.0278      124.61054      292.49918      0.16226058   
    759000   483.15725      1325.284       1808.4413      123.79992      296.60129      0.15904321   
    760000   480.72419      1323.5764      1804.3006      140.06899      296.21911      0.15989508   
    761000   462.79741      1289.5372      1752.3346      115.7655       288.60107      0.16270401   
    762000   446.08755      1297.2482      1743.3357      94.704746      290.3268       0.16867112   
    763000   444.36973      1328.5266      1772.8963      81.093161      297.32697      0.17543956   
    764000   474.79396      1330.9583      1805.7523      103.08658      297.87121      0.17848079   
    765000   459.83137      1334.4508      1794.2822      121.21431      298.65284      0.17359607   
    766000   471.95407      1293.9111      1765.8652      162.59666      289.57997      0.16516596   
    767000   489.40566      1308.4891      1797.8947      149.82949      292.84254      0.16011092   
    768000   481.23087      1340.9783      1822.2091      148.33275      300.11369      0.157903     
    769000   498.12041      1333.7262      1831.8466      137.11388      298.49066      0.15928947   
    770000   483.77636      1302.9723      1786.7487      147.33068      291.60788      0.16392766   
    771000   441.88551      1361.9157      1803.8012      125.87371      304.79953      0.16747503   
    772000   476.75072      1364.4393      1841.19        105.13149      305.36431      0.1682454    
    773000   456.40396      1380.0188      1836.4227      122.83488      308.85104      0.16822493   
    774000   480.52653      1382.8001      1863.3266      138.06629      309.4735       0.16747983   
    775000   468.30402      1353.0098      1821.3138      188.41676      302.80637      0.16663746   
    776000   473.47678      1316.6113      1790.088       200.9477       294.6603       0.16369518   
    777000   488.45339      1324.86        1813.3134      159.00838      296.5064       0.15742646   
    778000   500.01835      1294.3162      1794.3346      102.88315      289.67063      0.15301967   
    779000   461.80502      1271.6823      1733.4873      107.77924      284.60511      0.15335697   
    780000   479.47886      1347.8286      1827.3074      118.16693      301.6468       0.15946731   
    781000   473.41158      1351.7551      1825.1667      144.1301       302.52556      0.16523709   
    782000   470.34123      1332.6803      1803.0215      157.89104      298.25659      0.16655133   
    783000   487.38826      1365.1086      1852.4969      147.1076       305.51411      0.16565999   
    784000   506.74246      1376.1903      1882.9327      129.82405      307.99421      0.16392831   
    785000   512.56976      1337.5733      1850.143       81.82848       299.35165      0.16102594   
    786000   487.70102      1349.8268      1837.5278      63.713066      302.094        0.15794562   
    787000   471.85988      1315.8707      1787.7306      3.3557176      294.49456      0.15680538   
    788000   479.1856       1315.5767      1794.7623      24.860202      294.42876      0.15862953   
    789000   490.69384      1326.7912      1817.4851      66.642943      296.9386       0.16584095   
    790000   476.31009      1346.5097      1822.8198      125.90285      301.35164      0.17081291   
    791000   484.71767      1365.6521      1850.3698      248.34935      305.63575      0.17125281   
    792000   490.68403      1349.7917      1840.4757      296.06678      302.08614      0.16889478   
    793000   464.46499      1359.7915      1824.2565      276.03339      304.32413      0.16657176   
    794000   502.70854      1349.8435      1852.552       204.31103      302.09775      0.16502093   
    795000   478.69994      1364.6886      1843.3886      194.48462      305.42012      0.1648782    
    796000   477.17774      1338.8479      1816.0257      133.54229      299.63692      0.16213357   
    797000   490.28991      1294.5767      1784.8666      80.821464      289.72891      0.15814173   
    798000   484.83001      1325.5721      1810.4021      73.718079      296.66575      0.15655595   
    799000   479.73219      1321.8289      1801.5611      105.4848       295.82803      0.16133354   
    800000   465.54253      1334.5668      1800.1093      153.53196      298.67878      0.17018899   
    801000   454.70331      1287.6815      1742.3848      159.93381      288.18576      0.17278471   
    802000   452.64902      1308.6983      1761.3473      171.29896      292.88937      0.17199704   
    803000   488.90317      1350.9407      1839.8439      138.71187      302.34331      0.16826742   
    804000   497.08011      1357.4968      1854.5769      114.0386       303.81056      0.1639564    
    805000   505.23538      1356.1737      1861.4091      154.30686      303.51445      0.16010724   
    806000   498.85951      1343.3563      1842.2158      156.72551      300.6459       0.15672175   
    807000   513.1097       1355.8536      1868.9633      138.64878      303.44282      0.15439404   
    808000   497.28445      1340.4021      1837.6865      82.509823      299.98473      0.15396656   
    809000   514.05112      1321.4281      1835.4792      119.27973      295.73832      0.15739308   
    810000   500.12907      1346.0689      1846.198       115.69875      301.25299      0.16115735   
    811000   496.5877       1349.2625      1845.8502      133.65956      301.96772      0.16297581   
    812000   518.8203       1356.1364      1874.9567      187.56513      303.50611      0.1632364    
    813000   474.45077      1357.6714      1832.1222      236.40067      303.84965      0.16238592   
    814000   474.63554      1384.9006      1859.5362      211.16615      309.9436       0.16132269   
    815000   498.7875       1345.524       1844.3115      167.73942      301.13104      0.16095814   
    816000   477.71209      1376.2935      1854.0056      76.883374      308.01732      0.15791391   
    817000   460.1669       1357.9232      1818.0901      59.912115      303.906        0.15596872   
    818000   498.93605      1312.5415      1811.4776      61.187086      293.74948      0.15933878   
    819000   453.99939      1329.0537      1783.0531      102.35749      297.44495      0.1675103    
    820000   485.14349      1319.0209      1804.1644      133.7992       295.19959      0.172522     
    821000   468.78517      1365.8788      1834.664       213.40924      305.68648      0.1731       
    822000   471.7751       1366.9136      1838.6887      146.54722      305.91807      0.16815907   
    823000   515.42886      1375.9584      1891.3872      171.38919      307.94231      0.16346047   
    824000   495.01409      1346.0648      1841.0789      118.71773      301.25208      0.1608278    
    825000   514.3721       1320.5049      1834.877       76.411088      295.5317       0.16216364   
    826000   481.39993      1323.4702      1804.8701      75.228459      296.19534      0.16374038   
    827000   458.57857      1307.1672      1765.7458      142.13261      292.5467       0.16441506   
    828000   476.69913      1268.4364      1745.1356      141.14739      283.87868      0.1633477    
    829000   461.71655      1328.9687      1790.6853      165.8149       297.42593      0.16153084   
    830000   501.02714      1332.1196      1833.1468      186.07451      298.13111      0.16014367   
    831000   496.87851      1326.0155      1822.894       214.62212      296.76499      0.15794779   
    832000   495.39137      1347.5313      1842.9227      240.3528       301.58028      0.15788626   
    833000   491.01323      1334.1913      1825.2045      185.53968      298.59474      0.15907977   
    834000   484.53521      1356.1146      1840.6498      87.240713      303.50122      0.16168412   
    835000   510.2958       1368.9229      1879.2187      47.857446      306.36776      0.16584155   
    836000   471.48573      1360.0154      1831.5011      105.83082      304.37423      0.1696542    
    837000   487.11511      1364.5504      1851.6655      148.79235      305.38918      0.16938916   
    838000   481.25625      1335.7905      1817.0468      235.63942      298.95266      0.1676156    
    839000   489.75068      1326.6407      1816.3914      245.01745      296.90491      0.16200338   
    840000   475.50329      1283.5956      1759.0989      240.34505      287.27133      0.1583524    
    841000   483.68038      1302.8169      1786.4973      187.73828      291.5731       0.15851125   
    842000   488.84096      1330.1166      1818.9575      122.204        297.68282      0.16113417   
    843000   473.34711      1336.1094      1809.4565      47.519387      299.02403      0.16588499   
    844000   453.6184       1364.1653      1817.7837      59.543214      305.30299      0.17416298   
    845000   459.4161       1453.8881      1913.3042      159.38636      325.38313      0.17716158   
    846000   467.54565      1370.9892      1838.5349      224.62338      306.8302       0.16936719   
    847000   496.81963      1323.5497      1820.3694      265.59786      296.21315      0.16424414   
    848000   461.38507      1301.0586      1762.4437      234.98681      291.17959      0.16052522   
    849000   465.39852      1301.8017      1767.2002      173.09285      291.34589      0.15734732   
    850000   494.80471      1311.8329      1806.6376      93.036806      293.59089      0.15524641   
    851000   484.4597       1343.1202      1827.5799      30.883372      300.59306      0.15666435   
    852000   473.97646      1374.9608      1848.9373      47.59499       307.71905      0.16190915   
    853000   487.7169       1345.8171      1833.534       66.276311      301.19663      0.16533974   
    854000   470.65486      1343.1734      1813.8283      170.39886      300.60497      0.16902816   
    855000   448.99512      1370.1468      1819.1419      273.5612       306.64167      0.1703085    
    856000   496.94002      1339.1572      1836.0972      276.81205      299.70612      0.16882101   
    857000   478.61198      1346.2632      1824.8752      243.09406      301.29647      0.1669356    
    858000   477.8805       1317.1709      1795.0514      240.86305      294.78556      0.16663698   
    859000   483.11226      1318.5842      1801.6965      149.42554      295.10185      0.16433214   
    860000   467.45497      1360.9619      1828.4169      78.07531       304.58607      0.16249835   
    861000   514.87288      1331.3486      1846.2214      17.397344      297.95854      0.16260525   
    862000   493.13667      1337.3228      1830.4595      38.096717      299.2956       0.16320353   
    863000   502.54318      1365.671       1868.2142      139.05968      305.63997      0.16569901   
    864000   487.37391      1338.3142      1825.6881      171.27212      299.51747      0.16765606   
    865000   468.24322      1378.9539      1847.1971      171.32191      308.6127       0.17054222   
    866000   464.93526      1414.8235      1879.7587      207.67956      316.64039      0.1721672    
    867000   481.56656      1356.1122      1837.6787      189.36709      303.50069      0.16658173   
    868000   510.81492      1336.1398      1846.9548      183.40714      299.03084      0.15984582   
    869000   495.21057      1362.5929      1857.8034      148.14029      304.95108      0.15504418   
    870000   521.24981      1345.636       1866.8858      72.129853      301.1561       0.15313892   
    871000   480.36764      1352.2633      1832.6309      73.83079       302.6393       0.15585824   
    872000   467.89907      1394.8113      1862.7104      65.706199      312.16164      0.16198881   
    873000   489.75771      1343.8331      1833.5908      67.540868      300.75261      0.16678408   
    874000   473.3364       1353.1716      1826.508       91.980005      302.84258      0.16902487   
    875000   497.34609      1340.2014      1837.5475      118.92093      299.93983      0.1683473    
    876000   466.13924      1348.6278      1814.767       176.17003      301.82567      0.16592242   
    877000   503.40807      1387.6364      1891.0445      156.3566       310.55587      0.16309429   
    878000   484.63079      1393.1476      1877.7784      160.01411      311.78929      0.16243309   
    879000   467.11026      1358.5855      1825.6958      137.86788      304.05423      0.16319492   
    880000   511.96276      1318.9354      1830.8981      116.95801      295.18044      0.16592269   
    881000   484.51349      1339.0872      1823.6007      119.08031      299.69046      0.17079223   
    882000   474.74898      1325.5182      1800.2672      148.46459      296.6537       0.17512216   
    883000   453.53796      1354.1032      1807.6411      164.01511      303.05107      0.17729852   
    884000   472.63823      1337.3117      1809.9499      182.73323      299.29309      0.17141321   
    885000   477.63573      1311.4144      1789.0501      152.14867      293.49723      0.16230845   
    886000   512.29734      1308.3443      1820.6417      136.12265      292.81015      0.1599278    
    887000   486.46969      1327.4778      1813.9475      157.52036      297.09226      0.15937617   
    888000   473.82269      1312.2664      1786.0891      160.50031      293.68791      0.15814965   
    889000   476.53473      1365.6615      1842.1962      128.69024      305.63784      0.15803038   
    890000   487.3874       1357.4209      1844.8083      135.33259      303.79359      0.1616655    
    891000   505.26607      1334.5562      1839.8222      128.56404      298.67641      0.16640141   
    892000   476.73256      1370.5626      1847.2951      119.5626       306.73472      0.17095179   
    893000   487.11127      1349.8043      1836.9155      176.75295      302.08896      0.17892661   
    894000   476.41839      1341.259       1817.6774      181.42904      300.17651      0.18191814   
    895000   475.89861      1367.4208      1843.3194      251.21457      306.03158      0.18093902   
    896000   470.37438      1394.8266      1865.201       256.0152       312.16505      0.17640433   
    897000   487.64057      1365.0021      1852.6426      234.56552      305.49026      0.17052487   
    898000   529.32306      1360.6861      1890.0091      125.05231      304.52434      0.16598963   
    899000   481.26469      1350.1755      1831.4402      99.789019      302.17204      0.16356427   
    900000   463.75708      1357.7118      1821.4689      74.213673      303.85868      0.16123577   
    901000   496.27222      1328.8883      1825.1605      67.204583      297.40793      0.15905919   
    902000   501.52489      1299.7461      1801.271       84.495596      290.88585      0.15789965   
    903000   486.22813      1302.1981      1788.4262      118.47409      291.4346       0.16054226   
    904000   467.36035      1302.7392      1770.0996      156.65467      291.55572      0.16720376   
    905000   467.4237       1290.3078      1757.7315      204.20845      288.77354      0.17367207   
    906000   462.70557      1327.3517      1790.0572      191.1568       297.06403      0.17335758   
    907000   484.10811      1285.5173      1769.6254      168.77821      287.70142      0.16925424   
    908000   446.26943      1289.5405      1735.8099      173.40119      288.60181      0.16593656   
    909000   478.29158      1337.9174      1816.209       94.704446      299.42867      0.16361365   
    910000   474.58229      1348.7209      1823.3032      119.02972      301.84651      0.16296931   
    911000   462.52764      1393.3034      1855.8311      166.69949      311.82417      0.16305137   
    912000   487.12323      1344.0796      1831.2029      148.9379       300.80778      0.16061068   
    913000   508.29458      1324.3706      1832.6652      138.03015      296.39687      0.16032091   
    914000   491.03016      1348.5175      1839.5476      66.561075      301.80098      0.16199583   
    915000   505.77846      1349.1404      1854.9188      36.686571      301.94038      0.16728044   
    916000   481.58035      1337.4863      1819.0667     -35.406924      299.33218      0.17183949   
    917000   501.03192      1326.3288      1827.3607     -46.193234      296.83511      0.17270043   
    918000   504.89725      1344.9264      1849.8237     -11.819077      300.99729      0.16849448   
    919000   511.49917      1328.7434      1840.2425      67.713606      297.37549      0.16195391   
    920000   495.92517      1383.1492      1879.0743      166.76281      309.55162      0.15823749   
    921000   490.58053      1361.7919      1852.3724      186.90353      304.77182      0.15813595   
    922000   495.92992      1367.3604      1863.2904      200.07153      306.01807      0.16035756   
    923000   493.39533      1366.9957      1860.391       129.3795       305.93643      0.16183031   
    924000   455.24018      1371.2133      1826.4535      149.831        306.88036      0.16428854   
    925000   475.83129      1365.1368      1840.9681      174.60278      305.52041      0.16558096   
    926000   494.34692      1286.7683      1781.1153      172.84799      287.9814       0.16680206   
    927000   453.57677      1329.6107      1783.1874      146.16977      297.5696       0.16980442   
    928000   461.35062      1325.2085      1786.5592      115.06112      296.58439      0.17640399   
    929000   465.21968      1332.0461      1797.2658      93.327187      298.11466      0.18047548   
    930000   456.6473       1324.1786      1780.8259      24.282401      296.35388      0.17718235   
    931000   484.52793      1327.7813      1812.3092     -17.193262      297.16018      0.16846575   
    932000   480.18248      1328.6367      1808.8192      30.757046      297.35162      0.16471327   
    933000   472.26448      1343.6134      1815.8779      122.70601      300.70345      0.16471745   
    934000   519.71408      1351.3105      1871.0245      183.85004      302.42605      0.16720103   
    935000   491.65216      1373.7651      1865.4173      214.56557      307.45145      0.17231508   
    936000   478.33891      1372.3158      1850.6548      225.46677      307.1271       0.17802422   
    937000   465.56762      1355.0491      1820.6167      130.56912      303.26276      0.17885282   
    938000   447.80239      1363.2905      1811.0929      76.952272      305.1072       0.1789649    
    939000   472.81226      1358.2164      1831.0286      81.980543      303.97161      0.17614226   
    940000   482.68995      1342.4468      1825.1367      24.550166      300.44234      0.17106775   
    941000   465.75018      1350.968       1816.7182      128.19799      302.34942      0.16964453   
    942000   488.61993      1317.9026      1806.5225      198.35264      294.9493       0.16871231   
    943000   470.92482      1396.7384      1867.6632      195.57402      312.59292      0.16828379   
    944000   458.39862      1366.4273      1824.8259      192.70191      305.80923      0.16958693   
    945000   480.90133      1356.7069      1837.6082      129.20157      303.63378      0.17150072   
    946000   507.38448      1335.0604      1842.4449      121.57088      298.78926      0.17351507   
    947000   452.0401       1378.0927      1830.1328      148.50887      308.41998      0.1753581    
    948000   474.76211      1392.4128      1867.1749      175.23193      311.62485      0.17578412   
    949000   475.69904      1347.9386      1823.6376      146.04361      301.67142      0.17358248   
    950000   485.52363      1341.0932      1826.6168      112.05682      300.13941      0.16700846   
    951000   490.19714      1327.8985      1818.0956      119.09467      297.1864       0.16201251   
    952000   502.74431      1310.5387      1813.283       126.20206      293.30126      0.15816125   
    953000   502.14821      1320.2492      1822.3974      152.79804      295.47448      0.15852482   
    954000   489.73391      1310.6637      1800.3976      154.82507      293.32923      0.16029303   
    955000   477.69939      1347.0113      1824.7107      206.75706      301.46389      0.16205238   
    956000   492.4356       1341.5606      1833.9962      256.50229      300.24401      0.16358315   
    957000   490.54063      1334.9038      1825.4445      236.7485       298.75422      0.16315265   
    958000   469.93783      1353.1142      1823.052       172.59071      302.82973      0.15911113   
    959000   492.68494      1320.0746      1812.7596      73.591943      295.43542      0.15543221   
    960000   515.56364      1313.4832      1829.0468      42.730077      293.96023      0.15377584   
    961000   469.35719      1304.1093      1773.4665      92.493926      291.86235      0.15648384   
    962000   503.2135       1313.1626      1816.3761      175.42942      293.88849      0.16333949   
    963000   479.92416      1329.1663      1809.0905      260.12309      297.47015      0.16771532   
    964000   477.19628      1350.9566      1828.1529      230.70106      302.34685      0.16669827   
    965000   490.71688      1336.6287      1827.3455      198.72021      299.14024      0.16534961   
    966000   509.48999      1343.6201      1853.1101      121.56853      300.70493      0.16398491   
    967000   494.19381      1391.551       1885.7449      92.464009      311.43198      0.16315796   
    968000   492.66432      1351.1594      1843.8237      82.816622      302.39224      0.16476706   
    969000   471.54733      1353.9815      1825.5289      88.036452      303.02385      0.16563228   
    970000   488.56451      1353.5643      1842.1288      97.298942      302.93046      0.16550819   
    971000   490.86083      1296.1739      1787.0347      90.23386       290.08638      0.16524955   
    972000   467.14725      1304.4606      1771.6079      80.276162      291.94096      0.16441822   
    973000   460.78003      1351.1672      1811.9472      100.25643      302.39399      0.16206476   
    974000   488.72678      1324.3376      1813.0644      163.5445       296.38947      0.15967706   
    975000   498.92902      1328.5348      1827.4638      211.35481      297.32881      0.15732971   
    976000   511.65434      1335.4386      1847.093       215.0465       298.87391      0.15370207   
    977000   511.50601      1378.5377      1890.0437      190.76701      308.51956      0.15154328   
    978000   524.50466      1351.8702      1876.3748      161.38637      302.55132      0.15479922   
    979000   517.07035      1315.8297      1832.9         91.23452       294.48538      0.16321804   
    980000   487.43959      1320.337       1807.7766      5.1499654      295.49413      0.16773907   
    981000   486.09948      1326.1878      1812.2873     -29.403494      296.80355      0.16854941   
    982000   448.40322      1327.7866      1776.1899      40.763317      297.16137      0.16689001   
    983000   503.52134      1333.3768      1836.8981      101.36457      298.41245      0.16318819   
    984000   490.59638      1307.8619      1798.4582      171.33532      292.70217      0.15727453   
    985000   496.56088      1333.4022      1829.9631      198.87771      298.41815      0.15414017   
    986000   469.30124      1325.6853      1794.9865      177.64687      296.69109      0.15296189   
    987000   520.06145      1320.7931      1840.8546      155.70518      295.59621      0.15247681   
    988000   476.8626       1345.7048      1822.5674      141.05859      301.17149      0.1536135    
    989000   490.34038      1349.6498      1839.9902      151.8343       302.05439      0.16149315   
    990000   482.36516      1356.5408      1838.906       163.52738      303.59662      0.16858265   
    991000   482.21762      1356.194       1838.4116      166.4276       303.51899      0.16992055   
    992000   459.02053      1402.3454      1861.3659      199.35559      313.84777      0.16821852   
    993000   469.24511      1359.0053      1828.2504      188.70391      304.14817      0.1646708    
    994000   506.98171      1343.0505      1850.0322      240.23252      300.57746      0.16255437   
    995000   498.24312      1382.9806      1881.2237      153.55477      309.5139       0.15826639   
    996000   485.48424      1355.7103      1841.1945      97.673393      303.41074      0.15461633   
    997000   513.27531      1343.5812      1856.8565     -10.857645      300.69622      0.15401488   
    998000   515.15932      1301.5931      1816.7524     -15.28623       291.2992       0.15833501   
    999000   486.5905       1315.4711      1802.0616      49.241987      294.40513      0.16070632   
   1000000   476.88318      1360.4531      1837.3363      153.15442      304.4722       0.16134428   
   1001000   499.22275      1344.7585      1843.9812      167.37156      300.9597       0.15960131   
   1002000   485.36636      1342.1577      1827.524       206.57995      300.37764      0.1582672    
   1003000   475.64162      1353.4225      1829.0642      182.08191      302.89874      0.15830238   
   1004000   496.93959      1330.5278      1827.4674      190.29999      297.77484      0.16002335   
   1005000   484.02487      1343.9168      1827.9417      218.70221      300.77134      0.16036011   
   1006000   474.2813       1309.5721      1783.8534      185.38925      293.08492      0.15727426   
   1007000   496.68786      1320.5208      1817.2086      157.41262      295.53526      0.15150884   
   1008000   509.40594      1323.6597      1833.0656      121.95785      296.23775      0.14656978   
   1009000   510.11686      1327.8901      1838.0069      100.92063      297.18452      0.14725276   
   1010000   503.75314      1338.9905      1842.7437      125.39998      299.66883      0.15226087   
   1011000   484.09347      1366.5545      1850.648       201.0743       305.83771      0.15670125   
   1012000   517.02808      1379.53        1896.558       166.56481      308.74164      0.15864988   
   1013000   515.66924      1350.7166      1866.3858      170.41459      302.29314      0.16014728   
   1014000   527.51286      1349.8717      1877.3845      128.33112      302.10405      0.16053896   
   1015000   475.19765      1379.4109      1854.6086      99.681367      308.71499      0.16112264   
   1016000   495.5936       1382.7657      1878.3593      52.100533      309.4658       0.16016517   
   1017000   531.89236      1403.8276      1935.7199      42.075         314.17949      0.15971012   
   1018000   497.04926      1367.6772      1864.7265      72.299705      306.08896      0.16096455   
   1019000   489.0086       1360.367       1849.3756      150.85658      304.45293      0.16446718   
   1020000   492.511        1387.4602      1879.9712      190.15672      310.51643      0.16957935   
   1021000   466.3976       1356.4798      1822.8774      257.25639      303.58297      0.1739023    
   1022000   468.73398      1326.2947      1795.0286      242.49749      296.82747      0.17611718   
   1023000   476.81576      1309.4488      1786.2646      177.17908      293.05734      0.1758967    
   1024000   458.79928      1340.941       1799.7403      140.79049      300.10536      0.17159427   
   1025000   468.42119      1318.2112      1786.6324      102.79189      295.01838      0.1645637    
   1026000   452.18345      1305.6907      1757.8742      58.290645      292.21626      0.15978013   
   1027000   489.48802      1299.1484      1788.6364      99.602678      290.75208      0.16044429   
   1028000   485.9696       1335.4067      1821.3763      145.00429      298.86676      0.16375951   
   1029000   471.59714      1341.1874      1812.7845      173.03638      300.16049      0.16719565   
   1030000   504.44689      1318.7244      1823.1713      147.61146      295.13322      0.16989509   
   1031000   458.45448      1347.1478      1805.6023      151.95146      301.49445      0.1713242    
   1032000   484.52834      1353.5503      1838.0786      153.53641      302.92733      0.16978635   
   1033000   489.64115      1382.9145      1872.5556      114.46185      309.4991       0.16771489   
   1034000   483.18066      1348.8594      1832.0401      118.42813      301.87751      0.16546407   
   1035000   488.35231      1373.8991      1862.2514      150.45736      307.48143      0.16255787   
   1036000   502.93111      1382.4566      1885.3877      141.36649      309.39663      0.15929599   
   1037000   509.71317      1349.6583      1859.3714      190.31718      302.05629      0.1580919    
   1038000   469.69974      1326.5765      1796.2763      211.03046      296.89055      0.15995753   
   1039000   477.05478      1339.3338      1816.3886      189.70437      299.74566      0.16674959   
   1040000   484.24723      1321.9421      1806.1894      119.21171      295.85336      0.17316625   
   1041000   481.24431      1320.585       1801.8293      29.272464      295.54964      0.1737051    
   1042000   454.44819      1324.6546      1779.1028     -10.744252      296.46043      0.1701614    
   1043000   457.79033      1340.3671      1798.1574      32.22066       299.9769       0.16537135   
   1044000   501.96971      1313.085       1815.0547      149.14321      293.87113      0.16286147   
   1045000   472.20236      1325.1702      1797.3725      195.59647      296.57581      0.15802443   
   1046000   489.67523      1352.2583      1841.9336      244.56619      302.63819      0.15419974   
   1047000   503.39679      1331.6134      1835.0102      262.66573      298.01782      0.15361425   
   1048000   526.2777       1321.8631      1848.1408      205.1118       295.83567      0.15397627   
   1049000   508.08317      1332.841       1840.9242      139.79277      298.29255      0.15487252   
   1050000   471.00695      1336.8322      1807.8391      82.922967      299.18579      0.15822917   
   1051000   481.18908      1329.2752      1810.4643      54.566568      297.49452      0.16513734   
   1052000   471.95124      1325.7729      1797.7241      69.511929      296.71069      0.16989749   
   1053000   495.84518      1309.03        1804.8752      152.23954      292.96359      0.16789034   
   1054000   472.63289      1277.1979      1749.8308      108.45547      285.83952      0.16083835   
   1055000   485.6831       1332.7934      1818.4765      105.27491      298.2819       0.15861255   
   1056000   491.47126      1328.8311      1820.3024      79.921693      297.39513      0.15769084   
   1057000   483.9308       1325.0256      1808.9564      58.600833      296.54345      0.1575154    
   1058000   479.90522      1314.6396      1794.5448      59.208585      294.21905      0.15771993   
   1059000   488.28717      1315.4086      1803.6958      81.898871      294.39115      0.15954066   
   1060000   469.99564      1291.9287      1761.9243      121.33169      289.13628      0.16092012   
   1061000   475.29498      1309.4159      1784.7109      117.03532      293.04996      0.16466551   
   1062000   463.19483      1334.4449      1797.6397      106.96136      298.65151      0.16980562   
   1063000   481.11166      1299.2598      1780.3715      92.698748      290.77701      0.17136229   
   1064000   466.72071      1334.9541      1801.6748      63.972441      298.76547      0.16772736   
   1065000   469.93119      1320.2499      1790.1811      51.794613      295.47463      0.16185401   
   1066000   486.67219      1336.6191      1823.2913      91.29958       299.1381       0.16040279   
   1067000   483.98704      1300.6362      1784.6232      175.81274      291.08504      0.1626288    
   1068000   507.94763      1317.0278      1824.9755      178.29957      294.75353      0.16464361   
   1069000   476.9759       1324.813       1801.7889      259.54552      296.49588      0.1700921    
   1070000   454.33517      1359.543       1813.8781      233.10161      304.26851      0.17365043   
   1071000   466.5532       1337.8993      1804.4525      188.00587      299.4246       0.17538833   
   1072000   485.18684      1350.4159      1835.6027      129.12381      302.22584      0.17351468   
   1073000   471.22228      1377.3797      1848.602       53.452758      308.2604       0.16550561   
   1074000   519.0015       1337.7422      1856.7437      39.100721      299.38945      0.15931621   
   1075000   522.6113       1305.0366      1827.6479      22.082919      292.06988      0.15560248   
   1076000   493.35738      1336.4581      1829.8155      66.519569      299.10208      0.15561937   
   1077000   500.7221       1331.2245      1831.9466      82.595212      297.93078      0.1578752    
   1078000   508.87483      1323.8047      1832.6795      124.16449      296.27021      0.15766749   
   1079000   502.26241      1314.9463      1817.2088      141.58319      294.28769      0.15231181   
   1080000   507.69779      1286.6318      1794.3296      183.70074      287.95084      0.15060676   
   1081000   516.11337      1290.5508      1806.6642      190.07717      288.82792      0.15107014   
   1082000   501.69056      1312.2188      1813.9094      189.90857      293.67727      0.15431938   
   1083000   490.79794      1330.1741      1820.9721      166.95175      297.6957       0.15798162   
   1084000   494.34727      1318.3914      1812.7387      119.68954      295.05871      0.16118981   
   1085000   509.06067      1285.3406      1794.4013      124.82153      287.66187      0.16374082   
   1086000   486.41735      1325.9074      1812.3248      146.20159      296.7408       0.16277894   
   1087000   465.71702      1322.3435      1788.0605      167.00871      295.94319      0.16048755   
   1088000   500.34757      1327.9876      1828.3351      145.7748       297.20634      0.15611441   
   1089000   511.21014      1333.4399      1844.6501      140.37692      298.42659      0.15335325   
   1090000   504.95166      1328.4222      1833.3739      141.56128      297.30362      0.15322489   
   1091000   505.67408      1314.0959      1819.7699      111.72234      294.09735      0.1564497    
   1092000   498.69865      1326.0705      1824.7692      150.40554      296.7773       0.16480582   
   1093000   487.81276      1368.3672      1856.1799      199.15734      306.24338      0.17006583   
   1094000   498.39466      1348.3022      1846.6969      211.02384      301.7528       0.16904221   
   1095000   491.05308      1344.0192      1835.0723      242.5939       300.79426      0.16524046   
   1096000   496.95549      1364.4233      1861.3788      220.24504      305.36074      0.16022405   
   1097000   490.75455      1362.2832      1853.0377      173.54254      304.88177      0.15644601   
   1098000   529.74396      1364.517       1894.261       141.97999      305.38171      0.15465514   
   1099000   523.21341      1348.1847      1871.3982      52.00483       301.72651      0.15423123   
   1100000   514.8198       1350.368       1865.1878      25.525113      302.21513      0.15629789   
   1101000   506.37775      1380.3182      1886.6959      32.467242      308.91804      0.15847375   
   1102000   499.68353      1344.7218      1844.4054      23.552513      300.95151      0.16078715   
   1103000   468.91191      1345.1416      1814.0535      42.899195      301.04544      0.16555669   
   1104000   461.28345      1355.6748      1816.9583      123.15871      303.40281      0.17314858   
   1105000   489.8093       1304.517       1794.3263      148.80407      291.95358      0.17483408   
   1106000   493.60435      1311.7851      1805.3894      176.35759      293.58019      0.16969435   
   1107000   472.71872      1350.5912      1823.3099      229.72265      302.26508      0.16216313   
   1108000   490.52406      1326.9338      1817.4579      222.80928      296.97051      0.15834351   
   1109000   515.67137      1334.4195      1850.0909      173.55338      298.64583      0.15689608   
   1110000   523.30486      1343.2171      1866.5219      170.62631      300.61473      0.15709399   
   1111000   482.09167      1366.062       1848.1537      136.84525      305.72748      0.1577717    
   1112000   469.27322      1375.2064      1844.4796      132.39639      307.77401      0.16237667   
   1113000   516.58469      1395.4245      1912.0092      127.38591      312.29886      0.16839522   
   1114000   527.37008      1361.911       1889.2811      188.56278      304.79848      0.1693965    
   1115000   509.86713      1334.124       1843.9912      225.0042       298.5797       0.16781842   
   1116000   498.2207       1345.0716      1843.2923      228.72569      301.02979      0.16720319   
   1117000   485.89185      1352.857       1838.7488      200.09984      302.77217      0.1673103    
   1118000   490.89613      1330.645       1821.5411      119.36509      297.80109      0.16564744   
   1119000   473.40157      1334.9849      1808.3865      36.895836      298.77237      0.16244399   
   1120000   483.96602      1352.9884      1836.9545      26.392442      302.80159      0.15968424   
   1121000   490.8824       1385.9538      1876.8362      41.852556      310.1793       0.1569742    
   1122000   490.42359      1356.0024      1846.426       71.050458      303.47612      0.15542279   
   1123000   506.89578      1359.9828      1866.8786      125.19883      304.36695      0.15782636   
   1124000   505.30262      1367.9474      1873.25        198.31342      306.14943      0.16711584   
   1125000   496.97518      1401.8522      1898.8274      214.33418      313.7374       0.17407677   
   1126000   474.51787      1380.1103      1854.6282      224.40972      308.87153      0.17695327   
   1127000   491.20629      1336.6228      1827.8291      237.86912      299.13893      0.17403747   
   1128000   474.01099      1359.8569      1833.8679      199.23948      304.33877      0.16785737   
   1129000   503.05931      1365.582       1868.6413      161.69868      305.62005      0.16379281   
   1130000   494.38891      1383.5469      1877.9358      130.10512      309.64063      0.16135294   
   1131000   518.42022      1375.886       1894.3062      90.27828       307.92611      0.16073188   
   1132000   511.14809      1351.7418      1862.8899      119.60539      302.52258      0.16302236   
   1133000   481.54078      1360.5149      1842.0557      135.44639      304.48603      0.16627183   
   1134000   496.32579      1336.6045      1832.9303      162.16252      299.13483      0.16840038   
   1135000   488.59435      1357.6485      1846.2428      180.00519      303.84452      0.16596043   
   1136000   514.86472      1343.0168      1857.8816      83.065816      300.56992      0.15820307   
   1137000   503.22523      1339.4725      1842.6977      29.927929      299.7767       0.15360412   
   1138000   503.80119      1347.0996      1850.9007      0.738293       301.48365      0.15366523   
   1139000   489.11374      1357.3157      1846.4294      28.261712      303.77004      0.15792259   
   1140000   484.09754      1400.6096      1884.7072      74.723565      313.45931      0.1617849    
   1141000   507.80205      1352.9936      1860.7956      126.73851      302.80274      0.1621082    
   1142000   495.20429      1340.8307      1836.035       201.31381      300.08066      0.16212388   
   1143000   500.89216      1316.8607      1817.7529      220.83442      294.71613      0.16086915   
   1144000   519.94691      1316.1437      1836.0906      196.29313      294.55565      0.15767875   
   1145000   503.60625      1328.6238      1832.23        156.63502      297.34873      0.15485378   
   1146000   494.01372      1310.0653      1804.079       117.43251      293.1953       0.1545427    
   1147000   499.99823      1295.4649      1795.4631      37.356093      289.9277       0.1552384    
   1148000   482.84894      1332.4987      1815.3476      36.310139      298.21594      0.15729036   
   1149000   508.44991      1328.7323      1837.1822      79.494841      297.37301      0.16174025   
   1150000   480.00594      1305.8004      1785.8064      118.6743       292.24081      0.16483156   
   1151000   494.46218      1331.3366      1825.7988      108.96715      297.95587      0.16440638   
   1152000   463.82002      1286.9483      1750.7684      156.51734      288.02168      0.16151271   
   1153000   489.46287      1300.0077      1789.4706      142.93949      290.9444       0.15685806   
   1154000   515.5566       1303.9976      1819.5542      166.12608      291.83734      0.15588838   
   1155000   509.77338      1320.4933      1830.2667      203.9044       295.52912      0.15678411   
   1156000   503.50472      1301.0405      1804.5453      216.60429      291.17554      0.15961942   
   1157000   478.50044      1277.2686      1755.7691      186.78716      285.85534      0.16006759   
   1158000   481.05747      1306.8567      1787.9142      149.14983      292.47722      0.15849202   
   1159000   504.5635       1299.6984      1804.2619      102.47908      290.87518      0.15797569   
   1160000   500.9509       1329.271       1830.2219      98.866511      297.49358      0.15921525   
   1161000   465.20645      1319.644       1784.8504      80.169709      295.33903      0.16160442   
   1162000   466.2009       1345.7565      1811.9574      142.9407       301.18307      0.16406643   
   1163000   469.85023      1311.3112      1781.1614      184.63056      293.47413      0.16323274   
   1164000   490.01356      1342.2627      1832.2762      177.99544      300.40114      0.16092239   
   1165000   494.40247      1308.8603      1803.2627      154.70504      292.92562      0.15824202   
   1166000   521.43539      1339.5573      1860.9927      168.03771      299.79567      0.15656826   
   1167000   517.6339       1345.3362      1862.9701      148.3176       301.089        0.1548881    
   1168000   504.14773      1342.8232      1846.971       168.3551       300.5266       0.15563918   
   1169000   492.58981      1348.0802      1840.67        132.4871       301.70311      0.15688246   
   1170000   477.33593      1337.9543      1815.2902      140.60142      299.43691      0.15888907   
   1171000   471.27532      1311.9843      1783.2596      123.49325      293.62478      0.15981593   
   1172000   500.69559      1313.1181      1813.8137      72.485638      293.87853      0.15974362   
   1173000   502.4842       1325.6725      1828.1567      56.166459      296.68823      0.1587365    
   1174000   505.90303      1300.4291      1806.3321      40.377274      291.03869      0.15609237   
   1175000   506.85244      1324.6502      1831.5026      46.978083      296.45943      0.15243869   
   1176000   500.20137      1316.1844      1816.3857      75.952227      294.56476      0.15045141   
   1177000   496.5614       1299.9056      1796.467       132.28467      290.92154      0.14983763   
   1178000   495.19455      1295.9284      1791.1229      205.35954      290.03143      0.15259412   
   1179000   522.34854      1331.9399      1854.2884      256.36269      298.09088      0.15465481   
   1180000   519.72217      1316.4392      1836.1613      220.57623      294.62179      0.15612832   
   1181000   500.23714      1308.6474      1808.8845      183.4725       292.87797      0.15812934   
   1182000   500.44574      1338.9708      1839.4166      128.053        299.66442      0.15906046   
   1183000   508.10396      1309.9432      1818.0472      79.053048      293.16798      0.15906995   
   1184000   499.65456      1310.3406      1809.9951      59.616058      293.25691      0.15834048   
   1185000   487.81246      1273.9504      1761.7629      38.821803      285.11272      0.157928     
   1186000   482.84203      1352.6996      1835.5416      121.41549      302.73694      0.16056133   
   1187000   481.05861      1345.2339      1826.2926      167.19282      301.06612      0.1593725    
   1188000   490.14174      1357.3867      1847.5284      158.08678      303.78592      0.15495423   
   1189000   502.83196      1325.6108      1828.4428      119.75784      296.67442      0.15282568   
   1190000   493.49706      1317.9246      1811.4216      90.667415      294.95423      0.15515193   
   1191000   501.77838      1341.3193      1843.0977      120.78879      300.19002      0.16144689   
   1192000   476.82342      1372.8035      1849.6269      127.47313      307.23625      0.163569     
   1193000   499.06729      1376.9209      1875.9882      127.42448      308.15773      0.16312309   
   1194000   490.70462      1392.3729      1883.0775      163.99462      311.61592      0.16334073   
   1195000   465.58831      1351.7246      1817.3129      199.77887      302.51873      0.16306186   
   1196000   485.81895      1335.2393      1821.0583      228.64564      298.8293       0.16158121   
   1197000   489.85604      1299.8974      1789.7534      180.64998      290.9197       0.15962745   
   1198000   497.41184      1326.2388      1823.6506      86.616202      296.81497      0.15787126   
   1199000   508.71595      1321.2998      1830.0157      45.17472       295.7096       0.15896933   
   1200000   472.79309      1309.1687      1781.9617      48.54824       292.99463      0.16259382   
   1201000   473.75104      1350.7954      1824.5465      141.61735      302.31079      0.17063226   
   1202000   479.93995      1366.3623      1846.3022      200.98339      305.79468      0.17711103   
   1203000   458.74876      1402.118       1860.8668      244.49186      313.79689      0.18034389   
   1204000   499.09799      1390.1412      1889.2392      198.29391      311.11644      0.17694487   
   1205000   484.64445      1352.3039      1836.9483      99.785177      302.64839      0.16731048   
   1206000   488.73544      1356.9779      1845.7134      14.297452      303.69444      0.16371739   
   1207000   482.18632      1361.6629      1843.8493      4.7402663      304.74296      0.16303882   
   1208000   491.38877      1370.7494      1862.1382      21.102506      306.77654      0.16508114   
   1209000   486.57628      1337.7732      1824.3495      122.13102      299.3964       0.16729432   
   1210000   473.09456      1378.8362      1851.9307      246.40441      308.58636      0.17046097   
   1211000   504.77291      1360.8193      1865.5922      314.18947      304.55414      0.17156487   
   1212000   494.05099      1375.6172      1869.6681      263.11181      307.86594      0.167017     
   1213000   503.89778      1390.4389      1894.3367      134.62001      311.18307      0.15821164   
   1214000   518.41605      1374.2008      1892.6169      89.37896       307.54897      0.15807717   
   1215000   500.97262      1352.9676      1853.9402      99.767851      302.79692      0.16231111   
   1216000   497.32192      1356.8657      1854.1876      149.75266      303.66933      0.16545302   
   1217000   455.84386      1338.3182      1794.162       127.16427      299.51836      0.16556884   
   1218000   497.00161      1299.7459      1796.7475      134.18729      290.88579      0.16632286   
   1219000   478.69601      1331.0481      1809.7441      133.91894      297.89129      0.16572436   
   1220000   482.60954      1330.7522      1813.3618      115.90929      297.82508      0.16366861   
   1221000   500.26697      1328.8348      1829.1017      121.92193      297.39595      0.16201732   
   1222000   469.40258      1302.9574      1772.36        124.12472      291.60455      0.15870353   
   1223000   495.94699      1311.1332      1807.0802      176.97862      293.4343       0.15888847   
   1224000   489.71508      1319.2694      1808.9845      197.24418      295.2552       0.15940319   
   1225000   493.90508      1328.6048      1822.5098      205.54525      297.34447      0.16235815   
   1226000   502.50474      1316.7439      1819.2486      128.01125      294.68998      0.1674813    
   1227000   461.25587      1349.1043      1810.3601      88.137439      301.9323       0.1725288    
   1228000   496.22603      1366.6867      1862.9127      36.87834       305.86728      0.17206112   
   1229000   522.65166      1337.1893      1859.841       32.064888      299.26572      0.16687901   
   1230000   488.20713      1369.6322      1857.8393      107.49448      306.5265       0.1624438    
   1231000   502.67023      1361.967       1864.6372      201.16321      304.811        0.1619246    
   1232000   492.23576      1369.0351      1861.2709      269.95296      306.39286      0.1616813    
   1233000   493.76042      1364.6364      1858.3968      272.03029      305.40842      0.15949085   
   1234000   527.78914      1342.4552      1870.2444      263.32857      300.44424      0.15763591   
   1235000   523.18654      1352.0019      1875.1885      233.43368      302.58081      0.15518039   
   1236000   533.51861      1366.2106      1899.7292      202.74819      305.76074      0.15588699   
   1237000   498.22407      1358.906       1857.13        115.44051      304.12594      0.15852108   
   1238000   517.73012      1307.0105      1824.7407      18.605828      292.51164      0.16293517   
   1239000   502.40769      1325.0647      1827.4724      19.492092      296.55221      0.17092987   
   1240000   475.41581      1354.5434      1829.9592      90.043679      303.14959      0.17787927   
   1241000   470.32399      1373.9195      1844.2435      156.25261      307.48601      0.1752614    
   1242000   522.25953      1358.3429      1880.6024      230.06038      303.99993      0.16877919   
   1243000   499.63937      1344.7336      1844.373       220.51671      300.95415      0.16346945   
   1244000   515.04349      1321.5891      1836.6326      165.09113      295.77434      0.1610664    
   1245000   509.76017      1324.3518      1834.112       81.835039      296.39265      0.16152689   
   1246000   463.29935      1362.8626      1826.1619      102.5261       305.01145      0.16418972   
   1247000   489.74958      1350.2573      1840.0069      94.420093      302.19035      0.16466899   
   1248000   505.91284      1332.1452      1838.0581      79.482981      298.13683      0.16458177   
   1249000   494.49245      1395.3176      1889.8101      84.596535      312.27495      0.16490749   
   1250000   495.63886      1316.5161      1812.155       67.464947      294.63901      0.16305373   
   1251000   498.92413      1316.2899      1815.214       65.81222       294.58838      0.16201421   
   1252000   464.20697      1334.1067      1798.3137      133.33432      298.57582      0.16374262   
   1253000   482.79351      1306.9996      1789.7932      155.18744      292.5092       0.16614489   
   1254000   486.60469      1311.433       1798.0377      191.08474      293.50139      0.1711895    
   1255000   470.20098      1303.2271      1773.4281      189.18172      291.66491      0.17662816   
   1256000   488.57372      1317.8621      1806.4358      155.93135      294.94025      0.17688207   
   1257000   487.30042      1338.3925      1825.6929      107.17997      299.53499      0.17215026   
   1258000   505.37879      1328.077       1833.4557      143.00587      297.22635      0.16761799   
   1259000   494.63145      1374.7754      1869.4068      182.79237      307.67756      0.16282893   
   1260000   497.89214      1372.0165      1869.9087      150.03271      307.06011      0.15990486   
   1261000   521.03702      1349.5756      1870.6126      152.52992      302.03779      0.15918627   
   1262000   496.05379      1343.9718      1840.0256      69.369259      300.78365      0.15909281   
   1263000   509.17595      1326.0071      1835.183       66.120875      296.76311      0.16077567   
   1264000   494.55098      1334.1996      1828.7506     -13.182101      298.5966       0.16219691   
   1265000   475.32128      1315.5994      1790.9207     -9.0864746      294.43386      0.16572376   
   1266000   495.02416      1344.644       1839.6682      55.328078      300.93409      0.17040266   
   1267000   499.94253      1364.4495      1864.392       219.57706      305.3666       0.17269017   
   1268000   498.71575      1332.1933      1830.909       327.42247      298.14759      0.16944122   
   1269000   484.45443      1334.332       1818.7865      348.75997      298.62624      0.16094924   
   1270000   498.69633      1326.0596      1824.7559      266.44691      296.77486      0.15646347   
   1271000   507.39718      1327.5989      1834.996       174.31621      297.11935      0.1574221    
   1272000   500.54429      1309.6005      1810.1448      156.4077       293.09127      0.1627076    
   1273000   477.54254      1307.8592      1785.4018      101.14941      292.70158      0.16579229   
   1274000   507.90195      1311.679       1819.5809      100.68981      293.55645      0.16843818   
   1275000   471.04693      1356.212       1827.2589      175.03974      303.52302      0.17233395   
   1276000   489.64138      1349.6811      1839.3225      228.17197      302.0614       0.1714779    
   1277000   501.59206      1398.4859      1900.078       221.6682       312.98402      0.16621865   
   1278000   506.13353      1375.6414      1881.7749      141.70744      307.87136      0.16214998   
   1279000   522.82351      1358.0859      1880.9094      120.02149      303.94241      0.1600182    
   1280000   535.11599      1404.0281      1939.1441      46.292872      314.22437      0.15826808   
   1281000   532.61908      1357.9155      1890.5346      7.3771509      303.90428      0.15660627   
   1282000   507.72274      1341.9468      1849.6695      26.51035       300.33045      0.15517928   
   1283000   522.41097      1348.2469      1870.6579      107.54293      301.74043      0.1549824    
   1284000   484.067        1376.0614      1860.1284      188.84747      307.96538      0.15919517   
   1285000   501.46752      1385.9298      1887.3974      280.57103      310.17394      0.16841339   
   1286000   508.59435      1347.2638      1855.8582      242.6938       301.52041      0.16952481   
   1287000   482.87847      1337.2271      1820.1056      160.37314      299.27417      0.16823874   
   1288000   505.33763      1364.0277      1869.3654      125.72307      305.27221      0.16821476   
   1289000   504.55246      1364.0075      1868.5599      101.79323      305.26767      0.16784251   
   1290000   494.45586      1371.9879      1866.4438      119.52322      307.05372      0.16391214   
   1291000   518.96834      1405.0078      1923.9762      84.878084      314.44363      0.15737647   
   1292000   489.91939      1375.0833      1865.0027      132.34343      307.74648      0.15307631   
   1293000   549.37724      1332.772       1882.1492      131.05793      298.27711      0.1536415    
   1294000   525.59654      1364.46        1890.0565      214.82048      305.36894      0.15689922   
   1295000   477.61845      1385.493       1863.1114      232.946        310.07617      0.16079234   
   1296000   478.03769      1342.4418      1820.4795      196.76171      300.44123      0.16586682   
   1297000   493.49231      1341.937       1835.4293      183.99319      300.32826      0.16995206   
   1298000   504.96685      1326.7359      1831.7027      127.63148      296.92621      0.16948881   
   1299000   492.35638      1312.5197      1804.876       149.15627      293.74459      0.16486006   
   1300000   506.34716      1355.358       1861.7052      155.21981      303.3319       0.15897491   
   1301000   529.78785      1362.8695      1892.6573      146.34206      305.01298      0.15571474   
   1302000   512.78759      1362.6297      1875.4173      148.08182      304.95933      0.15522393   
   1303000   515.13717      1371.4801      1886.6173      116.03272      306.94006      0.15643186   
   1304000   506.20963      1347.7612      1853.9708      56.581457      301.63172      0.15943743   
   1305000   522.10911      1360.8419      1882.951       110.18694      304.55921      0.16296336   
   1306000   485.14753      1363.3799      1848.5275      173.58017      305.12723      0.1645629    
   1307000   485.98437      1359.532       1845.5163      272.66055      304.26604      0.16504542   
   1308000   521.24641      1357.3532      1878.5996      253.04445      303.77842      0.16056175   
   1309000   519.03791      1353.82        1872.8579      236.59018      302.98769      0.14907838   
   1310000   531.4736       1336.4353      1867.9089      172.54127      299.09695      0.1457909    
   1311000   529.49892      1344.3112      1873.8102      152.5977       300.85962      0.14842318   
   1312000   517.25371      1341.9445      1859.1982      56.550426      300.32993      0.15326132   
   1313000   516.17427      1343.7127      1859.887      -1.1150015      300.72566      0.15829804   
   1314000   521.8987       1327.5071      1849.4058     -34.7223        297.09882      0.16226417   
   1315000   495.90985      1334.7318      1830.6417      48.140329      298.71572      0.16553449   
   1316000   497.72145      1294.6607      1792.3822      107.46474      289.74773      0.16532657   
   1317000   502.09187      1316.5333      1818.6252      207.13024      294.64286      0.16579082   
   1318000   534.50417      1313.6827      1848.1869      253.70694      294.00489      0.16507662   
   1319000   511.2317       1358.5267      1869.7584      232.44359      304.04107      0.16344236   
   1320000   503.50607      1383.6566      1887.1627      180.10329      309.6652       0.16226851   
   1321000   522.27303      1356.1939      1878.4669      138.33904      303.51897      0.16316848   
   1322000   495.44628      1367.276       1862.7223      83.361084      305.99918      0.16023932   
   1323000   526.12162      1377.7896      1903.9112      82.741446      308.35214      0.15631043   
   1324000   525.38864      1348.0487      1873.4374      178.35546      301.69607      0.15682232   
   1325000   490.48508      1358.8823      1849.3674      264.50365      304.12065      0.16227661   
   1326000   499.14905      1345.802       1844.951       312.22203      301.19324      0.16589472   
   1327000   498.0894       1331.9487      1830.0381      244.55373      298.09285      0.16770578   
   1328000   490.47732      1339.3275      1829.8048      202.19585      299.74425      0.17105749   
   1329000   477.73213      1326.4763      1804.2084      177.27148      296.86811      0.16986833   
   1330000   496.3796       1332.1843      1828.5639      129.24575      298.14559      0.16524115   
   1331000   513.39871      1334.4852      1847.8839      66.105103      298.66054      0.1631962    
   1332000   479.63019      1366.6856      1846.3158      28.603439      305.86704      0.16231234   
   1333000   479.91717      1311.7016      1791.6188      29.892848      293.56151      0.16185781   
   1334000   504.45533      1299.7372      1804.1925      47.956532      290.88385      0.16062341   
   1335000   498.71571      1333.4129      1832.1286      86.203116      298.42055      0.16007613   
   1336000   483.45702      1347.9547      1831.4117      153.38066      301.67502      0.16078036   
   1337000   481.71843      1334.0423      1815.7607      201.0186       298.56141      0.16233989   
   1338000   483.64964      1340.8678      1824.5174      173.23363      300.08896      0.16354889   
   1339000   496.26609      1346.9161      1843.1822      124.93107      301.44259      0.16234039   
   1340000   528.84187      1329.2618      1858.1036      88.229715      297.49151      0.15983317   
   1341000   485.62932      1342.2268      1827.8561      97.586364      300.39312      0.15789946   
   1342000   474.21303      1321.1093      1795.3224      167.25631      295.66698      0.16063992   
   1343000   474.14953      1348.1435      1822.293       198.18583      301.71728      0.16450297   
   1344000   505.18573      1314.7055      1819.8912      169.5112       294.23378      0.16668486   
   1345000   488.48601      1306.4464      1794.9324      133.51255      292.38538      0.16762627   
   1346000   489.51929      1313.2414      1802.7607      92.733523      293.90612      0.16938508   
   1347000   454.14829      1335.8902      1790.0385      177.40629      298.97497      0.17225062   
   1348000   453.26383      1296.298       1749.5618      267.00824      290.11414      0.16820388   
   1349000   492.30409      1328.3695      1820.6736      300.14672      297.29182      0.16035905   
   1350000   496.17464      1335.4885      1831.6631      298.77954      298.88507      0.15849061   
   1351000   519.3099       1317.8452      1837.1551      145.84771      294.93646      0.16036523   
   1352000   487.52857      1291.5904      1779.119       47.589224      289.06059      0.1660281    
   1353000   491.3091       1328.748       1820.0571     -70.611744      297.37653      0.16750142   
   1354000   501.04644      1328.4158      1829.4622      10.498359      297.30218      0.16699347   
   1355000   494.93979      1320.6256      1815.5654      110.89626      295.55871      0.16496753   
   1356000   491.24168      1296.3568      1787.5985      199.37366      290.12732      0.16293571   
   1357000   492.77673      1305.7974      1798.5741      240.60566      292.24014      0.16177029   
   1358000   516.0728       1314.9899      1831.0627      286.4619       294.29743      0.16507111   
   1359000   471.90721      1326.9547      1798.8619      274.06636      296.97518      0.17179484   
   1360000   473.31058      1290.0738      1763.3843      126.46111      288.72116      0.17577058   
   1361000   483.46503      1324.7993      1808.2644      86.328281      296.49281      0.17537929   
   1362000   507.96348      1346.5299      1854.4933      40.933855      301.35615      0.16724898   
   1363000   510.17292      1358.8272      1869.0001      11.912603      304.10831      0.16195459   
   1364000   527.61127      1349.2612      1876.8725      5.7977578      301.96743      0.15928737   
   1365000   511.05843      1343.3913      1854.4498      37.132171      300.65374      0.15720988   
   1366000   487.3741       1355.2445      1842.6186      93.141469      303.30651      0.15682105   
   1367000   468.70203      1353.8149      1822.5169      152.51626      302.98655      0.1585654    
   1368000   500.65714      1321.564       1822.2211      183.56523      295.76872      0.16321071   
   1369000   486.1179       1344.3129      1830.4308      238.73322      300.85998      0.16882026   
   1370000   487.83506      1326.011       1813.846       171.61992      296.76397      0.16991416   
   1371000   497.21532      1337.1555      1834.3708      166.63498      299.25813      0.16883745   
   1372000   506.48019      1367.671       1874.1512      117.74616      306.08757      0.16786349   
   1373000   501.63457      1392.0579      1893.6925      131.33502      311.54542      0.16697244   
   1374000   487.62216      1383.5862      1871.2083      124.44757      309.64943      0.1646165    
   1375000   522.80916      1348.5423      1871.3514      133.1363       301.80653      0.1624847    
   1376000   506.34507      1379.6381      1885.9831      149.35204      308.76583      0.16164893   
   1377000   509.33053      1376.1595      1885.4901      138.50471      307.98733      0.16321612   
   1378000   477.39329      1356.3805      1833.7738      151.16131      303.56074      0.16762681   
   1379000   471.17758      1337.6349      1808.8124      132.15525      299.36543      0.17132042   
   1380000   459.30857      1315.6851      1774.9937      118.55453      294.45303      0.17191812   
   1381000   501.08817      1283.2696      1784.3578      152.00782      287.19837      0.17125239   
   1382000   505.4711       1334.1296      1839.6007      183.2347       298.58095      0.16953686   
   1383000   485.12972      1376.8057      1861.9354      232.19406      308.13194      0.16777916   
   1384000   506.00262      1362.8326      1868.8352      231.48376      305.00473      0.16168921   
   1385000   535.29597      1359.6246      1894.9205      188.04386      304.28677      0.15555429   
   1386000   507.49677      1367.9547      1875.4515      134.1678       306.15107      0.15334194   
   1387000   505.91229      1357.9404      1863.8527      105.02         303.90985      0.15667349   
   1388000   538.86789      1340.1511      1879.019       144.80889      299.92858      0.16029517   
   1389000   495.79449      1354.3645      1850.159       145.12918      303.10956      0.16166908   
   1390000   500.82662      1386.5325      1887.3592      126.01967      310.30883      0.16446207   
   1391000   523.21121      1398.1796      1921.3908      134.73209      312.91546      0.16747981   
   1392000   484.37181      1401.2774      1885.6492      198.57001      313.60875      0.16844732   
   1393000   478.37425      1380.4308      1858.805       277.13361      308.94324      0.1670878    
   1394000   507.98404      1347.2916      1855.2756      229.47113      301.52662      0.16384298   
   1395000   561.03746      1311.0165      1872.054       200.41877      293.40819      0.16110253   
   1396000   501.32146      1386.1928      1887.5143      166.85221      310.2328       0.15813526   
   1397000   507.95114      1376.9078      1884.8589      75.206152      308.15479      0.15781273   
   1398000   496.13653      1313.335       1809.4715      78.139831      293.92707      0.16130469   
   1399000   508.63012      1328.2383      1836.8684      92.862901      297.26246      0.16409563   
   1400000   493.22003      1338.0713      1831.2914      171.18837      299.46311      0.16732892   
   1401000   500.27281      1333.2937      1833.5665      233.47721      298.39387      0.17124067   
   1402000   485.19801      1363.5027      1848.7007      258.32166      305.15469      0.17139017   
   1403000   489.97785      1340.7549      1830.7328      241.09729      300.0637       0.16786169   
   1404000   475.35025      1327.9375      1803.2877      158.7062       297.19513      0.16388943   
   1405000   483.78521      1298.0894      1781.8746      62.424633      290.51506      0.16101108   
   1406000   501.00806      1357.0097      1858.0178      52.176477      303.70156      0.16309644   
   1407000   523.36467      1359.6901      1883.0548      86.481445      304.30143      0.17169723   
   1408000   512.08132      1374.3146      1886.3959      177.99524      307.57443      0.17782685   
   1409000   482.51956      1361.2001      1843.7197      272.84086      304.63938      0.17698257   
   1410000   484.05631      1362.8814      1846.9377      264.1796       305.01566      0.17068318   
   1411000   493.69949      1354.4853      1848.1848      224.01584      303.13659      0.16496049   
   1412000   498.00935      1350.2286      1848.238       198.52004      302.18393      0.15986392   
   1413000   527.36291      1338.2062      1865.5691      189.31875      299.49329      0.15690664   
   1414000   533.89698      1328.1909      1862.0878      208.08369      297.25184      0.1577629    
   1415000   522.91841      1318.4055      1841.3239      218.51062      295.06186      0.16176016   
   1416000   494.37173      1290.987       1785.3587      144.02905      288.92553      0.16421755   
   1417000   488.13653      1329.761       1817.8975      94.144899      297.60323      0.16536295   
   1418000   492.56721      1349.8315      1842.3987      0.00027077127  302.09506      0.16297131   
   1419000   500.61604      1341.5708      1842.1869      0.18437151     300.2463       0.15408468   
   1420000   565.83687      1346.9743      1912.8112      26.134648      301.45561      0.14926791   
   1421000   511.99301      1360.6322      1872.6252      143.81481      304.51228      0.15120897   
   1422000   519.00892      1345.8783      1864.8873      184.53362      301.21033      0.15446886   
   1423000   524.33473      1342.4782      1866.8129      189.12641      300.44937      0.15739695   
   1424000   514.2475       1320.3614      1834.6089      173.30908      295.4996       0.15989844   
   1425000   480.97289      1357.9931      1838.966       147.0594       303.92165      0.16191965   
   1426000   457.02697      1304.5256      1761.5526      89.236824      291.95551      0.16308839   
   1427000   509.9603       1286.0319      1795.9922      56.361608      287.81658      0.1668733    
   1428000   514.7773       1317.3938      1832.1711      42.49866       294.83543      0.16880587   
   1429000   516.87611      1323.1462      1840.0224      93.190648      296.12284      0.16837926   
   1430000   485.69681      1347.8099      1833.5067      123.92006      301.64263      0.16871548   
   1431000   496.25845      1367.8571      1864.1155      163.49985      306.12923      0.16973356   
   1432000   490.03446      1345.7486      1835.7831      239.52296      301.1813       0.17264664   
   1433000   463.54461      1390.8361      1854.3807      303.10559      311.27198      0.17547572   
   1434000   491.84064      1353.0457      1844.8864      299.7334       302.81441      0.17450154   
   1435000   502.8577       1326.862       1829.7197      249.53268      296.95443      0.17037708   
   1436000   489.19665      1382.1442      1871.3409      166.49058      309.32672      0.16441242   
   1437000   484.21101      1361.725       1845.936       107.12832      304.75685      0.16158456   
   1438000   540.59958      1341.5166      1882.1161      53.960214      300.23416      0.16261802   
   1439000   522.55399      1347.1826      1869.7366      25.171926      301.50223      0.16885363   
   1440000   460.94999      1341.4979      1802.4479      57.89726       300.22998      0.17512614   
   1441000   480.23193      1335.9992      1816.2312      58.776682      298.99937      0.17576064   
   1442000   481.17914      1312.9244      1794.1035      53.584956      293.83517      0.17185006   
   1443000   504.00813      1297.5064      1801.5146      57.915749      290.38461      0.1689921    
   1444000   480.33624      1321.3679      1801.7041      107.63787      295.72484      0.16828977   
   1445000   501.69291      1315.0897      1816.7826      190.85807      294.31977      0.16915623   
   1446000   520.57347      1330.9341      1851.5075      255.80035      297.86577      0.1697985    
   1447000   471.61447      1335.2227      1806.8372      328.09255      298.82558      0.16877368   
   1448000   472.57304      1315.1317      1787.7047      266.93594      294.32916      0.16823591   
   1449000   467.07331      1278.6938      1745.7671      142.24499      286.1743       0.16680819   
   1450000   471.74554      1318.2164      1789.9619      103.37862      295.01953      0.16734903   
   1451000   492.99957      1337.0368      1830.0363      58.975278      299.23157      0.16440102   
   1452000   526.64353      1356.7122      1883.3557      72.990881      303.63497      0.16022282   
   1453000   523.37801      1356.5648      1879.9428      156.35019      303.60199      0.15905832   
   1454000   488.02284      1380.4552      1868.478       245.35147      308.94871      0.16487946   
   1455000   478.77625      1349.6712      1828.4474      294.98455      302.05918      0.17276779   
   1456000   479.1012       1388.217       1867.3182      278.50683      310.68581      0.17592064   
   1457000   477.18813      1358.8623      1836.0504      158.25478      304.11617      0.17455145   
   1458000   507.68831      1370.0722      1877.7605      93.041762      306.62497      0.17303588   
   1459000   482.71268      1377.9057      1860.6183      111.91877      308.37811      0.17072677   
   1460000   480.41056      1356.805       1837.2156      107.59461      303.65575      0.16605718   
   1461000   515.54438      1312.8838      1828.4282      124.84703      293.82609      0.16204592   
   1462000   487.40525      1335.3861      1822.7914      125.69841      298.86216      0.1598009    
   1463000   497.53986      1348.2201      1845.7599      127.88448      301.73442      0.16101078   
   1464000   485.32103      1347.0148      1832.3358      129.65051      301.46467      0.16380672   
   1465000   526.05471      1349.78        1875.8347      85.362329      302.08353      0.16569073   
   1466000   530.44575      1337.4226      1867.8683      94.131317      299.31792      0.16637818   
   1467000   500.09097      1350.9217      1851.0127      142.75407      302.33905      0.16650063   
   1468000   479.85018      1377.4384      1857.2885      215.19803      308.27353      0.16832714   
   1469000   488.34962      1322.4228      1810.7724      290.06074      295.96093      0.17389167   
   1470000   458.78596      1316.3284      1775.1143      307.94237      294.59699      0.17663455   
   1471000   459.90128      1319.9515      1779.8528      266.33395      295.40786      0.17553389   
   1472000   474.56116      1291.4002      1765.9613      136.50147      289.01801      0.16980808   
   1473000   453.64476      1304.7209      1758.3657      77.676567      291.99922      0.16331522   
   1474000   497.45052      1300.8183      1798.2689      45.115354      291.12582      0.16144949   
   1475000   501.73954      1326.2392      1827.9788      54.176434      296.81506      0.16504832   
   1476000   478.988        1367.695       1846.683       76.983047      306.09295      0.17204404   
   1477000   470.9976       1357.2229      1828.2205      147.06949      303.74927      0.17670672   
   1478000   483.82306      1348.9464      1832.7695      163.86823      301.89698      0.17698012   
   1479000   502.17924      1370.7811      1872.9604      179.5337       306.78363      0.17494587   
   1480000   526.07689      1318.1758      1844.2527      212.65132      295.01046      0.17116809   
   1481000   492.70958      1353.2057      1845.9153      203.84572      302.85022      0.16802201   
   1482000   513.75832      1323.131       1836.8893      198.37762      296.11943      0.16805388   
   1483000   500.25688      1339.8562      1840.1131      188.2206       299.86257      0.17143606   
   1484000   476.2555       1273.214       1749.4695      131.37972      284.94791      0.17435955   
   1485000   476.50574      1320.9757      1797.4814      59.333919      295.63707      0.17374562   
   1486000   491.34931      1323.8672      1815.2165      20.309154      296.2842       0.16841419   
   1487000   512.91575      1291.3903      1804.306      -26.560951      289.01579      0.16311491   
   1488000   481.02648      1338.7048      1819.7313      13.603414      299.60489      0.16225383   
   1489000   506.17773      1341.6094      1847.7872      51.707076      300.25495      0.1610578    
   1490000   518.96774      1344.7257      1863.6934      159.90382      300.95237      0.15963835   
   1491000   503.57369      1347.8562      1851.4299      196.51379      301.65298      0.16004143   
   1492000   513.11638      1390.3933      1903.5096      177.88719      311.17286      0.16368105   
   1493000   491.00147      1311.9729      1802.9743      177.23526      293.62222      0.16893027   
   1494000   475.31447      1310.6195      1785.934       140.58235      293.31934      0.17241653   
   1495000   464.14195      1322.2707      1786.4126      151.52135      295.92689      0.17301308   
   1496000   475.21963      1335.8611      1811.0807      145.64747      298.96845      0.17071209   
   1497000   479.85585      1312.6824      1792.5383      149.74579      293.78102      0.16523437   
   1498000   517.26269      1346.3037      1863.5664      140.54892      301.30553      0.16050012   
   1499000   506.90814      1349.4549      1856.3631      109.82533      302.01079      0.15945195   
   1500000   500.59886      1353.9627      1854.5616      117.45647      303.01964      0.16211087   
   1501000   493.46917      1372.4762      1865.9453      160.34679      307.16298      0.16530961   
   1502000   493.01829      1319.2671      1812.2854      109.95195      295.25469      0.16564979   
   1503000   484.89974      1317.9894      1802.8892      142.64719      294.96874      0.16604632   
   1504000   493.49427      1312.7386      1806.2328      184.13503      293.79359      0.16744327   
   1505000   479.16431      1317.4881      1796.6524      208.20644      294.85655      0.16826797   
   1506000   499.09951      1308.3517      1807.4512      164.8631       292.8118       0.16790992   
   1507000   458.54641      1301.4145      1759.9609      141.27591      291.25924      0.16738706   
   1508000   503.12219      1342.7865      1845.9087      41.339427      300.51838      0.16521144   
   1509000   522.56258      1340.8498      1863.4124      24.469963      300.08494      0.1615776    
   1510000   520.28958      1330.8317      1851.1213      53.188881      297.84287      0.15565648   
   1511000   507.18046      1351.9911      1859.1715      90.095637      302.57838      0.15261878   
   1512000   540.6671       1311.1005      1851.7676      182.49579      293.42698      0.15355896   
   1513000   539.36606      1298.8422      1838.2083      246.41851      290.68355      0.15559639   
   1514000   494.09098      1336.467       1830.558       309.30174      299.10405      0.16023097   
   1515000   504.47298      1346.3629      1850.8359      277.10959      301.31878      0.16718828   
   1516000   520.05872      1362.6664      1882.7251      157.40429      304.96753      0.17150637   
   1517000   523.99394      1366.2336      1890.2276      113.39158      305.76589      0.17097459   
   1518000   488.31901      1368.2876      1856.6067     -1.3225973      306.22558      0.16536958   
   1519000   527.97431      1339.2691      1867.2434      29.859653      299.73116      0.16258258   
   1520000   517.00085      1322.6486      1839.6495      54.589674      296.01148      0.16028992   
   1521000   524.39084      1371.7976      1896.1884      132.50185      307.01111      0.16023211   
   1522000   505.16944      1330.913       1836.0824      148.66961      297.86106      0.16180872   
   1523000   482.5577       1307.4355      1789.9932      148.26887      292.60675      0.16410273   
   1524000   485.79153      1336.6782      1822.4697      106.77023      299.15133      0.16680321   
   1525000   490.84891      1300.9932      1791.8421      68.701221      291.16495      0.16921736   
   1526000   478.1567       1262.7831      1740.9398      76.365458      282.61345      0.16668492   
   1527000   508.16183      1354.5583      1862.7201      118.16341      303.15293      0.15780138   
   1528000   526.9523       1332.6523      1859.6046      148.29719      298.25031      0.15163662   
   1529000   548.72397      1296.1793      1844.9033      131.0488       290.0876       0.15118905   
   1530000   506.25078      1310.1709      1816.4217      133.95489      293.21893      0.15287653   
   1531000   511.55079      1314.1642      1825.715       107.34732      294.11265      0.15753826   
   1532000   499.09933      1276.5835      1775.6828      116.95381      285.702        0.16189921   
   1533000   507.91428      1320.9955      1828.9097      127.54315      295.6415       0.16400902   
   1534000   501.42312      1346.0099      1847.433       164.63835      301.23978      0.16441958   
   1535000   522.7296       1313.7352      1836.4648      196.82498      294.01663      0.1646935    
   1536000   496.70086      1338.994       1835.6949      207.73927      299.66961      0.16454612   
   1537000   503.65338      1325.0065      1828.6599      211.72308      296.53918      0.16500835   
   1538000   507.23788      1326.9905      1834.2283      169.28606      296.98319      0.16486829   
   1539000   510.11337      1378.3291      1888.4425      117.2449       308.47289      0.16312008   
   1540000   509.95135      1362.1291      1872.0805      94.881383      304.84729      0.15953458   
   1541000   520.56148      1344.8895      1865.451       144.74978      300.98903      0.15557061   
   1542000   534.05403      1354.1751      1888.2292      175.35537      303.06717      0.1551745    
   1543000   493.0204       1333.7561      1826.7765      227.81124      298.49735      0.16178037   
   1544000   482.88352      1347.2739      1830.1574      273.13549      301.52267      0.16991655   
   1545000   488.16047      1344.6423      1832.8028      199.1096       300.93372      0.17164156   
   1546000   506.8765       1365.5382      1872.4147      182.00162      305.61026      0.17138444   
   1547000   516.88488      1398.8683      1915.7531      183.01111      313.06959      0.16909703   
   1548000   525.30219      1357.5532      1882.8554      135.08211      303.82319      0.16253095   
   1549000   516.09375      1364.3531      1880.4468      89.925581      305.34501      0.15805401   
   1550000   513.60446      1381.6668      1895.2712      104.9554       309.21986      0.15915232   
   1551000   515.59625      1435.3119      1950.9082      108.47521      321.22576      0.1617278    
   1552000   531.06704      1338.1114      1869.1785      104.16458      299.47209      0.16586718   
   1553000   488.43957      1364.3603      1852.7999      85.848655      305.34664      0.17009737   
   1554000   490.19121      1356.5476      1846.7388      52.93186       303.59813      0.17167507   
   1555000   515.91233      1342.4224      1858.3347      31.371068      300.43688      0.1714434    
   1556000   507.85999      1340.2109      1848.0709      54.712925      299.94195      0.17139924   
   1557000   513.97505      1318.2187      1832.1937      96.095275      295.02004      0.16997327   
   1558000   489.87428      1344.377       1834.2513      156.01202      300.87433      0.16781456   
   1559000   514.48497      1322.4564      1836.9414      163.50349      295.96846      0.16605457   
   1560000   510.44761      1353.6636      1864.1112      121.68056      302.95268      0.16186058   
   1561000   516.67257      1342.6287      1859.3013      85.129303      300.48306      0.15634749   
   1562000   524.09557      1334.4393      1858.5349      102.74578      298.65025      0.15517986   
   1563000   521.54557      1336.6162      1858.1618      85.624131      299.13745      0.15554169   
   1564000   517.75671      1323.4529      1841.2096      131.46913      296.19147      0.15862264   
   1565000   519.48148      1332.2858      1851.7673      127.58376      298.1683       0.16123286   
   1566000   484.86332      1309.1123      1793.9757      103.03139      292.98203      0.16381682   
   1567000   529.79027      1306.5857      1836.376       92.335175      292.41656      0.16554751   
   1568000   534.78667      1301.2744      1836.061       33.796673      291.22787      0.16375822   
   1569000   495.4249       1327.4218      1822.8467      49.782478      297.07973      0.16168401   
   1570000   504.12964      1302.4055      1806.5351      68.284864      291.48101      0.15944382   
   1571000   521.00684      1376.3887      1897.3955      203.66614      308.03861      0.16035023   
   1572000   515.93929      1369.7263      1885.6656      242.21163      306.54756      0.16210489   
   1573000   505.34982      1378.9164      1884.2663      317.62168      308.60433      0.16639414   
   1574000   514.62108      1353.299       1867.9201      297.11263      302.8711       0.16870824   
   1575000   516.59118      1344.632       1861.2232      143.8254       300.9314       0.16672322   
   1576000   520.06162      1372.3832      1892.4449      91.348651      307.14219      0.16482722   
   1577000   482.94437      1364.8148      1847.7592      52.832049      305.44835      0.16347372   
   1578000   498.75505      1381.3469      1880.102       83.302321      309.14828      0.16525207   
   1579000   506.61441      1390.5476      1897.162       134.66695      311.2074       0.16631032   
   1580000   501.55701      1353.636       1855.193       156.11759      302.94652      0.16539306   
   1581000   507.86205      1323.3443      1831.2064      189.74374      296.16718      0.16357005   
   1582000   509.88197      1326.2906      1836.1726      186.62692      296.82656      0.16303749   
   1583000   495.14255      1329.4112      1824.5537      162.63221      297.52495      0.1642422    
   1584000   491.11958      1345.1826      1836.3021      166.08553      301.05462      0.16975929   
   1585000   457.5521       1322.9503      1780.5024      172.0952       296.07899      0.17527137   
   1586000   472.809        1339.2793      1812.0883      178.03245      299.73345      0.1776231    
   1587000   481.10876      1312.9239      1794.0326      151.63442      293.83506      0.17572019   
   1588000   462.44902      1341.3836      1803.8326      135.72594      300.20441      0.16848135   
   1589000   455.42021      1342.4693      1797.8895      83.965201      300.44738      0.1631472    
   1590000   488.89135      1290.5566      1779.448       68.275296      288.82922      0.16239819   
   1591000   501.54716      1299.9189      1801.4661      133.10655      290.92453      0.16251193   
   1592000   489.49131      1341.1421      1830.6334      228.16179      300.15035      0.16230415   
   1593000   502.31827      1345.7979      1848.1162      250.71618      301.19234      0.15938768   
   1594000   491.14274      1339.0775      1830.2202      223.62586      299.68829      0.15727442   
   1595000   517.98934      1369.0654      1887.0547      194.66073      306.39964      0.15784739   
   1596000   499.96807      1368.8952      1868.8632      156.18257      306.36155      0.16537384   
   1597000   512.55664      1356.4131      1868.9698      112.38322      303.56804      0.17170507   
   1598000   536.08749      1340.9489      1877.0364      47.079549      300.10713      0.17194395   
   1599000   484.11226      1333.3255      1817.4378      73.246981      298.40099      0.17065976   
   1600000   484.41686      1363.1705      1847.5874      133.29025      305.08036      0.16780433   
   1601000   546.16987      1368.2845      1914.4543      136.31937      306.22487      0.16333617   
   1602000   514.25775      1384.4088      1898.6666      106.19237      309.83353      0.15935613   
   1603000   560.48692      1335.4941      1895.9811      91.405151      298.88633      0.1576145    
   1604000   519.95956      1365.4465      1885.4061      75.52599       305.58973      0.15726062   
   1605000   494.98978      1366.0812      1861.0709      129.00172      305.73177      0.16219168   
   1606000   515.0956       1369.5299      1884.6255      159.41383      306.5036       0.16663896   
   1607000   515.10674      1326.1018      1841.2085      226.34707      296.7843       0.1686179    
   1608000   500.16075      1339.0076      1839.1683      223.02029      299.67264      0.16779852   
   1609000   481.72759      1349.7989      1831.5265      180.66904      302.08777      0.16521089   
   1610000   496.47484      1344.718       1841.1929      192.17915      300.95066      0.16385822   
   1611000   493.43843      1342.1882      1835.6266      133.56852      300.38446      0.16275155   
   1612000   535.08949      1325.7662      1860.8557      117.87479      296.70921      0.16436183   
   1613000   510.43368      1402.396       1912.8297      127.32122      313.8591       0.16829897   
   1614000   511.40572      1343.3383      1854.744       91.965319      300.64187      0.16816174   
   1615000   528.09881      1330.9777      1859.0765      106.406        297.87555      0.16489332   
   1616000   521.58661      1383.3972      1904.9838      137.34858      309.60714      0.15917009   
   1617000   488.89811      1371.9823      1860.8804      175.64613      307.05245      0.15702588   
   1618000   506.8001       1382.1259      1888.926       169.5127       309.32262      0.15659984   
   1619000   524.15776      1311.2207      1835.3784      131.34004      293.45387      0.15888183   
   1620000   514.56872      1305.1444      1819.7131      84.721769      292.09399      0.16253116   
   1621000   496.56406      1318.5454      1815.1095      94.264302      295.09317      0.16335623   
   1622000   482.3437       1340.7737      1823.1174      59.128043      300.06792      0.16229653   
   1623000   518.67163      1303.3001      1821.9718      104.08721      291.68125      0.16406843   
   1624000   519.98313      1350.4566      1870.4398      192.12134      302.23497      0.16901066   
   1625000   474.58978      1362.307       1836.8967      223.87212      304.88709      0.17494261   
   1626000   499.1032       1384.6491      1883.7523      237.46661      309.88732      0.18041812   
   1627000   482.66987      1367.8606      1850.5305      189.30715      306.13002      0.17933655   
   1628000   502.92697      1348.3081      1851.2351      137.50307      301.75413      0.17235199   
   1629000   488.16833      1348.1387      1836.3071      156.97625      301.71622      0.16748581   
   1630000   502.09005      1328.1319      1830.2219      155.93894      297.23864      0.16476801   
   1631000   482.49662      1319.9081      1802.4048      130.20337      295.39815      0.16259959   
   1632000   505.66157      1304.9819      1810.6434      139.83763      292.05762      0.16287249   
   1633000   492.70967      1335.9215      1828.6312      160.23784      298.98198      0.16529862   
   1634000   489.51347      1314.9565      1804.47        182.35946      294.28997      0.16926018   
   1635000   451.3867       1315.955       1767.3417      175.64602      294.51344      0.17182696   
   1636000   494.68111      1313.5486      1808.2297      175.57966      293.97486      0.17227164   
   1637000   484.20925      1303.0101      1787.2194      78.778861      291.61634      0.16872682   
   1638000   505.55457      1317.4307      1822.9853      52.631446      294.8437       0.16660774   
   1639000   511.5258       1342.7117      1854.2375      23.247734      300.50163      0.16602889   
   1640000   479.93925      1390.6727      1870.6119      50.057544      311.2354       0.16920507   
   1641000   514.56626      1404.6235      1919.1898      108.41211      314.35762      0.17268942   
   1642000   508.66152      1368.7373      1877.3988      167.92551      306.32621      0.17308701   
   1643000   504.33435      1356.7516      1861.086       188.0974       303.6438       0.17005286   
   1644000   493.2678       1342.6728      1835.9406      198.00543      300.49294      0.16754565   
   1645000   508.71706      1343.9718      1852.6889      202.68947      300.78365      0.16483085   
   1646000   499.60255      1349.5107      1849.1132      160.70472      302.02326      0.16038431   
   1647000   500.81529      1329.7155      1830.5308      95.755549      297.59306      0.15578835   
   1648000   551.37216      1304.4978      1855.87        72.16871       291.94929      0.15289666   
   1649000   529.46064      1333.2527      1862.7134      96.487185      298.38469      0.15238681   
   1650000   504.50464      1375.5904      1880.0951      145.0013       307.85996      0.1582224    
   1651000   474.48221      1309.0627      1783.5449      167.15763      292.97093      0.16823936   
   1652000   497.43911      1313.163       1810.6021      158.82607      293.88858      0.17170144   
   1653000   491.17436      1327.8746      1819.049       138.73445      297.18106      0.16972341   
   1654000   477.51424      1336.1119      1813.6261      98.049604      299.02458      0.16312082   
   1655000   507.84122      1319.1857      1827.027       78.787927      295.23648      0.15890124   
   1656000   496.52469      1314.3234      1810.8481      40.291049      294.14827      0.15775654   
   1657000   497.79512      1287.9546      1785.7497      82.64404       288.24688      0.16087168   
   1658000   505.93917      1300.4143      1806.3535      115.63216      291.03539      0.1657287    
   1659000   498.7221       1318.2128      1816.9349      146.01463      295.01872      0.16864463   
   1660000   476.83448      1346.6651      1823.4996      142.84547      301.38642      0.16882203   
   1661000   494.98762      1298.6131      1793.6007      134.90822      290.63227      0.16838542   
   1662000   529.487        1309.3133      1838.8004      114.92725      293.02701      0.16675161   
   1663000   513.42815      1331.56        1844.9881      120.21726      298.00586      0.16560059   
   1664000   505.30176      1330.9384      1836.2402      135.18354      297.86675      0.16512132   
   1665000   485.37902      1325.8723      1811.2514      154.44668      296.73295      0.16585325   
   1666000   485.05294      1345.2675      1830.3205      176.91395      301.07364      0.16840868   
   1667000   507.67649      1315.9119      1823.5884      127.9098       294.50378      0.16907737   
   1668000   493.44568      1349.6955      1843.1412      99.87751       302.06462      0.16951882   
   1669000   510.26359      1328.5837      1838.8473      141.35028      297.33976      0.17031458   
   1670000   465.4297       1306.966       1772.3957      81.288258      292.50167      0.17131335   
   1671000   482.49807      1324.7791      1807.2772      122.48567      296.48828      0.17278518   
   1672000   489.72697      1357.1481      1846.8751      161.61653      303.73253      0.17300367   
   1673000   507.21383      1348.2281      1855.442       198.31128      301.73623      0.16792281   
   1674000   502.88449      1320.0262      1822.9107      276.37056      295.42458      0.16205576   
   1675000   496.41986      1364.6884      1861.1083      276.95798      305.42006      0.15980157   
   1676000   508.29633      1408.3372      1916.6336      251.39583      315.18876      0.15976533   
   1677000   513.28881      1359.422       1872.7108      166.945        304.24143      0.16082981   
   1678000   492.82545      1378.4453      1871.2708      77.695944      308.49889      0.1645208    
   1679000   484.04739      1327.6132      1811.6606      12.109378      297.12256      0.16835832   
   1680000   467.08217      1344.5437      1811.6259      11.858637      300.91164      0.16988704   
   1681000   487.15862      1328.5779      1815.7365      39.832456      297.33845      0.17122444   
   1682000   502.90062      1298.618       1801.5186      98.139005      290.63338      0.17217746   
   1683000   493.75566      1343.7804      1837.5361      142.74924      300.74081      0.16972156   
   1684000   505.35636      1321.5917      1826.9481      170.69791      295.77494      0.16370295   
   1685000   531.44815      1322.9718      1854.4199      170.72028      296.08379      0.15897296   
   1686000   548.76488      1284.422       1833.1869      155.95803      287.45629      0.15783219   
   1687000   481.2351       1316.4104      1797.6455      127.65372      294.61535      0.15999063   
   1688000   486.04749      1342.3968      1828.4443      130.65927      300.43115      0.16598165   
   1689000   492.40676      1295.8248      1788.2315      100.77564      290.00824      0.17109746   
   1690000   495.84883      1322.2175      1818.0663      121.49123      295.91499      0.17346311   
   1691000   452.6924       1308.773       1761.4654      122.15675      292.90608      0.17375416   
   1692000   488.10002      1350.4089      1838.5089      114.68282      302.22428      0.17295841   
   1693000   531.6159       1337.3696      1868.9855      90.014649      299.30606      0.16913183   
   1694000   501.48707      1364.0151      1865.5022      71.134475      305.26938      0.16601701   
   1695000   496.89123      1367.4252      1864.3164      76.958271      306.03256      0.16488596   
   1696000   517.45923      1385.4956      1902.9548      124.50954      310.07676      0.16444453   
   1697000   529.25815      1348.2383      1877.4964      170.17369      301.73849      0.16340102   
   1698000   524.60255      1353.693       1878.2956      126.55175      302.95928      0.15930002   
   1699000   516.95766      1356.3483      1873.306       120.20011      303.55354      0.15471118   
   1700000   545.11777      1358.7286      1903.8463      128.30789      304.08624      0.15484456   
   1701000   553.39673      1384.1922      1937.5889      121.25566      309.78505      0.1582209    
   1702000   503.39459      1392.9855      1896.3801      112.40714      311.75302      0.16456752   
   1703000   507.85841      1365.8588      1873.7172      94.571242      305.682        0.16995419   
   1704000   495.97834      1347.7576      1843.7359      88.576282      301.63092      0.17146699   
   1705000   505.42956      1355.7634      1861.1929      127.44811      303.42263      0.17122841   
   1706000   509.80349      1367.6156      1877.4191      169.60518      306.07517      0.16991349   
   1707000   518.6877       1371.8877      1890.5754      121.60764      307.03129      0.16711435   
   1708000   506.51586      1388.368       1894.8839      114.36738      310.71961      0.16507926   
   1709000   512.48692      1304.2486      1816.7355      154.30772      291.89351      0.16536428   
   1710000   486.5114       1327.843       1814.3544      136.62702      297.174        0.16591175   
   1711000   500.49195      1328.9845      1829.4764      164.42055      297.42945      0.16675434   
   1712000   512.50129      1338.35        1850.8513      134.62339      299.52548      0.16556223   
   1713000   518.72235      1333.2634      1851.9858      129.93721      298.38709      0.16208009   
   1714000   529.00461      1328.8235      1857.8281      144.60933      297.39343      0.1582474    
   1715000   508.34506      1301.5586      1809.9037      147.86636      291.29148      0.15233918   
   1716000   539.89397      1306.3321      1846.2261      133.2122       292.3598       0.14926383   
   1717000   495.71546      1325.1362      1820.8517      113.78498      296.5682       0.1512391    
   1718000   493.28131      1324.6704      1817.9517      56.427559      296.46395      0.15871996   
   1719000   497.22402      1318.2882      1815.5123      77.66373       295.03561      0.16519161   
   1720000   520.66294      1352.1999      1872.8629      110.89563      302.62512      0.16535674   
   1721000   522.85727      1374.6809      1897.5382      157.89965      307.65641      0.16243125   
   1722000   494.41125      1390.568       1884.9792      201.65097      311.21196      0.15894528   
   1723000   543.70024      1352.6225      1896.3228      134.17214      302.7197       0.15621936   
   1724000   549.14454      1354.7867      1903.9313      61.738434      303.20405      0.15767846   
   1725000   505.09869      1373.7663      1878.865       66.823298      307.45172      0.16280143   
   1726000   492.93222      1374.9081      1867.8403      86.754113      307.70726      0.16879604   
   1727000   474.33966      1381.2487      1855.5884      128.93449      309.1263       0.17056341   
   1728000   496.94479      1368.3066      1865.2514      164.48643      306.22983      0.1696015    
   1729000   517.67821      1340.4096      1858.0878      245.31296      299.98642      0.16674504   
   1730000   531.51353      1368.4638      1899.9774      248.00869      306.26501      0.16238408   
   1731000   523.34567      1336.52        1859.8657      209.24106      299.11593      0.1611461    
   1732000   507.11746      1328.5971      1835.7145      120.00973      297.34275      0.16175751   
   1733000   525.85496      1274.2769      1800.1319      71.509259      285.18579      0.163408     
   1734000   491.9749       1280.1515      1772.1264      29.748377      286.50054      0.16518893   
   1735000   503.32086      1303.1865      1806.5073      40.962265      291.65581      0.16571626   
   1736000   486.44766      1322.4792      1808.9269      64.661972      295.97357      0.16345662   
   1737000   489.26964      1371.2093      1860.479       130.06753      306.87947      0.16191505   
   1738000   496.84067      1374.2783      1871.119       182.7952       307.5663       0.16012113   
   1739000   488.85728      1366.9166      1855.7739      221.95619      305.91874      0.1607544    
   1740000   498.32974      1360.5333      1858.863       207.69585      304.49015      0.16537714   
   1741000   506.34216      1365.2252      1871.5673      144.18567      305.5402       0.17147801   
   1742000   496.56532      1402.8894      1899.4548      154.1442       313.96954      0.17753656   
   1743000   486.10601      1387.6521      1873.7581      230.28646      310.55939      0.18182236   
   1744000   486.93086      1343.2597      1830.1905      225.60352      300.62427      0.18063546   
   1745000   496.35463      1348.9604      1845.315       250.41407      301.90011      0.17721784   
   1746000   515.9753       1350.6288      1866.6041      235.5086       302.27349      0.17335823   
   1747000   503.47023      1353.5089      1856.9792      134.67172      302.91808      0.16835704   
   1748000   525.55165      1336.8547      1862.4064      44.362037      299.19083      0.16426037   
   1749000   504.95232      1362.3819      1867.3342     -16.815553      304.90387      0.16380807   
   1750000   522.69106      1338.5422      1861.2332     -38.771224      299.56849      0.16602236   
   1751000   522.46459      1336.8332      1859.2978      11.8962        299.18602      0.16813273   
   1752000   498.94733      1348.9452      1847.8925      45.469645      301.8967       0.17130222   
   1753000   466.55307      1322.8588      1789.4119      138.53513      296.05852      0.17369593   
   1754000   491.80085      1305.5996      1797.4004      246.27936      292.19586      0.17567804   
   1755000   483.84136      1311.7748      1795.6162      271.54836      293.5779       0.17503274   
   1756000   499.21904      1334.7224      1833.9414      236.15052      298.71361      0.17170219   
   1757000   502.61687      1331.6513      1834.2682      161.78384      298.0263       0.16381337   
   1758000   506.13097      1326.3259      1832.4569      180.56424      296.83446      0.15870089   
   1759000   497.6863       1333.7368      1831.4231      125.9694       298.49304      0.1582716    
   1760000   505.6328       1304.7981      1810.4309      125.86491      292.01648      0.16142051   
   1761000   480.9656       1304.9137      1785.8793      171.56399      292.04237      0.16440406   
   1762000   498.75714      1306.7457      1805.5028      167.93381      292.45237      0.16527514   
   1763000   461.4292       1344.0591      1805.4883      205.53153      300.80319      0.16551951   
   1764000   520.4651       1319.1632      1839.6283      187.38678      295.23142      0.16399268   
   1765000   471.74828      1319.6246      1791.3729      160.56899      295.3347       0.16229978   
   1766000   507.8582       1340.1726      1848.0308      76.415038      299.93337      0.16098237   
   1767000   526.33201      1305.7932      1832.1252      20.012771      292.2392       0.15540388   
   1768000   555.40526      1343.4372      1898.8425      12.716527      300.66401      0.14808684   
   1769000   523.33688      1361.1546      1884.4914      123.69669      304.62919      0.14625842   
   1770000   518.33902      1375.1348      1893.4738      162.49214      307.75798      0.14824391   
   1771000   530.42738      1354.549       1884.9764      143.89552      303.15086      0.15264897   
   1772000   522.64436      1376.5212      1899.1656      114.93965      308.06828      0.15669415   
   1773000   522.2648       1390.3215      1912.5863      96.482578      311.1568       0.15925844   
   1774000   543.33502      1388.6927      1932.0277      41.828013      310.79228      0.16115571   
   1775000   517.98885      1359.2858      1877.2747      139.03763      304.21095      0.16497216   
   1776000   488.96165      1365.9545      1854.9161      183.48086      305.70342      0.16744746   
   1777000   491.0971       1385.1042      1876.2013      230.61376      309.98917      0.16937592   
   1778000   495.82979      1368.0185      1863.8483      202.83079      306.16535      0.17183484   
   1779000   513.81646      1381.4424      1895.2589      175.16944      309.16965      0.17578423   
   1780000   494.02224      1349.2715      1843.2938      138.00291      301.96974      0.17908721   
   1781000   495.42507      1337.827       1833.252       115.35001      299.40842      0.17847216   
   1782000   502.81207      1356.7167      1859.5288      54.459603      303.63598      0.17106866   
   1783000   500.49381      1335.3593      1835.8531      56.642251      298.85615      0.1650758    
   1784000   493.16088      1294.5202      1787.6811      52.501597      289.71629      0.16007791   
   1785000   513.61436      1293.0827      1806.6971      66.375695      289.39457      0.15581167   
   1786000   492.42583      1351.214       1843.6398      112.02205      302.40446      0.15612348   
   1787000   528.48651      1299.1722      1827.6587      157.09502      290.7574       0.16105216   
   1788000   499.77514      1268.1633      1767.9385      230.84795      283.81756      0.16755775   
   1789000   452.26113      1318.2151      1770.4762      241.07536      295.01924      0.17084522   
   1790000   501.22871      1323.0189      1824.2476      178.55001      296.09434      0.17024236   
   1791000   497.12244      1329.7402      1826.8627      118.42936      297.59859      0.16774558   
   1792000   502.41617      1331.2196      1833.6357      100.07272      297.92967      0.16398301   
   1793000   518.27661      1302.3905      1820.6671      78.577296      291.47767      0.16222425   
   1794000   513.90416      1328.7351      1842.6393      104.49424      297.37364      0.16303711   
   1795000   499.05661      1351.2268      1850.2834      118.11868      302.40733      0.16488015   
   1796000   492.77099      1384.6345      1877.4055      185.39879      309.88404      0.17104141   
   1797000   509.25402      1367.9945      1877.2485      184.52652      306.15998      0.17606793   
   1798000   515.25447      1376.1453      1891.3997      187.5223       307.98413      0.17787138   
   1799000   495.17551      1379.9478      1875.1233      162.00415      308.83515      0.17485882   
   1800000   492.644        1361.2227      1853.8667      122.06132      304.64443      0.16819428   
   1801000   510.34699      1331.9069      1842.2539      109.56165      298.0835       0.163034     
   1802000   514.77955      1309.7494      1824.5289      136.36442      293.1246       0.16271266   
   1803000   503.09224      1331.7138      1834.8061      170.38245      298.04029      0.16604904   
   1804000   477.23847      1295.5823      1772.8208      181.87861      289.95398      0.16937909   
   1805000   480.34561      1319.5944      1799.94        164.6581       295.32793      0.17277224   
   1806000   503.26388      1325.4016      1828.6655      130.25777      296.6276       0.1731862    
   1807000   499.94161      1342.9278      1842.8694      163.2961       300.55         0.1698933    
   1808000   511.37304      1332.8631      1844.2362      146.33464      298.29751      0.15981682   
   1809000   521.99397      1361.7521      1883.746       89.699383      304.76291      0.15326695   
   1810000   504.27287      1357.6521      1861.9249      85.01837       303.84532      0.15352059   
   1811000   505.52015      1371.2382      1876.7584      81.979809      306.88593      0.15658372   
   1812000   510.21361      1314.3307      1824.5443      107.44516      294.14992      0.16123851   
   1813000   531.93093      1317.0467      1848.9777      55.639986      294.75776      0.16530911   
   1814000   500.77317      1325.5631      1826.3363      59.619854      296.66375      0.16823536   
   1815000   477.12551      1300.5407      1777.6662      89.516614      291.06368      0.16902705   
   1816000   462.1728       1334.4201      1796.5929      55.648951      298.64597      0.16474305   
   1817000   521.50391      1298.0354      1819.5394      66.376521      290.503        0.16169222   
   1818000   520.88276      1307.2602      1828.143       115.65218      292.56752      0.1593988    
   1819000   511.54612      1340.0051      1851.5512      191.72638      299.89589      0.15837837   
   1820000   501.65501      1333.4426      1835.0976      197.22501      298.4272       0.15767099   
   1821000   521.01225      1302.5928      1823.6051      199.9826       291.52295      0.15762798   
   1822000   488.88678      1308.2818      1797.1685      168.61102      292.79614      0.15581581   
   1823000   520.46565      1296.4738      1816.9394      133.43157      290.1535       0.15554809   
   1824000   529.87559      1324.6414      1854.517       66.775369      296.45747      0.15945777   
   1825000   488.28294      1337.4744      1825.7573      44.023062      299.32951      0.16922028   
   1826000   485.29343      1287.0909      1772.3844      147.67689      288.05359      0.1740867    
   1827000   541.8683       1328.1333      1870.0016      129.03238      297.23896      0.16942859   
   1828000   516.0039       1359.7252      1875.7291      197.66991      304.3093       0.164152     
   1829000   520.63672      1360.1398      1880.7765      193.82605      304.40207      0.15964059   
   1830000   518.03964      1323.0726      1841.1123      189.0547       296.10637      0.15786425   
   1831000   493.75107      1354.3603      1848.1114      181.41403      303.10862      0.15922937   
   1832000   503.51424      1373.5181      1877.0324      107.62695      307.39618      0.16151671   
   1833000   535.69742      1341.2067      1876.9042      64.654839      300.16482      0.16546887   
   1834000   483.92574      1373.6351      1857.5608      41.76503       307.42236      0.16925111   
   1835000   523.81841      1321.5838      1845.4022      48.171689      295.77316      0.17390477   
   1836000   482.49482      1335.1845      1817.6793      43.551892      298.81702      0.17604605   
   1837000   502.79236      1336.2519      1839.0442      130.02938      299.05591      0.17748754   
   1838000   485.81076      1328.8163      1814.627       194.13885      297.39181      0.17159325   
   1839000   544.3986       1335.861       1880.2596      240.55811      298.96843      0.16384514   
   1840000   517.92567      1370.4834      1888.4091      231.83417      306.717        0.15972722   
   1841000   524.70433      1326.8195      1851.5238      225.65938      296.94493      0.15887427   
   1842000   528.18026      1317.2052      1845.3854      129.26798      294.79322      0.16079433   
   1843000   517.45503      1289.0974      1806.5525      59.311868      288.50265      0.16610888   
   1844000   503.58523      1313.1352      1816.7204      56.556481      293.88235      0.17083748   
   1845000   505.77123      1337.7991      1843.5704      80.301361      299.40219      0.17116309   
   1846000   494.9678       1367.0032      1861.971       148.02234      305.93812      0.17121749   
   1847000   512.60111      1365.5219      1878.123       170.42445      305.6066       0.16980969   
   1848000   515.03683      1340.2134      1855.2503      131.42223      299.94252      0.16616706   
   1849000   551.31667      1347.0933      1898.4099      130.18824      301.48224      0.16477911   
   1850000   532.19437      1413.9513      1946.1457      107.02223      316.4452       0.16244581   
   1851000   524.09633      1334.6982      1858.7945      73.089973      298.7082       0.16027467   
   1852000   539.77239      1321.4247      1861.1971      61.068926      295.73757      0.15989885   
   1853000   532.05464      1345.9643      1878.0189      38.931921      301.22957      0.15876145   
   1854000   524.67398      1394.4275      1919.1015      104.79979      312.07574      0.15970908   
   1855000   521.5999       1367.8646      1889.4645      152.16956      306.1309       0.16261719   
   1856000   538.51309      1351.0775      1889.5906      196.12892      302.37392      0.16685197   
   1857000   519.62107      1375.9804      1895.6014      213.66065      307.94723      0.16949841   
   1858000   515.73213      1371.9929      1887.725       203.92904      307.05483      0.16955174   
   1859000   523.1513       1351.9802      1875.1315      145.42568      302.57593      0.17033511   
   1860000   506.37279      1373.8409      1880.2137      124.87583      307.46842      0.1748254    
   1861000   484.06229      1414.0449      1898.1072      164.52074      316.46616      0.17848245   
   1862000   518.71567      1373.1913      1891.9069      191.00807      307.32303      0.17667001   
   1863000   512.06082      1378.5128      1890.5736      259.39867      308.514        0.17045835   
   1864000   505.20316      1371.546       1876.7491      281.52502      306.95481      0.16435218   
   1865000   552.05491      1317.5193      1869.5742      235.73798      294.86351      0.16138119   
   1866000   521.65008      1333.3925      1855.0426      148.59851      298.41598      0.1599355    
   1867000   528.09148      1355.0999      1883.1914      65.660863      303.27414      0.16169605   
   1868000   528.9055       1380.5858      1909.4913      47.250794      308.97793      0.16358273   
   1869000   481.03447      1376.9057      1857.9401      25.454385      308.15432      0.16315557   
   1870000   540.4839       1345.9501      1886.434       29.880025      301.22639      0.16271173   
   1871000   534.74774      1336.3251      1871.0728      75.029326      299.0723       0.16304077   
   1872000   530.33044      1387.9923      1918.3227      176.23502      310.63553      0.16464808   
   1873000   533.2174       1409.963       1943.1804      255.31869      315.55261      0.16668315   
   1874000   502.53059      1357.8114      1860.342       278.11493      303.88098      0.16777884   
   1875000   512.27098      1381.9638      1894.2348      243.02722      309.28634      0.17126511   
   1876000   476.7815       1326.9321      1803.7136      193.98106      296.97012      0.17508337   
   1877000   482.89497      1300.5768      1783.4718      69.191736      291.07177      0.17864666   
   1878000   468.37879      1289.2528      1757.6316      39.668086      288.53743      0.18502508   
   1879000   467.1117       1321.233       1788.3447      0.92167698     295.69466      0.19176919   
   1880000   504.09741      1308.2322      1812.3296      66.003865      292.78505      0.1909892    
   1881000   475.00363      1304.3105      1779.3141      172.35369      291.90736      0.18039857   
   1882000   482.09184      1380.3407      1862.4326      262.07297      308.92309      0.17481288   
   1883000   505.86641      1355.6994      1861.5658      265.35235      303.40831      0.17037893   
   1884000   522.48884      1315.1586      1837.6474      202.6098       294.33519      0.16638122   
   1885000   483.13667      1332.8883      1816.025       170.45212      298.30314      0.16684752   
   1886000   488.55706      1353.819       1842.3761      139.794        302.98748      0.16890275   
   1887000   514.77201      1342.2678      1857.0398      145.29978      300.40229      0.16942803   
   1888000   534.53543      1392.8558      1927.3912      107.39566      311.72399      0.16934923   
   1889000   508.10259      1400.1689      1908.2715      137.46676      313.36067      0.16671667   
   1890000   518.85019      1355.0987      1873.9489      111.93408      303.27387      0.16070548   
   1891000   557.22334      1315.2915      1872.5148      137.30702      294.36494      0.15635409   
   1892000   513.67934      1322.8852      1836.5646      75.768595      296.06443      0.15349497   
   1893000   510.39368      1278.9583      1789.3519      95.410675      286.23348      0.15565735   
   1894000   501.75739      1318.593       1820.3504      103.18733      295.10382      0.16259494   
   1895000   483.60007      1346.8179      1830.418       153.27507      301.42062      0.16832402   
   1896000   490.53396      1325.4748      1816.0088      175.60256      296.64398      0.16988584   
   1897000   541.26388      1314.8354      1856.0993      184.75159      294.26286      0.16901778   
   1898000   492.9408       1385.0915      1878.0323      157.3903       309.98633      0.16535122   
   1899000   503.41511      1357.8877      1861.3028      144.96374      303.89804      0.16299079   
   1900000   529.48908      1358.429       1887.9181      167.49791      304.0192       0.16262715   
   1901000   504.74036      1372.2704      1877.0108      192.22024      307.11693      0.1641655    
   1902000   505.09846      1335.5718      1840.6703      200.87956      298.90372      0.16567801   
   1903000   497.13958      1287.4994      1784.639       180.27617      288.14501      0.16672407   
   1904000   524.91521      1275.645       1800.5602      136.49895      285.49197      0.16775728   
   1905000   488.41139      1316.0511      1804.4625      151.23267      294.53495      0.16902043   
   1906000   510.71886      1325.6023      1836.3212      152.66161      296.67251      0.16913654   
   1907000   496.59837      1325.0009      1821.5993      191.82866      296.53792      0.16792656   
   1908000   488.60048      1327.5977      1816.1982      266.69742      297.11909      0.1668757    
   1909000   487.84008      1261.0118      1748.8518      256.72535      282.21702      0.16693889   
   1910000   506.44127      1294.8386      1801.2799      211.90159      289.78755      0.17107934   
   1911000   498.82591      1323.0349      1821.8608      127.88316      296.09792      0.17687964   
   1912000   483.78297      1328.9234      1812.7063      50.243208      297.41577      0.17982157   
   1913000   493.79113      1291.2259      1785.0171      50.184021      288.97901      0.17868532   
   1914000   502.62455      1334.9998      1837.6244      55.9478        298.7757       0.17218433   
   1915000   518.74704      1339.3229      1858.0699      150.81806      299.74321      0.16693979   
   1916000   497.8859       1376.0208      1873.9067      230.77433      307.95629      0.16496908   
   1917000   535.8728       1360.5845      1896.4573      308.52498      304.50161      0.16466567   
   1918000   513.11627      1339.2569      1852.3731      260.08846      299.72844      0.16407385   
   1919000   529.75218      1349.4916      1879.2438      153.8339       302.019        0.16559993   
   1920000   519.78584      1356.1173      1875.9032      26.478959      303.50185      0.16637769   
   1921000   501.11062      1334.787       1835.8977     -21.161428      298.72808      0.16861785   
   1922000   521.86552      1312.1874      1834.0529     -9.5137127      293.67023      0.17306557   
   1923000   482.72679      1345.5958      1828.3226      92.111486      301.1471       0.17966585   
   1924000   476.79333      1379.6922      1856.4855      185.86674      308.77794      0.18718529   
   1925000   485.12799      1328.4447      1813.5727      155.27741      297.30865      0.18606456   
   1926000   498.51055      1316.6351      1815.1456      132.24737      294.66563      0.1819139    
   1927000   469.63943      1312.6602      1782.2996      61.985617      293.77605      0.17722919   
   1928000   500.48868      1360.0504      1860.5391      14.703797      304.38208      0.17342848   
   1929000   527.1013       1327.1135      1854.2148     -52.069768      297.01073      0.16915777   
   1930000   536.83923      1320.6559      1857.4951     -49.361115      295.56549      0.16756926   
   1931000   495.69671      1348.7762      1844.4729     -28.35796       301.85888      0.16627782   
   1932000   527.42989      1315.6322      1843.062       70.915305      294.44118      0.16613047   
   1933000   512.15059      1345.4772      1857.6278      180.35165      301.12057      0.16695601   
   1934000   498.54783      1359.5656      1858.1134      242.06688      304.27356      0.16868262   
   1935000   513.52344      1368.9073      1882.4307      268.20564      306.36426      0.16896946   
   1936000   507.8022       1388.8283      1896.6305      250.10571      310.82262      0.1693301    
   1937000   514.75292      1378.8584      1893.6114      225.18694      308.59135      0.16707662   
   1938000   513.38534      1338.5444      1851.9297      121.70698      299.56898      0.16142771   
   1939000   522.46499      1357.9408      1880.4058      120.54902      303.90994      0.15830139   
   1940000   522.86935      1369.0585      1891.9278      68.020811      306.3981       0.15705854   
   1941000   558.2999       1354.6633      1912.9632      99.266545      303.17644      0.15844758   
   1942000   491.87685      1345.3701      1837.247       129.92749      301.09659      0.16200645   
   1943000   506.94202      1338.1696      1845.1116      135.18285      299.4851       0.16944276   
   1944000   485.80049      1329.5054      1815.3059      135.16181      297.54603      0.17557151   
   1945000   497.5107       1336.0221      1833.5328      173.21095      299.00448      0.17630553   
   1946000   495.83416      1280.1205      1775.9547      118.08782      286.4936       0.17100307   
   1947000   504.49787      1309.423       1813.9209      60.461436      293.05156      0.16627769   
   1948000   501.23374      1315.1359      1816.3697      48.003248      294.33012      0.16587329   
   1949000   525.08064      1317.7343      1842.8149      54.386895      294.91163      0.167218     
   1950000   485.57849      1323.0735      1808.652       113.21281      296.10657      0.16838873   
   1951000   489.13741      1284.8145      1773.9519      167.79753      287.54412      0.16888968   
   1952000   515.20654      1282.1577      1797.3642      187.67657      286.94952      0.16843876   
   1953000   477.46084      1359.4692      1836.93        222.57225      304.25199      0.16788806   
   1954000   514.60984      1315.579       1830.1889      207.68045      294.42929      0.16662978   
   1955000   498.32304      1330.5598      1828.8828      177.39679      297.78201      0.16311623   
   1956000   517.75919      1316.7416      1834.5007      126.23156      294.68946      0.15825415   
   1957000   491.46716      1301.7908      1793.258       120.92229      291.34346      0.15589523   
   1958000   547.18184      1302.4921      1849.6739      86.59323       291.50041      0.15689749   
   1959000   493.10533      1337.2147      1830.32        109.71795      299.27139      0.16152792   
   1960000   492.74947      1302.3607      1795.1102      154.93267      291.47099      0.16817564   
   1961000   498.21943      1330.7395      1828.959       155.76618      297.82224      0.1702841    
   1962000   505.67716      1310.5282      1816.2054      166.66399      293.2989       0.16813688   
   1963000   504.88228      1345.5344      1850.4167      181.55777      301.13337      0.16725271   
   1964000   501.62973      1335.2244      1836.8542      196.16458      298.82597      0.16996283   
   1965000   469.32043      1333.9306      1803.251       178.35691      298.53641      0.17390274   
   1966000   473.1524       1339.1689      1812.3213      143.55522      299.70874      0.17446308   
   1967000   508.38931      1327.9178      1836.3071      111.64929      297.19072      0.1714536    
   1968000   531.11013      1298.2998      1829.41        81.123972      290.56217      0.16499895   
   1969000   526.30573      1322.4015      1848.7072      88.552659      295.95616      0.15940813   
   1970000   504.51999      1329.1746      1833.6946      110.28553      297.472        0.1581299    
   1971000   506.01689      1313.3792      1819.3961      118.57173      293.93697      0.15892415   
   1972000   497.11934      1285.6102      1782.7295      140.36851      287.7222       0.16302286   
   1973000   490.35301      1315.8088      1806.1618      167.51674      294.48071      0.16868388   
   1974000   486.71421      1328.0312      1814.7454      112.59505      297.2161       0.16993437   
   1975000   508.50093      1318.5396      1827.0405      103.95654      295.09186      0.16881704   
   1976000   505.85         1293.0551      1798.9051      93.985225      289.38838      0.16755371   
   1977000   512.30007      1315.9888      1828.2888      144.76446      294.52098      0.1653546    
   1978000   505.81314      1332.4939      1838.307       145.37304      298.21487      0.16238518   
   1979000   532.82832      1305.7117      1838.54        206.71959      292.22095      0.16305025   
   1980000   528.09788      1365.241       1893.3389      190.03438      305.54373      0.16247238   
   1981000   515.47008      1340.3838      1855.8539      211.64603      299.98065      0.15822726   
   1982000   539.22251      1336.851       1876.0735      147.87652      299.18999      0.15035886   
   1983000   551.27343      1314.8153      1866.0887      104.66672      294.25836      0.14853766   
   1984000   543.94131      1339.1568      1883.0981      111.07933      299.70605      0.15475876   
   1985000   505.25926      1378.3694      1883.6287      146.08695      308.48191      0.16009609   
   1986000   512.49741      1362.2008      1874.6982      177.55376      304.86334      0.16212035   
   1987000   532.17043      1352.7488      1884.9192      175.1639       302.74795      0.16179782   
   1988000   514.18382      1350.1         1864.2839      199.01444      302.15516      0.16492463   
   1989000   528.74985      1381.0419      1909.7917      204.30747      309.08001      0.17002523   
   1990000   540.34495      1383.7288      1924.0737      205.92558      309.68134      0.17032625   
   1991000   510.08742      1358.8182      1868.9057      190.96476      304.10631      0.1674356    
   1992000   525.8641       1333.9323      1859.7964      124.45223      298.53679      0.16443285   
   1993000   502.38946      1348.8571      1851.2466      63.473051      301.87699      0.16334054   
   1994000   498.14083      1300.317       1798.4578      26.455778      291.01361      0.16368207   
   1995000   499.33727      1333.3686      1832.7058      36.546345      298.41062      0.16884668   
   1996000   468.76427      1344.9549      1813.7192      97.21559       301.00368      0.17659541   
   1997000   490.20431      1336.8298      1827.0341      137.58017      299.18525      0.18086114   
   1998000   490.83077      1312.5351      1803.3659      152.30335      293.74805      0.18073006   
   1999000   470.22086      1305.5243      1775.7452      143.95944      292.17902      0.17900859   
   2000000   485.96117      1312.7074      1798.6685      121.8043       293.7866       0.17522591   
Loop time of 10784.4 on 8 procs for 2000000 steps with 1500 atoms

Performance: 8.012 ns/day, 2.996 hours/ns, 185.453 timesteps/s, 278.179 katom-step/s
99.3% CPU use with 8 MPI tasks x 1 OpenMP threads

MPI task timing breakdown:
Section |  min time  |  avg time  |  max time  |%varavg| %total
---------------------------------------------------------------
Pair    | 351.58     | 363.38     | 379.12     |  46.8 |  3.37
Bond    | 20.692     | 21.602     | 22.34      |  10.8 |  0.20
Kspace  | 4969.2     | 4984.3     | 4996.3     |  13.0 | 46.22
Neigh   | 6.2885     | 6.2965     | 6.3074     |   0.2 |  0.06
Comm    | 172.82     | 173.12     | 173.63     |   2.1 |  1.61
Output  | 0.13383    | 0.14047    | 0.18634    |   4.6 |  0.00
Modify  | 4642       | 4924.2     | 5187.3     | 310.5 | 45.66
Other   |            | 311.4      |            |       |  2.89

Nlocal:          187.5 ave         210 max         162 min
Histogram: 1 1 0 1 0 2 1 0 0 2
Nghost:         1774.5 ave        1821 max        1739 min
Histogram: 1 2 1 0 0 2 0 0 1 1
Neighs:        15238.4 ave       18902 max       13231 min
Histogram: 3 0 1 2 0 0 0 1 0 1

Total # of neighbors = 121907
Ave neighs/atom = 81.271333
Ave special neighs/atom = 2
Neighbor list builds = 12407
Dangerous builds = 0
System init for write_data ...
PPPM initialization ...
  using 12-bit tables for long-range coulomb (src/kspace.cpp:342)
  G vector (1/distance) = 0.26953023
  grid = 48 48 48
  stencil order = 5
  estimated absolute RMS force accuracy = 0.00038028065
  estimated relative force accuracy = 1.1452039e-06
  using single precision FFTW3
  3d grid and FFT values/proc = 29791 13824
Generated 1 of 1 mixed pair_coeff terms from arithmetic mixing rule
Last active /omp style is kspace_style pppm/omp
