LAMMPS (19 Nov 2024)
OMP_NUM_THREADS environment is not set. Defaulting to 1 thread. (src/comm.cpp:99)
  using 1 OpenMP thread(s) per MPI task
using multi-threaded neighbor list subroutines
Reading data file ...
  orthogonal box = (0 0 0) to (51.724067 51.724067 51.724067)
  2 by 2 by 2 MPI processor grid
  reading atoms ...
  1500 atoms
  scanning bonds ...
  1 = max bonds/atom
  scanning angles ...
  1 = max angles/atom
  orthogonal box = (0 0 0) to (51.724067 51.724067 51.724067)
  2 by 2 by 2 MPI processor grid
  reading bonds ...
  1000 bonds
  reading angles ...
  500 angles
Finding 1-2 1-3 1-4 neighbors ...
  special bond factors lj:    0        0        0       
  special bond factors coul:  0        0        0       
     2 = max # of 1-2 neighbors
     1 = max # of 1-3 neighbors
     1 = max # of 1-4 neighbors
     2 = max # of special neighbors
  special bonds CPU = 0.000 seconds
  read_data CPU = 0.051 seconds
Setting atom values ...
  1000 settings made for charge
Setting atom values ...
  500 settings made for charge
1000 atoms in group oxy
500 atoms in group carb
PPPM initialization ...
  using 12-bit tables for long-range coulomb (src/kspace.cpp:342)
  G vector (1/distance) = 0.26873989
  grid = 48 48 48
  stencil order = 5
  estimated absolute RMS force accuracy = 0.00039673335
  estimated relative force accuracy = 1.1947507e-06
  using single precision FFTW3
  3d grid and FFT values/proc = 29791 13824
Generated 1 of 1 mixed pair_coeff terms from arithmetic mixing rule
Last active /omp style is kspace_style pppm/omp
Neighbor list info ...
  update: every = 1 steps, delay = 0 steps, check = yes
  max neighbors/atom: 2000, page size: 100000
  master list distance cutoff = 15
  ghost atom cutoff = 15
  binsize = 7.5, bins = 7 7 7
  1 neighbor lists, perpetual/occasional/extra = 1 0 0
  (1) pair lj/cut/coul/long/omp, perpetual
      attributes: half, newton on, omp
      pair build: half/bin/newton/omp
      stencil: half/bin/3d
      bin: standard
Setting up cg style minimization ...
  Unit style    : real
  Current step  : 0
Per MPI rank memory allocation (min/avg/max) = 9.589 | 9.598 | 9.606 Mbytes
   Step          Temp          E_pair         E_mol          TotEng         Press     
         0   0              28.434711      1.5236362e-05  28.434727      388.82384    
      9001   0             -543.99967      0.32216215    -543.6775      -14.66071     
Loop time of 51.3063 on 8 procs for 9001 steps with 1500 atoms

99.2% CPU use with 8 MPI tasks x 1 OpenMP threads

Minimization stats:
  Stopping criterion = energy tolerance
  Energy initial, next-to-last, final = 
      28.4347266566101  -543.677392908831  -543.677503133579
  Force two-norm initial, final = 108.91174 0.53436756
  Force max component initial, final = 14.210619 0.10736041
  Final line search alpha, max atom move = 0.5812229 0.06240033
  Iterations, force evaluations = 9001 17999

MPI task timing breakdown:
Section |  min time  |  avg time  |  max time  |%varavg| %total
---------------------------------------------------------------
Pair    | 4.3267     | 7.9036     | 10.742     |  85.8 | 15.40
Bond    | 0.14897    | 0.173      | 0.21119    |   5.3 |  0.34
Kspace  | 37.884     | 40.759     | 44.377     |  38.2 | 79.44
Neigh   | 0.024568   | 0.024776   | 0.024914   |   0.1 |  0.05
Comm    | 1.8744     | 1.9088     | 1.9295     |   1.3 |  3.72
Output  | 0          | 0          | 0          |   0.0 |  0.00
Modify  | 0.048788   | 0.053902   | 0.057782   |   1.6 |  0.11
Other   |            | 0.4836     |            |       |  0.94

Nlocal:          187.5 ave         269 max         117 min
Histogram: 2 0 2 0 0 1 1 0 0 2
Nghost:           1910 ave        1978 max        1790 min
Histogram: 1 0 1 0 0 0 1 3 1 1
Neighs:        21072.8 ave       35939 max        6855 min
Histogram: 1 1 1 0 1 1 0 2 0 1

Total # of neighbors = 168582
Ave neighs/atom = 112.388
Ave special neighs/atom = 2
Neighbor list builds = 38
Dangerous builds = 0
PPPM initialization ...
  using 12-bit tables for long-range coulomb (src/kspace.cpp:342)
  G vector (1/distance) = 0.26873989
  grid = 48 48 48
  stencil order = 5
  estimated absolute RMS force accuracy = 0.00039673335
  estimated relative force accuracy = 1.1947507e-06
  using single precision FFTW3
  3d grid and FFT values/proc = 29791 13824
Generated 1 of 1 mixed pair_coeff terms from arithmetic mixing rule
Last active /omp style is kspace_style pppm/omp
Setting up Verlet run ...
  Unit style    : real
  Current step  : 9001
  Time step     : 0.1
Per MPI rank memory allocation (min/avg/max) = 8.482 | 8.483 | 8.485 Mbytes
   Step         PotEng         KinEng         TotEng         Press           Temp        v_Density   
      9001  -543.6775       1340.4703      796.79278      428.14381      300            0.16747647   
     10000   249.33472      1160.8325      1410.1672      287.35735      259.79669      0.13869493   
     11000   62.433492      1424.279       1486.7125      201.85617      318.75657      0.12084802   
     12000   216.05976      1303.5476      1519.6073      134.18082      291.73663      0.1185168    
     13000   195.54458      1320.7573      1516.3019      144.9035       295.5882       0.12213156   
     14000   156.57738      1388.8177      1545.3951      195.40947      310.82025      0.12748637   
     15000   243.03027      1283.52        1526.5503      105.38602      287.25442      0.12983332   
     16000   149.4951       1425.5493      1575.0444      183.08614      319.04086      0.13725169   
     17000   250.22921      1362.0849      1612.3141      151.22282      304.8374       0.14256363   
     18000   197.67445      1400.9813      1598.6557      140.83027      313.54248      0.14778063   
     19000   230.94894      1352.0248      1582.9737      137.1511       302.58593      0.15507703   
     20000   214.98994      1367.8307      1582.8206      173.07434      306.12331      0.15811354   
     21000   233.71943      1344.6196      1578.3391      159.61414      300.92863      0.16343526   
     22000   244.83219      1346.7281      1591.5603      154.65627      301.40052      0.16561694   
     23000   255.34484      1354.0639      1609.4087      136.40823      303.04228      0.16965339   
     24000   273.43969      1351.7539      1625.1936      165.08823      302.5253       0.17286181   
     25000   247.72936      1367.9221      1615.6515      190.43634      306.14378      0.16110176   
     26000   288.98936      1320.8892      1609.8785      160.91712      295.61771      0.16085074   
     27000   255.46209      1283.8537      1539.3158      106.17782      287.32909      0.16304513   
     28000   300.63274      1295.3968      1596.0295      202.90595      289.91246      0.16728689   
     29000   279.07478      1308.5602      1587.6349      207.95865      292.85845      0.15450369   
     30000   303.63672      1325.5224      1629.1591      111.07311      296.65463      0.15275323   
     31000   291.25065      1357.0038      1648.2545      125.17518      303.70024      0.15019206   
     32000   325.64083      1337.6306      1663.2714      175.18531      299.36447      0.14983138   
     33000   304.12793      1384.5219      1688.6498      253.61401      309.85884      0.15697124   
     34000   315.12156      1340.9115      1656.0331      48.78875       300.09876      0.15028857   
     35000   309.69923      1352.7523      1662.4515      74.455738      302.74874      0.15283764   
     36000   291.70694      1366.9144      1658.6213      268.61917      305.91824      0.15630224   
     37000   325.35828      1408.1941      1733.5524      239.40554      315.15674      0.15315307   
     38000   307.00682      1373.2406      1680.2474      46.538191      307.33405      0.14966745   
     39000   312.50477      1341.5791      1654.0838      95.232049      300.24815      0.14859837   
     40000   314.36669      1361.3491      1675.7158      329.89557      304.67272      0.15203171   
     41000   327.70983      1301.4811      1629.1909      210.04227      291.27414      0.15475343   
     42000   309.81014      1319.4772      1629.2873     -33.534894      295.30171      0.16203541   
     43000   311.65363      1329.838       1641.4916      138.11572      297.62047      0.15489905   
     44000   329.56875      1341.9251      1671.4939      315.55478      300.3256       0.15140695   
     45000   302.48138      1370.7053      1673.1867      164.39817      306.76667      0.15106636   
     46000   317.21744      1284.107       1601.3245     -6.9088471      287.38579      0.15000405   
     47000   327.00174      1321.9459      1648.9477      184.65436      295.85422      0.15417179   
     48000   343.87696      1348.4561      1692.333       275.86726      301.78724      0.1548334    
     49000   321.11281      1336.2293      1657.3421      126.4094       299.05085      0.14928942   
     50000   327.32042      1336.1271      1663.4475      74.675767      299.02798      0.14843094   
     51000   327.87147      1370.7789      1698.6504      213.46801      306.78314      0.15101233   
     52000   338.7172       1359.4456      1698.1628      218.71787      304.24671      0.14580418   
     53000   362.59209      1334.7981      1697.3902      107.61897      298.73056      0.14526323   
     54000   333.80232      1382.0111      1715.8135      96.900105      309.29693      0.14469437   
     55000   343.55068      1370.6475      1714.1982      197.0499       306.75372      0.14122716   
     56000   327.61882      1361.381       1688.9998      214.04371      304.67986      0.14180076   
     57000   319.3662       1313.8121      1633.1783      105.39379      294.03385      0.15229741   
     58000   330.12735      1316.0925      1646.2198      124.14193      294.5442       0.15070797   
     59000   313.58904      1318.9617      1632.5508      194.48958      295.18634      0.14828289   
     59001   312.79871      1319.6465      1632.4452      196.1515       295.3396       0.14829467   
Loop time of 256.732 on 8 procs for 50000 steps with 1500 atoms

Performance: 1.683 ns/day, 14.263 hours/ns, 194.756 timesteps/s, 292.133 katom-step/s
99.3% CPU use with 8 MPI tasks x 1 OpenMP threads

MPI task timing breakdown:
Section |  min time  |  avg time  |  max time  |%varavg| %total
---------------------------------------------------------------
Pair    | 6.8087     | 10.361     | 13.325     |  55.2 |  4.04
Bond    | 0.48721    | 0.57099    | 0.62006    |   5.4 |  0.22
Kspace  | 119.08     | 122.16     | 125.84     |  16.6 | 47.58
Neigh   | 0.049139   | 0.049381   | 0.049533   |   0.1 |  0.02
Comm    | 5.41       | 5.4532     | 5.5153     |   1.4 |  2.12
Output  | 0.0028484  | 0.0031716  | 0.0052128  |   1.4 |  0.00
Modify  | 109.98     | 113.34     | 116.23     |  20.1 | 44.15
Other   |            | 4.795      |            |       |  1.87

Nlocal:          187.5 ave         230 max         148 min
Histogram: 1 2 0 0 0 2 1 0 1 1
Nghost:        1582.25 ave        1656 max        1512 min
Histogram: 1 0 2 1 1 0 0 1 0 2
Neighs:          13345 ave       17841 max        8812 min
Histogram: 2 1 0 0 0 0 3 0 1 1

Total # of neighbors = 106760
Ave neighs/atom = 71.173333
Ave special neighs/atom = 2
Neighbor list builds = 89
Dangerous builds = 0
PPPM initialization ...
  using 12-bit tables for long-range coulomb (src/kspace.cpp:342)
  G vector (1/distance) = 0.26864616
  grid = 50 50 50
  stencil order = 5
  estimated absolute RMS force accuracy = 0.00037400746
  estimated relative force accuracy = 1.1263124e-06
  using single precision FFTW3
  3d grid and FFT values/proc = 32768 16250
Generated 1 of 1 mixed pair_coeff terms from arithmetic mixing rule
Last active /omp style is kspace_style pppm/omp
Setting up Verlet run ...
  Unit style    : real
  Current step  : 59001
  Time step     : 0.25
Per MPI rank memory allocation (min/avg/max) = 8.667 | 8.708 | 8.82 Mbytes
   Step         PotEng         KinEng         TotEng         Press           Temp        v_Density   
     59001   312.79844      1319.6465      1632.4449      196.15224      295.3396       0.14829467   
     60000   356.86094      1384.5742      1741.4352      218.03604      309.87055      0.14968685   
     61000   362.00061      1346.0243      1708.0249      195.6056       301.24299      0.15439686   
     62000   363.64556      1338.6893      1702.3349      100.78515      299.60142      0.14603887   
     63000   345.90462      1332.0175      1677.9221      34.504994      298.10824      0.15230179   
     64000   361.12865      1300.6476      1661.7762      94.679258      291.08759      0.1483685    
     65000   364.75327      1317.5177      1682.271       183.31753      294.86317      0.14272719   
     66000   343.14741      1321.1919      1664.3393      232.29643      295.68547      0.14269701   
     67000   344.79606      1317.3047      1662.1008      206.52754      294.81549      0.15052901   
     68000   329.31702      1427.7774      1757.0945      177.29663      319.53952      0.15812601   
     69000   344.98183      1345.4554      1690.4372      116.63243      301.11568      0.15263328   
     70000   343.19793      1366.6703      1709.8682      125.94137      305.86362      0.1447357    
     71000   345.00601      1369.2778      1714.2838      210.60131      306.44719      0.15751647   
     72000   354.27853      1368.2167      1722.4952      209.89012      306.2097       0.14633036   
     73000   379.03683      1344.9173      1723.9541      210.40462      300.99526      0.14051385   
     74000   343.22973      1388.619       1731.8488      155.92274      310.77579      0.14854422   
     75000   360.23908      1312.1174      1672.3565      75.077215      293.65457      0.14323729   
     76000   372.45318      1325.0811      1697.5342      101.52071      296.55586      0.13885996   
     77000   347.76567      1316.2025      1663.9682      160.48157      294.56882      0.14975287   
     78000   356.43616      1346.0812      1702.5173      222.59381      301.25573      0.15177604   
     79000   373.4371       1356.5579      1729.995       231.38041      303.60044      0.13310863   
     80000   374.24087      1359.0476      1733.2884      187.13565      304.15763      0.14584233   
     81000   361.72851      1365.6381      1727.3666      83.734588      305.63261      0.14032798   
     82000   348.44375      1325.1378      1673.5815      26.568099      296.56855      0.14614496   
     83000   375.24394      1346.8162      1722.0602      95.753542      301.42024      0.13576339   
     84000   368.6259       1391.2177      1759.8436      212.92944      311.35738      0.14332614   
     85000   364.51205      1369.7564      1734.2685      287.17153      306.5543       0.14226752   
     86000   357.35805      1354.7909      1712.149       260.28099      303.20499      0.13805112   
     87000   348.70989      1355.092       1703.8019      110.89139      303.27238      0.14030433   
     88000   364.12728      1306.2764      1670.4037      46.167451      292.34735      0.14525514   
     89000   366.42438      1343.87        1710.2944      96.435665      300.76087      0.14405917   
     90000   351.70095      1364.0596      1715.7605      182.39125      305.27934      0.15031296   
     91000   367.29077      1308.8992      1676.19        163.30454      292.93432      0.14293915   
     92000   354.19023      1326.3275      1680.5177      180.16498      296.83482      0.14423285   
     93000   343.85391      1318.5865      1662.4404      179.75677      295.10236      0.14952794   
     94000   354.37049      1319.7922      1674.1626      144.19492      295.37219      0.15369338   
     95000   365.92771      1342.2914      1708.2191      127.14407      300.40756      0.14572251   
     96000   363.69233      1297.3715      1661.0638      103.37275      290.35439      0.14203137   
     97000   363.24646      1284.8531      1648.0996      140.76062      287.55277      0.14965304   
     98000   343.97003      1333.5627      1677.5328      154.06286      298.45407      0.14374029   
     99000   351.74905      1326.286       1678.0351      185.60526      296.82554      0.14670453   
    100000   358.22388      1314.6422      1672.8661      141.0679       294.21963      0.14463096   
    101000   324.55884      1360.1618      1684.7207      140.91465      304.40701      0.15724938   
    102000   361.72407      1388.0007      1749.7247      131.509        310.6374       0.14923278   
    103000   367.90212      1377.2179      1745.1201      152.57873      308.2242       0.14223666   
    104000   349.07152      1363.1354      1712.207       235.7751       305.07251      0.14994975   
    105000   345.66201      1358.4611      1704.1231      228.53443      304.02638      0.14525083   
    106000   359.45454      1350.6646      1710.1192      195.67701      302.28151      0.14487517   
    107000   358.35429      1336.9655      1695.3197      68.44737       299.21561      0.1481566    
    108000   372.0946       1322.0163      1694.1109      58.616229      295.86997      0.14230377   
    109000   402.98987      1346.8809      1749.8708      71.215597      301.43472      0.13716509   
    109001   395.227        1351.6484      1746.8754      78.8662        302.50168      0.13717875   
Loop time of 300.116 on 8 procs for 50000 steps with 1500 atoms

Performance: 3.599 ns/day, 6.669 hours/ns, 166.602 timesteps/s, 249.904 katom-step/s
99.3% CPU use with 8 MPI tasks x 1 OpenMP threads

MPI task timing breakdown:
Section |  min time  |  avg time  |  max time  |%varavg| %total
---------------------------------------------------------------
Pair    | 8.1595     | 8.9903     | 9.7333     |  17.1 |  3.00
Bond    | 0.54752    | 0.57933    | 0.60856    |   2.7 |  0.19
Kspace  | 147.28     | 148.07     | 148.93     |   4.2 | 49.34
Neigh   | 0.09741    | 0.097691   | 0.097946   |   0.1 |  0.03
Comm    | 5.2321     | 5.3268     | 5.4321     |   2.6 |  1.77
Output  | 0.0028239  | 0.0030943  | 0.0048552  |   1.2 |  0.00
Modify  | 118.02     | 127.15     | 135.78     |  52.9 | 42.37
Other   |            | 9.908      |            |       |  3.30

Nlocal:          187.5 ave         213 max         170 min
Histogram: 2 0 0 1 3 1 0 0 0 1
Nghost:        1523.12 ave        1543 max        1499 min
Histogram: 2 0 1 0 0 1 0 1 2 1
Neighs:        11875.9 ave       15091 max       10261 min
Histogram: 2 0 2 3 0 0 0 0 0 1

Total # of neighbors = 95007
Ave neighs/atom = 63.338
Ave special neighs/atom = 2
Neighbor list builds = 199
Dangerous builds = 0
PPPM initialization ...
  using 12-bit tables for long-range coulomb (src/kspace.cpp:342)
  G vector (1/distance) = 0.26727827
  grid = 50 50 50
  stencil order = 5
  estimated absolute RMS force accuracy = 0.00040235102
  estimated relative force accuracy = 1.2116681e-06
  using single precision FFTW3
  3d grid and FFT values/proc = 32768 16250
Generated 1 of 1 mixed pair_coeff terms from arithmetic mixing rule
Last active /omp style is kspace_style pppm/omp
Setting up Verlet run ...
  Unit style    : real
  Current step  : 109001
  Time step     : 0.5
Per MPI rank memory allocation (min/avg/max) = 8.667 | 8.708 | 8.82 Mbytes
   Step         PotEng         KinEng         TotEng         Press           Temp        v_Density   
    109001   395.22736      1351.6484      1746.8757      78.865963      302.50168      0.13717875   
    110000   436.22797      1367.1458      1803.3738      266.43742      305.97005      0.16442369   
    111000   449.04569      1296.4921      1745.5378      140.99185      290.1576       0.15820971   
    112000   425.7186       1363.7422      1789.4608      130.90718      305.20829      0.17179867   
    113000   445.61321      1295.0241      1740.6373      144.99628      289.82906      0.15580405   
    114000   452.13123      1356.3109      1808.4422      204.632        303.54517      0.16410184   
    115000   451.54686      1355.9794      1807.5262      134.9228       303.47096      0.1560274    
    116000   448.57575      1365.9961      1814.5718      162.18081      305.71272      0.16603608   
    117000   451.05616      1338.0169      1789.073       134.8097       299.45092      0.15212788   
    118000   434.01289      1317.374       1751.3868      190.70083      294.831        0.16011247   
    119000   389.36267      1343.328       1732.6906      79.059742      300.63955      0.18317274   
    120000   436.79618      1364.5751      1801.3713      198.92933      305.39471      0.16632813   
    121000   445.67798      1335.5283      1781.2063      220.93795      298.89397      0.16575847   
    122000   431.45201      1333.2684      1764.7204      74.334915      298.3882       0.16722428   
    123000   432.81775      1337.5718      1770.3896      168.17773      299.35132      0.17413133   
    124000   471.22038      1364.492       1835.7124      197.9076       305.37611      0.15944285   
    125000   436.37895      1353.6505      1790.0294      81.039483      302.94976      0.16232096   
    126000   476.74437      1340.2561      1817.0005      169.43414      299.95206      0.15978435   
    127000   475.42695      1337.1757      1812.6027      218.41718      299.26267      0.15808458   
    128000   449.45127      1306.3656      1755.8168      5.8199445      292.3673       0.15392809   
    129000   436.07418      1324.2503      1760.3244      153.5505       296.36992      0.16266877   
    130000   416.16506      1364.027       1780.1921      324.65246      305.27205      0.16514974   
    131000   437.0571       1302.4198      1739.4769      44.813848      291.48423      0.15180608   
    132000   450.72127      1330.6777      1781.3989      121.49167      297.80839      0.16193248   
    133000   483.21592      1333.3366      1816.5525      223.35999      298.40347      0.15400155   
    134000   432.31292      1327.7793      1760.0922      149.99537      297.15973      0.1707639    
    135000   430.77981      1378.0564      1808.8362      100.70572      308.41186      0.16439031   
    136000   468.00763      1338.0867      1806.0943      223.83378      299.46655      0.15755187   
    137000   442.42137      1346.9928      1789.4142      229.18752      301.45976      0.1628288    
    138000   445.12714      1341.5798      1786.7069      15.409028      300.24831      0.16689689   
    139000   421.39167      1369.9438      1791.3355      218.97441      306.59624      0.16548824   
    140000   440.49209      1348.0564      1788.5485      140.37318      301.6978       0.15290849   
    141000   462.22021      1282.6388      1744.859       42.507512      287.0572       0.15492915   
    142000   427.56606      1328.9959      1756.562       193.70079      297.43201      0.1602865    
    143000   419.8964       1269.4853      1689.3817      173.26415      284.11342      0.15808567   
    144000   448.15678      1362.2258      1810.3825      33.87238       304.86892      0.16355626   
    145000   430.9724       1340.168       1771.1404      249.69008      299.93234      0.15529546   
    146000   440.7438       1314.3883      1755.1321      237.90983      294.16279      0.16288457   
    147000   465.17048      1349.7269      1814.8974      89.648463      302.07166      0.16236316   
    148000   441.44588      1313.8276      1755.2734      118.23615      294.0373       0.16147599   
    149000   461.10295      1328.4573      1789.5603      291.40118      297.31147      0.15640163   
    150000   454.37016      1360.4056      1814.7757      76.490923      304.46156      0.15796964   
    151000   451.93239      1316.8205      1768.7529      107.11728      294.70714      0.15976634   
    152000   445.27573      1296.0821      1741.3578      212.51974      290.06583      0.1587614    
    153000   443.59176      1370.1292      1813.721       175.19487      306.63773      0.16875717   
    154000   480.90865      1341.3616      1822.2703      114.23702      300.19948      0.1585824    
    155000   444.45914      1355.4708      1799.9299      148.18581      303.35714      0.16308728   
    156000   448.96929      1305.617       1754.5863      135.51287      292.19977      0.15153884   
    157000   470.90071      1397.3247      1868.2254      126.00321      312.72413      0.15673488   
    158000   462.61354      1336.7019      1799.3155      156.75629      299.15664      0.15527113   
    159000   446.69564      1385.0608      1831.7565      183.96098      309.97946      0.1491113    
    159001   454.80523      1381.1428      1835.9481      178.71098      309.1026       0.14911417   
Loop time of 301.355 on 8 procs for 50000 steps with 1500 atoms

Performance: 7.168 ns/day, 3.348 hours/ns, 165.917 timesteps/s, 248.876 katom-step/s
99.3% CPU use with 8 MPI tasks x 1 OpenMP threads

MPI task timing breakdown:
Section |  min time  |  avg time  |  max time  |%varavg| %total
---------------------------------------------------------------
Pair    | 8.6528     | 9.7226     | 10.595     |  19.4 |  3.23
Bond    | 0.54424    | 0.58168    | 0.61222    |   3.5 |  0.19
Kspace  | 147.36     | 148.28     | 149.45     |   5.5 | 49.20
Neigh   | 0.21206    | 0.21272    | 0.21346    |   0.1 |  0.07
Comm    | 5.4854     | 5.5615     | 5.665      |   2.7 |  1.85
Output  | 0.0025952  | 0.0028885  | 0.0047709  |   1.3 |  0.00
Modify  | 118.18     | 127.19     | 135.77     |  52.4 | 42.21
Other   |            | 9.803      |            |       |  3.25

Nlocal:          187.5 ave         218 max         175 min
Histogram: 3 2 1 0 0 0 1 0 0 1
Nghost:        1637.88 ave        1682 max        1565 min
Histogram: 1 0 0 1 0 0 2 1 2 1
Neighs:        13062.8 ave       16618 max       11415 min
Histogram: 3 1 1 1 0 0 1 0 0 1

Total # of neighbors = 104502
Ave neighs/atom = 69.668
Ave special neighs/atom = 2
Neighbor list builds = 401
Dangerous builds = 0
PPPM initialization ...
  using 12-bit tables for long-range coulomb (src/kspace.cpp:342)
  G vector (1/distance) = 0.26874063
  grid = 50 50 50
  stencil order = 5
  estimated absolute RMS force accuracy = 0.00037210427
  estimated relative force accuracy = 1.120581e-06
  using single precision FFTW3
  3d grid and FFT values/proc = 32768 16250
Generated 1 of 1 mixed pair_coeff terms from arithmetic mixing rule
Last active /omp style is kspace_style pppm/omp
Setting up Verlet run ...
  Unit style    : real
  Current step  : 0
  Time step     : 0.5
Per MPI rank memory allocation (min/avg/max) = 8.667 | 8.708 | 8.82 Mbytes
   Step         PotEng         KinEng         TotEng         Press           Temp        v_Density   
         0   454.80462      1381.1428      1835.9475      178.71066      309.1026       0.14911417   
      1000   455.78217      1388.5423      1844.3245      221.32799      310.75862      0.15318462   
      2000   449.79194      1398.0364      1847.8283      257.31724      312.88341      0.16131172   
      3000   417.14771      1359.6445      1776.7922      274.98397      304.29122      0.16526538   
      4000   427.13125      1345.5872      1772.7184      233.50278      301.14517      0.16729626   
      5000   449.06727      1307.2127      1756.28        151.05947      292.55688      0.1663888    
      6000   425.39591      1285.6626      1711.0585      99.722469      287.73392      0.1630887    
      7000   410.91461      1295.3391      1706.2537      115.44466      289.89955      0.16110881   
      8000   442.31332      1303.7979      1746.1112      170.59624      291.79264      0.15945964   
      9000   439.21352      1336.2994      1775.5129      187.79852      299.06656      0.15510872   
     10000   465.23726      1340.0285      1805.2657      165.23372      299.90112      0.1513953    
     11000   424.68802      1352.8753      1777.5634      171.14636      302.77628      0.15609271   
     12000   434.03838      1297.8121      1731.8505      157.26912      290.45301      0.16323329   
     13000   427.62786      1266.6631      1694.291       138.86634      283.4818       0.16677589   
     14000   435.70173      1331.1527      1766.8545      120.32921      297.91471      0.16717674   
     15000   435.33915      1337.5973      1772.9364      130.08742      299.35702      0.16664989   
     16000   464.81454      1332.9428      1797.7573      139.00743      298.31534      0.16542635   
     17000   441.68947      1369.8739      1811.5634      195.48747      306.5806       0.16380352   
     18000   447.22059      1398.4449      1845.6655      213.44577      312.97484      0.16004516   
     19000   455.79538      1370.1935      1825.9888      172.54802      306.65211      0.15719001   
     20000   457.97417      1347.288       1805.2622      181.69475      301.52582      0.15460823   
     21000   452.07874      1349.7392      1801.8179      192.6266       302.0744       0.15493565   
     22000   446.6474       1332.796       1779.4434      202.06272      298.28247      0.16018023   
     23000   439.08815      1292.9549      1732.043       214.56741      289.36595      0.16692418   
     24000   442.50338      1326.1483      1768.6517      200.91196      296.79471      0.16916526   
     25000   428.67707      1352.1797      1780.8568      189.94913      302.6206       0.16540751   
     26000   446.99133      1322.5425      1769.5338      186.84995      295.98772      0.16066209   
     27000   447.16772      1327.0383      1774.206       155.35596      296.99389      0.15893653   
     28000   427.19826      1334.6885      1761.8868      149.18506      298.70604      0.15919752   
     29000   420.23678      1318.7427      1738.9795      156.38133      295.13732      0.16308137   
     30000   431.41201      1315.6089      1747.0209      241.572        294.43597      0.17070424   
     31000   418.51682      1332.6772      1751.194       319.24979      298.2559       0.17216041   
     32000   418.80815      1315.3604      1734.1685      327.52905      294.38035      0.16907774   
     33000   443.59404      1331.5972      1775.1912      282.17018      298.01418      0.16499743   
     34000   434.0202       1311.5313      1745.5515      168.06032      293.5234       0.1613061    
     35000   446.69736      1341.2909      1787.9882      99.430381      300.18365      0.15990084   
     36000   443.12238      1322.798       1765.9203      70.892178      296.0449       0.16044013   
     37000   430.87272      1346.8181      1777.6908      55.256484      301.42066      0.16259163   
     38000   441.39887      1330.6115      1772.0104      115.96146      297.79359      0.16689927   
     39000   415.49208      1345.6476      1761.1397      151.84205      301.1587       0.17198374   
     40000   423.17712      1300.6973      1723.8744      261.3195       291.09873      0.17669922   
     41000   407.87429      1297.2641      1705.1384      272.72628      290.33037      0.18051347   
     42000   390.32508      1297.0888      1687.4139      200.31381      290.29113      0.17757027   
     43000   428.94957      1341.5862      1770.5358      119.21639      300.24976      0.16902829   
     44000   437.37437      1345.3449      1782.7193      119.12038      301.09095      0.16374685   
     45000   456.11859      1341.7045      1797.8231      101.7866       300.27622      0.16086688   
     46000   461.92717      1375.183       1837.1102      114.78205      307.76878      0.16105571   
     47000   436.17762      1417.6307      1853.8083      121.3413       317.26866      0.16026162   
     48000   440.0533       1360.2237      1800.277       122.72704      304.42086      0.15981329   
     49000   465.43671      1358.2626      1823.6994      165.74689      303.98197      0.16122736   
     50000   436.4373       1365.011       1801.4483      231.96573      305.49226      0.16500592   
     51000   464.5862       1368.6032      1833.1894      266.55267      306.2962       0.16788231   
     52000   439.85481      1402.92        1842.7749      235.32033      313.97639      0.16629241   
     53000   443.13306      1348.6925      1791.8256      146.75886      301.84015      0.16086488   
     54000   456.37614      1322.5624      1778.9385      73.577543      295.99218      0.15695196   
     55000   456.58485      1332.9205      1789.5054      75.760805      298.31035      0.15524027   
     56000   455.62816      1329.8936      1785.5218      161.91911      297.63293      0.15512013   
     57000   461.27837      1287.8876      1749.166       180.87661      288.23189      0.15729526   
     58000   431.47754      1331.5983      1763.0759      263.71342      298.01444      0.16412491   
     59000   434.62812      1337.1406      1771.7687      264.66026      299.25481      0.17230082   
     60000   433.52695      1351.4061      1784.933       299.85876      302.44745      0.1735155    
     61000   424.76147      1335.371       1760.1325      236.21138      298.85877      0.17024375   
     62000   439.25584      1354.454       1793.7099      169.34467      303.1296       0.16602065   
     63000   431.18259      1359.6574      1790.84        103.9308       304.29413      0.16130195   
     64000   463.4088       1356.8126      1820.2214      86.548244      303.65745      0.1566352    
     65000   473.99012      1324.0037      1797.9938      121.64825      296.31474      0.15438044   
     66000   447.34563      1356.7751      1804.1207      165.50716      303.64905      0.15650492   
     67000   431.72371      1357.8461      1789.5698      195.92233      303.88874      0.16173874   
     68000   436.29515      1366.549       1802.8441      190.47055      305.83647      0.16693626   
     69000   442.40438      1382.6525      1825.0569      168.97743      309.44047      0.16927276   
     70000   459.19393      1340.1053      1799.2992      151.99931      299.91831      0.16833861   
     71000   416.55017      1381.3646      1797.9147      201.43884      309.15222      0.16625013   
     72000   458.281        1330.0478      1788.3288      246.54625      297.66743      0.16358162   
     73000   446.79028      1375.8239      1822.6141      265.6423       307.9122       0.16311731   
     74000   426.83004      1366.4134      1793.2434      239.80443      305.80612      0.16440219   
     75000   439.91488      1347.2055      1787.1204      170.69352      301.50736      0.16419795   
     76000   451.70553      1380.7236      1832.4291      124.71964      309.00878      0.16283114   
     77000   452.39535      1346.6946      1799.09        126.76224      301.39302      0.15966349   
     78000   460.33013      1364.2102      1824.5403      126.0273       305.31304      0.15644406   
     79000   454.66759      1373.5986      1828.2662      154.67337      307.41419      0.15515096   
     80000   459.70682      1359.8317      1819.5385      128.07965      304.33313      0.15563148   
     81000   426.43453      1335.646       1762.0806      128.42105      298.92033      0.1605732    
     82000   423.64261      1353.5371      1777.1798      163.39518      302.92439      0.16960262   
     83000   455.21326      1339.5387      1794.752       134.21588      299.79151      0.17297261   
     84000   441.31667      1333.6251      1774.9417      113.85226      298.46803      0.17258854   
     85000   444.24379      1415.5501      1859.7939      83.491277      316.80302      0.16919041   
     86000   461.13481      1365.566       1826.7008      77.289091      305.61648      0.16406003   
     87000   429.94267      1361.9397      1791.8823      87.022697      304.80489      0.16128343   
     88000   448.2443       1334.3413      1782.5856      95.636156      298.62833      0.16220887   
     89000   422.88773      1337.2854      1760.1731      138.66038      299.28722      0.16516035   
     90000   430.88012      1300.4625      1731.3426      158.94854      291.04618      0.16894083   
     91000   424.87364      1322.6327      1747.5064      224.37218      296.00792      0.17192887   
     92000   444.50505      1325.3927      1769.8977      292.41944      296.6256       0.17339263   
     93000   429.55917      1358.9931      1788.5522      291.97019      304.14544      0.17034992   
     94000   447.58777      1399.0291      1846.6169      236.20221      313.10559      0.16155353   
     95000   471.42542      1386.0014      1857.4268      178.05663      310.18996      0.15689432   
     96000   471.96986      1320.3211      1792.2909      110.95242      295.49056      0.15709994   
     97000   431.73265      1335.2405      1766.9732      97.602573      298.82957      0.16044734   
     98000   428.07147      1338.8507      1766.9221      44.752766      299.63752      0.1623206    
     99000   466.90773      1307.2464      1774.1541      62.334917      292.56443      0.16470623   
    100000   440.70144      1281.8493      1722.5507      96.048906      286.8805       0.16544433   
    101000   417.87524      1291.2542      1709.1294      163.48977      288.98534      0.16763672   
    102000   424.2298       1317.1121      1741.3419      198.17288      294.7724       0.17296078   
    103000   416.14511      1336.4001      1752.5452      262.18469      299.08907      0.18070438   
    104000   412.16539      1334.8975      1747.0628      294.9287       298.75279      0.18475537   
    105000   435.23348      1320.535       1755.7685      276.27834      295.53845      0.18020386   
    106000   433.69876      1388.7918      1822.4906      266.54133      310.81446      0.17494446   
    107000   420.6065       1365.9498      1786.5563      212.0915       305.70238      0.17049246   
    108000   448.62816      1375.5988      1824.2269      122.13814      307.86183      0.16733266   
    109000   453.09194      1342.9258      1796.0177      102.31641      300.54955      0.16740052   
    110000   445.85169      1386.7947      1832.6464      98.903274      310.36751      0.16519156   
    111000   455.7499       1363.3136      1819.0635      90.47833       305.11238      0.16051102   
    112000   456.53822      1380.9925      1837.5307      118.23771      309.06896      0.15967782   
    113000   424.31177      1382.988       1807.2998      170.77515      309.51556      0.16498296   
    114000   441.67891      1339.6318      1781.3107      158.92128      299.81235      0.17154219   
    115000   448.65389      1334.6719      1783.3258      139.381        298.70232      0.17386122   
    116000   440.61337      1370.3528      1810.9662      163.3335       306.68777      0.17299008   
    117000   432.98431      1377.2278      1810.2121      146.59363      308.22642      0.16948272   
    118000   444.28914      1374.3068      1818.596       158.32241      307.57269      0.16465335   
    119000   466.19039      1415.1966      1881.387       114.92254      316.7239       0.16133972   
    120000   459.10324      1380.5326      1839.6358      115.37378      308.96602      0.16164986   
    121000   431.71634      1384.538       1816.2544      130.15482      309.86245      0.16319185   
    122000   439.37668      1343.0537      1782.4304      206.09651      300.57818      0.16712513   
    123000   441.57618      1330.5456      1772.1217      210.55769      297.77883      0.16958783   
    124000   442.92505      1307.5181      1750.4431      176.70549      292.62523      0.17046137   
    125000   441.71579      1282.7572      1724.473       97.859683      287.0837       0.16858834   
    126000   407.17222      1381.098       1788.2702      85.735065      309.09257      0.16715645   
    127000   470.61105      1342.5258      1813.1369      93.576723      300.46004      0.16493812   
    128000   454.65368      1348.8444      1803.498       197.14978      301.87414      0.16100962   
    129000   465.84961      1333.96        1799.8096      210.90235      298.54298      0.15941483   
    130000   410.17134      1406.3219      1816.4932      252.0123       314.73773      0.16136793   
    131000   443.37035      1360.8458      1804.2162      183.27133      304.56008      0.16569156   
    132000   431.36157      1353.472       1784.8336      145.203        302.90981      0.16997879   
    133000   440.1318       1339.5497      1779.6815      96.646748      299.79398      0.17161949   
    134000   426.81104      1363.5613      1790.3724      39.436723      305.16782      0.16964091   
    135000   444.51184      1380.2866      1824.7984      87.011108      308.91097      0.16747693   
    136000   409.24815      1378.0713      1787.3195      139.83447      308.41519      0.16523233   
    137000   459.95824      1355.4016      1815.3598      161.80688      303.34166      0.16678705   
    138000   448.64297      1386.7186      1835.3616      229.61035      310.35047      0.17206739   
    139000   427.35939      1406.3373      1833.6967      233.67052      314.74117      0.1752051    
    140000   442.91991      1365.5024      1808.4223      241.72271      305.60225      0.17568854   
    141000   434.19874      1328.7564      1762.9551      210.0121       297.3784       0.17300484   
    142000   420.35389      1324.5479      1744.9018      163.86073      296.43654      0.16635772   
    143000   431.72249      1325.7511      1757.4736      100.70516      296.70583      0.15952407   
    144000   464.53485      1322.714       1787.2489      47.447294      296.02611      0.15852841   
    145000   438.74104      1323.0002      1761.7413      75.55894       296.09016      0.16147237   
    146000   445.78867      1358.2787      1804.0674      69.059187      303.98556      0.16492847   
    147000   441.73399      1354.0829      1795.8169      99.830099      303.04653      0.16783721   
    148000   443.78923      1375.058       1818.8473      132.31517      307.74081      0.16854666   
    149000   436.06546      1348.1088      1784.1743      159.8794       301.70952      0.16781534   
    150000   454.69924      1355.3442      1810.0434      141.98826      303.32882      0.16752937   
    151000   447.77359      1397.3567      1845.1303      145.55414      312.7313       0.16980237   
    152000   427.11759      1393.9911      1821.1087      115.41359      311.97806      0.16997893   
    153000   433.45518      1362.544       1795.9992      170.19967      304.94014      0.16810048   
    154000   442.72293      1341.871       1784.5939      209.88847      300.31348      0.16531735   
    155000   450.08759      1344.1883      1794.2759      258.61106      300.83211      0.16432329   
    156000   425.76211      1355.2736      1781.0358      249.2848       303.31302      0.16527271   
    157000   452.30117      1346.6812      1798.9824      141.63636      301.39003      0.16433933   
    158000   450.13136      1341.6359      1791.7673      87.449044      300.26087      0.16292821   
    159000   436.01892      1358.7404      1794.7593      41.04805       304.0889       0.16123725   
    160000   440.16918      1360.5299      1800.6991      83.167783      304.48939      0.16282321   
    161000   462.95714      1360.5208      1823.478       176.32339      304.48735      0.1667308    
    162000   452.12442      1385.2363      1837.3607      199.04649      310.01873      0.16669212   
    163000   439.18211      1381.8148      1820.9969      206.87771      309.253        0.16299681   
    164000   429.2728       1356.0383      1785.3111      129.48148      303.48415      0.15889303   
    165000   456.7924       1354.3119      1811.1043      69.440514      303.09779      0.15739023   
    166000   441.87623      1370.9431      1812.8193      88.764138      306.81988      0.16246438   
    167000   417.22574      1305.738       1722.9637      125.93786      292.22683      0.17081249   
    168000   418.5557       1342.9687      1761.5244      204.61163      300.55916      0.17312211   
    169000   445.72379      1345.473       1791.1968      288.38024      301.11963      0.1696622    
    170000   444.93902      1346.0897      1791.0287      310.88207      301.25763      0.16401527   
    171000   451.83746      1408.0691      1859.9066      297.69397      315.12876      0.16127329   
    172000   481.76794      1359.0162      1840.7842      216.72579      304.15063      0.15959121   
    173000   458.22739      1348.4306      1806.658       205.14116      301.78153      0.16029538   
    174000   424.00138      1377.1096      1801.1109      130.54952      308.19995      0.16300194   
    175000   467.63615      1373.7962      1841.4323      126.83056      307.4584       0.16814038   
    176000   467.28355      1336.8557      1804.1392      52.453534      299.19104      0.17053861   
    177000   409.46214      1378.3621      1787.8242      124.77263      308.48027      0.17256176   
    178000   414.93298      1357.0257      1771.9587      220.70059      303.70514      0.17476398   
    179000   426.95082      1345.241       1772.1918      281.48363      301.06769      0.17291518   
    180000   422.78921      1329.0721      1751.8613      260.63983      297.44906      0.16759336   
    181000   411.14984      1304.476       1715.6259      172.99344      291.94442      0.1615147    
    182000   436.93059      1305.6808      1742.6114      102.49419      292.21404      0.16126605   
    183000   413.45954      1341.55        1755.0095      102.33391      300.24164      0.16449623   
    184000   422.64369      1320.7005      1743.3442      90.893118      295.57548      0.16806631   
    185000   447.83825      1298.2238      1746.0621      143.99819      290.54516      0.17257126   
    186000   432.66755      1319.1605      1751.8281      224.85871      295.23084      0.17448454   
    187000   422.81259      1335.9834      1758.796       235.99846      298.99582      0.17261396   
    188000   424.45212      1307.9215      1732.3736      263.60777      292.71551      0.17138758   
    189000   442.25195      1298.1912      1740.4431      218.39155      290.53785      0.16891888   
    190000   424.82412      1382.4263      1807.2504      155.25562      309.38984      0.16479295   
    191000   440.7523       1393.7895      1834.5418      93.018601      311.93295      0.16134691   
    192000   455.46723      1325.3458      1780.813       118.58293      296.61511      0.16224186   
    193000   453.99861      1321.3365      1775.3351      100.07889      295.71782      0.16467135   
    194000   464.69117      1316.9798      1781.6709      124.04983      294.74277      0.16716711   
    195000   422.19302      1308.2323      1730.4253      216.9542       292.78506      0.16829217   
    196000   408.06228      1344.5932      1752.6555      216.1078       300.92272      0.16904181   
    197000   420.12128      1353.9548      1774.0761      182.30691      303.01787      0.1688729    
    198000   457.94866      1355.6148      1813.5635      132.70289      303.38938      0.16713993   
    199000   441.38732      1370.4067      1811.794       125.20831      306.69984      0.16647198   
    200000   440.89323      1355.32        1796.2132      184.35013      303.32339      0.17249347   
    201000   440.74763      1367.4689      1808.2165      224.87887      306.04234      0.17754646   
    202000   443.32417      1365.0081      1808.3323      235.48683      305.49162      0.17547139   
    203000   417.88208      1367.4701      1785.3522      257.67639      306.04262      0.1717906    
    204000   451.85604      1375.5237      1827.3797      256.37842      307.84502      0.16825261   
    205000   465.75166      1341.637       1807.3887      199.33625      300.26111      0.16486695   
    206000   452.85372      1363.1603      1816.014       162.95996      305.07806      0.16328636   
    207000   446.78332      1373.5976      1820.381       133.29641      307.41397      0.16467171   
    208000   461.37346      1399.7489      1861.1223      148.47862      313.26667      0.16649895   
    209000   454.36246      1385.4585      1839.821       184.47012      310.06846      0.16833008   
    210000   437.38277      1358.9573      1796.3401      220.58673      304.13743      0.16864192   
    211000   454.40592      1347.241       1801.6469      224.70973      301.51529      0.16975312   
    212000   423.92519      1362.5603      1786.4855      177.27278      304.94379      0.17087257   
    213000   448.02994      1337.4132      1785.4432      118.24667      299.31583      0.16865368   
    214000   467.16079      1275.696       1742.8568      108.91095      285.50339      0.16577713   
    215000   424.6275       1304.1079      1728.7354      158.22162      291.86203      0.16230123   
    216000   426.45068      1328.7908      1755.2415      200.49414      297.38612      0.15928676   
    217000   440.38057      1350.9463      1791.3269      218.60154      302.34455      0.1595271    
    218000   452.37196      1312.2967      1764.6686      199.95023      293.69469      0.15896663   
    219000   440.53725      1325.809       1766.3462      123.87457      296.71877      0.15936607   
    220000   423.73512      1294.3177      1718.0528      62.105011      289.67095      0.16428313   
    221000   424.62455      1356.3806      1781.0052      31.846788      303.56076      0.17064666   
    222000   439.41633      1365.2831      1804.6995      97.734872      305.55316      0.17573173   
    223000   414.91183      1364.4582      1779.37        109.00266      305.36855      0.17407987   
    224000   434.76208      1364.9059      1799.668       152.77474      305.46874      0.17025935   
    225000   418.6122       1333.4342      1752.0464      176.58313      298.4253       0.16613286   
    226000   455.53802      1325.6         1781.1381      195.3094       296.67201      0.164373     
    227000   437.95352      1331.6704      1769.6239      187.90796      298.03057      0.16516971   
    228000   477.70001      1317.7163      1795.4163      147.0039       294.90761      0.16737288   
    229000   444.77211      1329.4986      1774.2707      157.55922      297.54451      0.17027655   
    230000   440.6076       1329.2467      1769.8543      165.2134       297.48814      0.17111657   
    231000   415.83137      1320.9426      1736.7739      169.71599      295.62966      0.16900323   
    232000   431.32251      1294.1527      1725.4752      178.38186      289.63403      0.1667931    
    233000   435.07753      1360.4843      1795.5618      174.16149      304.47917      0.16388467   
    234000   460.25368      1337.3989      1797.6526      199.38288      299.31262      0.16348539   
    235000   441.52221      1265.1833      1706.7055      145.12414      283.15061      0.1644661    
    236000   430.90259      1300.9195      1731.8221      196.18984      291.14846      0.17023      
    237000   410.22126      1341.2948      1751.516       205.95484      300.18452      0.17435432   
    238000   403.73143      1331.3713      1735.1028      175.54588      297.96364      0.17479499   
    239000   423.95305      1309.751       1733.7041      162.98373      293.12496      0.17180324   
    240000   434.92589      1349.7028      1784.6287      155.54168      302.06626      0.16588765   
    241000   447.67184      1396.4859      1844.1577      149.51333      312.53641      0.16089496   
    242000   461.42032      1361.6847      1823.105       90.516208      304.74782      0.15809959   
    243000   458.55185      1332.6035      1791.1554      130.77648      298.23941      0.16024736   
    244000   463.58345      1366.0209      1829.6044      103.48385      305.71828      0.16186566   
    245000   445.77405      1363.318       1809.0921      139.82861      305.11338      0.16379117   
    246000   447.39757      1366.7494      1814.147       168.96747      305.88133      0.16491494   
    247000   458.49247      1377.3853      1835.8777      208.25822      308.26165      0.16685259   
    248000   428.42133      1419.0461      1847.4675      207.66412      317.58544      0.16951289   
    249000   446.25013      1379.2686      1825.5187      149.29995      308.68314      0.17140085   
    250000   437.11749      1366.6001      1803.7176      162.16607      305.8479       0.17438705   
    251000   424.15633      1333.401       1757.5573      167.78934      298.41787      0.17745035   
    252000   434.57182      1333.8437      1768.4155      162.5208       298.51696      0.17690879   
    253000   428.4139       1334.4669      1762.8808      167.33849      298.65642      0.17012859   
    254000   444.87536      1324.7094      1769.5847      162.17301      296.47267      0.16420406   
    255000   447.04111      1327.48        1774.5211      147.26112      297.09274      0.1621244    
    256000   444.38532      1326.0796      1770.4649      151.28109      296.77933      0.16262758   
    257000   440.16618      1341.9592      1782.1254      121.56152      300.33323      0.16364782   
    258000   454.63719      1346.7301      1801.3673      143.92886      301.40097      0.16648633   
    259000   426.34126      1369.7381      1796.0794      198.31248      306.55021      0.1715191    
    260000   425.17176      1296.4415      1721.6133      179.48679      290.14627      0.17687426   
    261000   426.32414      1312.2648      1738.5889      202.38431      293.68756      0.18495989   
    262000   401.17104      1325.5013      1726.6724      197.27909      296.64992      0.18865323   
    263000   406.72287      1312.1114      1718.8343      120.18437      293.65323      0.18396162   
    264000   415.1368       1303.0108      1718.1476      87.978472      291.61648      0.17854642   
    265000   452.48309      1357.5501      1810.0331      93.782968      303.82249      0.17581197   
    266000   456.38361      1367.842       1824.2256      116.25367      306.12585      0.17309417   
    267000   459.82488      1358.9575      1818.7824      69.510855      304.13748      0.16805346   
    268000   444.90253      1355.6257      1800.5282      83.657221      303.39181      0.1677064    
    269000   457.68802      1346.015       1803.703       120.71743      301.24091      0.1691048    
    270000   471.53664      1362.2353      1833.772       134.1319       304.87106      0.17009296   
    271000   456.86022      1346.0774      1802.9377      118.00617      301.2549       0.17082541   
    272000   417.55986      1336.8045      1754.3644      116.33786      299.1796       0.17261101   
    273000   427.07111      1318.7743      1745.8455      152.40242      295.14441      0.17478587   
    274000   437.88904      1352.5367      1790.4258      151.99685      302.7005       0.17362929   
    275000   446.88182      1347.1458      1794.0277      141.97354      301.494        0.16758204   
    276000   454.97464      1348.1642      1803.1389      148.09506      301.72192      0.1627386    
    277000   458.14886      1358.2396      1816.3885      150.97211      303.97682      0.16109911   
    278000   450.97249      1356.5487      1807.5212      153.95987      303.59839      0.16289161   
    279000   457.12501      1333.8684      1790.9934      143.47295      298.52249      0.16803547   
    280000   422.68301      1359.6033      1782.2863      198.69042      304.282        0.17431346   
    281000   447.2358       1334.5361      1781.7719      135.8284       298.67193      0.17435575   
    282000   448.42079      1320.5085      1768.9293      139.71842      295.53252      0.17157418   
    283000   439.57712      1322.9361      1762.5132      144.87704      296.0758       0.169881     
    284000   438.66679      1306.7562      1745.423       199.50048      292.45471      0.16751029   
    285000   430.16371      1294.6207      1724.7844      198.198        289.73878      0.1653172    
    286000   466.21418      1313.9967      1780.2108      180.82018      294.07515      0.16732846   
    287000   452.39038      1326.811       1779.2014      128.38142      296.94304      0.17191963   
    288000   428.43832      1368.4242      1796.8625      126.14757      306.25614      0.18216794   
    289000   400.39497      1359.3382      1759.7331      135.0007       304.22267      0.18616262   
    290000   420.43042      1370.2743      1790.7047      149.79751      306.67019      0.18497517   
    291000   471.67571      1364.0598      1835.7355      182.94762      305.27937      0.17985793   
    292000   448.99659      1354.4469      1803.4435      163.25931      303.128        0.17237442   
    293000   434.66551      1357.8277      1792.4933      121.14382      303.88464      0.16783082   
    294000   457.90403      1325.7421      1783.6461      54.433549      296.70381      0.16635392   
    295000   463.33679      1324.9951      1788.3319      88.800032      296.53663      0.16556397   
    296000   460.07683      1334.1746      1794.2514      116.40698      298.59101      0.162124     
    297000   436.35757      1283.0201      1719.3777      156.62348      287.14253      0.15987699   
    298000   449.05988      1283.0304      1732.0903      192.45726      287.14485      0.16338566   
    299000   428.94689      1327.4803      1756.4272      269.07328      297.09281      0.17087307   
    300000   439.70096      1323.5129      1763.2139      280.98662      296.2049       0.17496413   
    301000   440.42038      1297.5776      1737.998       210.08595      290.40054      0.17438993   
    302000   433.10007      1376.9197      1810.0197      94.563912      308.15745      0.16996424   
    303000   419.26812      1367.2811      1786.5492      96.957204      306.00032      0.16635361   
    304000   440.62864      1338.3978      1779.0265      113.73545      299.53618      0.16362127   
    305000   421.39141      1367.3705      1788.7619      185.27817      306.02032      0.1646649    
    306000   459.72181      1325.0432      1784.765       218.66546      296.54738      0.16567678   
    307000   436.08981      1341.7183      1777.8082      257.76545      300.27932      0.16644938   
    308000   425.23684      1326.7949      1752.0317      238.05993      296.93942      0.16940175   
    309000   438.18978      1313.7289      1751.9187      178.74676      294.01523      0.17356763   
    310000   430.84938      1359.1949      1790.0443      82.886897      304.1906       0.17387091   
    311000   438.86965      1365.4093      1804.2789      55.690705      305.5814       0.16772503   
    312000   444.63036      1378.8731      1823.5034      85.399314      308.59463      0.16145605   
    313000   439.96123      1356.9464      1796.9076      107.37873      303.68739      0.15866311   
    314000   434.18203      1341.5628      1775.7449      121.40588      300.24452      0.15809228   
    315000   443.55025      1281.8962      1725.4464      163.3196       286.89099      0.16084384   
    316000   445.21893      1285.0646      1730.2835      133.42203      287.60009      0.16355561   
    317000   451.93987      1301.3476      1753.2875      116.7179       291.24427      0.16538061   
    318000   446.862        1323.6748      1770.5368      93.630562      296.24114      0.16387593   
    319000   437.07412      1315.1217      1752.1958      55.811759      294.32694      0.15655456   
    320000   449.67962      1337.58        1787.2596      164.51413      299.35315      0.15113143   
    321000   451.49366      1316.8584      1768.3521      256.19171      294.71562      0.15112149   
    322000   450.10306      1301.2868      1751.3899      290.3703       291.23067      0.15392281   
    323000   426.75183      1325.0738      1751.8256      280.88955      296.55424      0.15997735   
    324000   428.8429       1319.7236      1748.5665      260.97473      295.35685      0.16397559   
    325000   435.56181      1368.6423      1804.2041      197.20353      306.30495      0.16376415   
    326000   449.05257      1362.9735      1812.0261      140.56022      305.03627      0.16137051   
    327000   457.5992       1344.6901      1802.2893      136.52658      300.94441      0.16110358   
    328000   464.10382      1385.0974      1849.2012      112.95636      309.98765      0.16164356   
    329000   438.47112      1353.0652      1791.5363      125.05396      302.81877      0.16267544   
    330000   436.39141      1343.0188      1779.4102      142.95353      300.57036      0.1647899    
    331000   436.11573      1331.774       1767.8897      178.20339      298.05374      0.16855559   
    332000   442.36791      1328.5813      1770.9492      160.97076      297.33922      0.17156991   
    333000   448.56212      1283.705       1732.2671      179.63602      287.29581      0.17166281   
    334000   426.8002       1303.0245      1729.8247      232.11495      291.61956      0.1671415    
    335000   453.23837      1312.2723      1765.5107      242.51315      293.68923      0.15993218   
    336000   454.12784      1330.5379      1784.6657      236.96376      297.77711      0.15596169   
    337000   460.74662      1327.5413      1788.2879      213.39229      297.10647      0.1549088    
    338000   454.14276      1342.9854      1797.1281      135.60592      300.56288      0.15723238   
    339000   442.80488      1354.4716      1797.2765      113.99414      303.13353      0.16167365   
    340000   440.7075       1345.0717      1785.7792      112.96868      301.02981      0.16626184   
    341000   437.28596      1376.1513      1813.4373      183.16693      307.98549      0.1701486    
    342000   453.11457      1337.2971      1790.4117      224.12692      299.28983      0.16793476   
    343000   443.9539       1364.9388      1808.8927      224.74108      305.4761       0.16405907   
    344000   462.45007      1383.1914      1845.6414      177.65074      309.56106      0.16149618   
    345000   444.35847      1368.2029      1812.5614      128.1905       306.20662      0.15728898   
    346000   443.4518       1364.6501      1808.1019      127.35442      305.41148      0.15434472   
    347000   447.27189      1326.3468      1773.6187      70.499872      296.83913      0.15473379   
    348000   467.75619      1326.9284      1794.6846      53.464235      296.9693       0.16173886   
    349000   439.17104      1320.0986      1759.2697      48.934776      295.44078      0.16854094   
    350000   443.77553      1335.7122      1779.4877      87.529679      298.93512      0.17043122   
    351000   442.87968      1328.4596      1771.3393      61.685408      297.31198      0.16912633   
    352000   432.65469      1349.1254      1781.7801      130.26139      301.93704      0.16860572   
    353000   431.09061      1329.3848      1760.4754      204.41916      297.51904      0.16752881   
    354000   435.38745      1319.5341      1754.9215      251.09131      295.31443      0.16469315   
    355000   423.94535      1302.3451      1726.2905      219.89267      291.46752      0.15952119   
    356000   455.3004       1332.047       1787.3474      137.05809      298.11485      0.15581939   
    357000   478.50863      1329.7054      1808.2141      11.108637      297.59081      0.15540667   
    358000   450.09793      1347.8377      1797.9356     -45.020376      301.64883      0.16128087   
    359000   438.89316      1367.3366      1806.2297      7.8463798      306.01273      0.17111957   
    360000   433.74206      1355.4987      1789.2407      76.044252      303.36339      0.1752891    
    361000   411.21163      1364.5601      1775.7717      233.96541      305.39134      0.17867148   
    362000   426.40029      1388.9731      1815.3734      337.48557      310.85502      0.17809173   
    363000   427.17498      1316.914       1744.0889      276.90792      294.72805      0.17278845   
    364000   456.45207      1337.6843      1794.1364      230.8346       299.37649      0.1684458    
    365000   433.7285       1359.3767      1793.1052      148.8273       304.2313       0.16773328   
    366000   448.1387       1333.4069      1781.5456      81.131557      298.41921      0.16952892   
    367000   453.21477      1298.0309      1751.2457      46.245285      290.50198      0.17261396   
    368000   429.71758      1289.9163      1719.6339      46.538156      288.68592      0.17358166   
    369000   423.46194      1319.048       1742.51        134.74202      295.20566      0.1742765    
    370000   443.95118      1303.2012      1747.1523      69.367494      291.65909      0.16909122   
    371000   429.16346      1317.375       1746.5384      153.55903      294.83122      0.16705907   
    372000   436.67431      1345.4071      1782.0815      154.32952      301.10488      0.16556801   
    373000   459.51679      1343.2868      1802.8036      189.15252      300.63035      0.16715554   
    374000   434.00732      1343.7152      1777.7225      241.29963      300.72621      0.17050243   
    375000   440.63248      1350.682       1791.3145      254.48956      302.2854       0.17393642   
    376000   423.90494      1368.08        1791.985       259.97677      306.17912      0.17686976   
    377000   447.69029      1357.5844      1805.2747      222.75383      303.83017      0.17389503   
    378000   442.77249      1360.2849      1803.0574      228.00358      304.43456      0.16630938   
    379000   455.43491      1341.5714      1797.0063      170.66434      300.24644      0.16118962   
    380000   440.8813       1300.1876      1741.0689      118.74163      290.98465      0.15902538   
    381000   434.97058      1311.7567      1746.7273      104.64011      293.57385      0.15920301   
    382000   443.13184      1328.0502      1771.182       162.734        297.22036      0.1642669    
    383000   445.39318      1321.0251      1766.4183      194.17733      295.64813      0.16968875   
    384000   448.34828      1328.0576      1776.4059      159.39551      297.22201      0.17220005   
    385000   454.43249      1289.2699      1743.7024      170.7125       288.54125      0.17277057   
    386000   426.08336      1296.8948      1722.9781      120.88598      290.24771      0.16703452   
    387000   448.13093      1327.3448      1775.4758      78.375219      297.0625       0.16133203   
    388000   438.06819      1322.0655      1760.1337      128.43175      295.88097      0.16107713   
    389000   454.02029      1327.8967      1781.917       167.51612      297.18601      0.16174226   
    390000   444.23177      1316.5199      1760.7517      185.36775      294.63987      0.16117752   
    391000   430.89053      1312.0775      1742.968       186.73128      293.64563      0.16355345   
    392000   453.79795      1316.0135      1769.8115      200.52786      294.52653      0.16898207   
    393000   446.49374      1307.6542      1754.1479      203.31958      292.65569      0.17253263   
    394000   443.78362      1345.223       1789.0067      195.96359      301.06368      0.17136617   
    395000   433.35032      1321.4141      1754.7644      170.99301      295.73519      0.16578125   
    396000   454.24551      1326.303       1780.5485      118.87247      296.82933      0.16108943   
    397000   455.78807      1283.0993      1738.8874      48.081128      287.16026      0.15985161   
    398000   427.67535      1314.6731      1742.3485      26.893157      294.22654      0.16219752   
    399000   447.6486       1314.8184      1762.467       39.832464      294.25906      0.1654912    
    400000   424.61473      1362.175       1786.7897      124.45503      304.85756      0.16745835   
Loop time of 2394.82 on 8 procs for 400000 steps with 1500 atoms

Performance: 7.216 ns/day, 3.326 hours/ns, 167.027 timesteps/s, 250.541 katom-step/s
99.3% CPU use with 8 MPI tasks x 1 OpenMP threads

MPI task timing breakdown:
Section |  min time  |  avg time  |  max time  |%varavg| %total
---------------------------------------------------------------
Pair    | 76.996     | 78.612     | 81.259     |  17.5 |  3.28
Bond    | 4.413      | 4.6685     | 4.8493     |   7.4 |  0.19
Kspace  | 1183.7     | 1187.3     | 1189.1     |   5.4 | 49.58
Neigh   | 1.365      | 1.3711     | 1.3767     |   0.3 |  0.06
Comm    | 45.124     | 45.628     | 46.38      |   5.6 |  1.91
Output  | 0.022287   | 0.024586   | 0.039273   |   3.5 |  0.00
Modify  | 944.83     | 1000.6     | 1052.8     | 137.7 | 41.78
Other   |            | 76.64      |            |       |  3.20

Nlocal:          187.5 ave         204 max         163 min
Histogram: 1 1 0 0 0 0 2 2 0 2
Nghost:        1682.25 ave        1711 max        1653 min
Histogram: 1 2 0 0 0 0 2 2 0 1
Neighs:        14416.2 ave       17383 max       11791 min
Histogram: 2 0 0 1 2 1 0 0 0 2

Total # of neighbors = 115330
Ave neighs/atom = 76.886667
Ave special neighs/atom = 2
Neighbor list builds = 2518
Dangerous builds = 0
PPPM initialization ...
  using 12-bit tables for long-range coulomb (src/kspace.cpp:342)
  G vector (1/distance) = 0.26873798
  grid = 48 48 48
  stencil order = 5
  estimated absolute RMS force accuracy = 0.00039677383
  estimated relative force accuracy = 1.1948726e-06
  using single precision FFTW3
  3d grid and FFT values/proc = 29791 13824
Generated 1 of 1 mixed pair_coeff terms from arithmetic mixing rule
Last active /omp style is kspace_style pppm/omp
Setting up Verlet run ...
  Unit style    : real
  Current step  : 0
  Time step     : 0.5
Per MPI rank memory allocation (min/avg/max) = 8.484 | 8.505 | 8.639 Mbytes
   Step         PotEng         KinEng         TotEng         Press           Temp        v_Density   
         0   424.61434      1362.175       1786.7893      124.45552      304.85756      0.16745835   
      1000   456.37208      1369.4338      1825.8059      176.47584      306.4821       0.16746693   
      2000   428.58789      1356.8262      1785.4141      241.07665      303.66049      0.16985679   
      3000   475.17676      1350.3671      1825.5439      301.22759      302.21493      0.17292455   
      4000   437.89526      1348.1346      1786.0299      260.73684      301.71529      0.17535049   
      5000   460.16726      1358.4645      1818.6318      163.9609       304.02714      0.17285928   
      6000   454.58755      1361.99        1816.5775      123.94155      304.81615      0.16690488   
      7000   486.32966      1338.2378      1824.5675      90.596507      299.50037      0.16112057   
      8000   457.63068      1342.0835      1799.7141      162.90137      300.36104      0.15953117   
      9000   435.53093      1307.6055      1743.1365      174.69934      292.6448       0.15964203   
     10000   425.73241      1325.343       1751.0754      251.93056      296.61448      0.16242887   
     11000   448.97147      1309.9983      1758.9697      273.77685      293.1803       0.16761093   
     12000   444.42191      1329.4142      1773.8361      198.39288      297.52562      0.17227583   
     13000   449.95843      1297.8595      1747.818       131.38564      290.46363      0.17326232   
     14000   436.8208       1325.6907      1762.5115      140.00872      296.69231      0.17111856   
     15000   431.90721      1297.0794      1728.9866      142.53074      290.28904      0.16682306   
     16000   432.82927      1323.1677      1755.997       206.1434       296.12765      0.1663066    
     17000   422.13043      1342.4499      1764.5804      240.14086      300.44305      0.16679046   
     18000   453.22835      1292.9213      1746.1496      265.16024      289.35844      0.1688287    
     19000   465.3065       1315.8385      1781.145       233.99443      294.48735      0.17107148   
     20000   449.28999      1309.9055      1759.1955      142.64506      293.15955      0.16894152   
     21000   431.66229      1311.721       1743.3833      122.97694      293.56586      0.16518877   
     22000   430.82325      1346.108       1776.9312      147.35126      301.26172      0.16261142   
     23000   450.49357      1291.4984      1741.9919      161.07196      289.03998      0.16169645   
     24000   455.63952      1311.971       1767.6105      137.27271      293.62181      0.16309225   
     25000   438.38837      1323.66        1762.0484      147.78253      296.23783      0.16514106   
     26000   439.20038      1305.0624      1744.2627      164.43665      292.07563      0.16723879   
     27000   440.17342      1341.5213      1781.6947      129.42384      300.23522      0.16970267   
     28000   444.13158      1374.274       1818.4056      128.69702      307.56534      0.17488806   
     29000   444.71457      1335.6193      1780.3339      128.26128      298.91435      0.17809249   
     30000   438.76396      1362.8885      1801.6525      152.64291      305.01725      0.17972758   
     31000   444.93327      1337.8535      1782.7868      230.99714      299.41436      0.17822875   
     32000   415.07013      1312.4255      1727.4956      226.50701      293.72351      0.17133082   
     33000   452.45546      1299.4492      1751.9046      192.26275      290.81939      0.16509228   
     34000   446.81205      1309.5566      1756.3687      137.87022      293.08147      0.1619856    
     35000   450.12386      1321.9068      1772.0307      89.429572      295.84547      0.15925174   
     36000   421.93698      1360.0035      1781.9405      99.748693      304.37157      0.16016489   
     37000   445.74994      1344.6921      1790.442       160.55059      300.94485      0.16529689   
     38000   457.77485      1341.016       1798.7908      220.28619      300.12212      0.17142081   
     39000   451.69714      1376.6725      1828.3696      278.34976      308.10213      0.17273566   
     40000   472.21039      1337.4348      1809.6452      158.89821      299.32065      0.16946629   
     41000   480.39889      1344.8641      1825.263       96.812892      300.98335      0.16715755   
     42000   447.16897      1349.5243      1796.6933      57.140696      302.02632      0.16327175   
     43000   444.57299      1378.7688      1823.3418      23.471691      308.57129      0.1615116    
     44000   455.1035       1308.3935      1763.497       84.352132      292.82115      0.1647603    
     45000   437.00796      1340.8425      1777.8505      141.06998      300.08331      0.17084616   
     46000   426.3192       1366.734       1793.0532      213.44628      305.87787      0.1733683    
     47000   419.30396      1360.2344      1779.5384      211.67677      304.42325      0.17283735   
     48000   442.42107      1373.9913      1816.4124      201.34115      307.50208      0.1718992    
     49000   443.95208      1343.4853      1787.4374      223.60998      300.67477      0.17008277   
     50000   449.75754      1327.6308      1777.3883      234.87162      297.1265       0.16913605   
     51000   448.93376      1370.2438      1819.1776      203.16995      306.66339      0.16890651   
     52000   442.44092      1351.1775      1793.6184      131.23454      302.3963       0.16919056   
     53000   449.87321      1370.1847      1820.0579      131.2788       306.65014      0.17321083   
     54000   454.31449      1367.2338      1821.5483      161.68529      305.98973      0.18191377   
     55000   466.7239       1358.8313      1825.5552      152.32589      304.10922      0.18818688   
     56000   435.2824       1372.6278      1807.9102      123.76663      307.19691      0.18608949   
     57000   428.30706      1362.994       1791.3011      174.16194      305.04086      0.17934527   
     58000   467.61883      1353.1554      1820.7742      212.73004      302.83895      0.1729994    
     59000   449.05412      1354.5926      1803.6467      247.33094      303.1606       0.1702397    
     60000   445.85965      1359.4816      1805.3413      271.10592      304.25477      0.17027712   
     61000   470.47643      1296.91        1767.3864      216.52165      290.25112      0.1673636    
     62000   448.86486      1329.6843      1778.5492      163.88566      297.58608      0.16563299   
     63000   431.79299      1332.4957      1764.2887      82.496276      298.21527      0.16759655   
     64000   440.75555      1304.4798      1745.2354      49.559116      291.94527      0.17409774   
     65000   426.74761      1314.2544      1741.0021      84.731551      294.13284      0.17852152   
     66000   426.47487      1326.7188      1753.1937      167.60833      296.9224       0.17808264   
     67000   443.26549      1360.5535      1803.819       247.41233      304.49467      0.17533748   
     68000   441.3498       1355.9251      1797.2749      239.59662      303.45882      0.17231799   
     69000   451.18381      1332.9673      1784.1511      150.35325      298.32081      0.17130348   
     70000   447.35342      1361.7886      1809.142       154.36021      304.77108      0.17355828   
     71000   438.29351      1365.7939      1804.0874      130.16991      305.66748      0.17472476   
     72000   448.38628      1360.1695      1808.5558      123.61569      304.40872      0.17540207   
     73000   413.18521      1386.343       1799.5282      198.01505      310.2664       0.17657443   
     74000   445.49063      1336.77        1782.2606      220.95671      299.17186      0.17844576   
     75000   423.84114      1349.9206      1773.7618      201.19172      302.11501      0.17778845   
     76000   426.25681      1297.2381      1723.4949      142.13322      290.32456      0.1743549    
     77000   435.92264      1339.602       1775.5247      127.45299      299.80568      0.17131404   
     78000   445.63438      1327.2818      1772.9162      141.34872      297.0484       0.17165693   
     79000   446.86312      1319.0807      1765.9439      148.15105      295.21298      0.17358519   
     80000   447.94647      1299.4007      1747.3471      134.36604      290.80854      0.17428724   
     81000   430.26578      1262.0556      1692.3214      143.9803       282.45064      0.17235098   
     82000   454.79533      1332.2633      1787.0586      136.1822       298.16326      0.17119176   
     83000   459.26057      1326.2215      1785.4821      150.16406      296.8111       0.17172125   
     84000   418.85758      1340.0469      1758.9045      170.27451      299.90525      0.17355976   
     85000   438.01482      1319.3936      1757.4084      141.08765      295.28299      0.17287941   
     86000   437.00422      1332.6566      1769.6608      149.46063      298.25128      0.17125185   
     87000   439.04228      1342.5288      1781.5711      119.32987      300.46069      0.1690255    
     88000   477.43965      1294.8765      1772.3161      77.347834      289.79602      0.16518863   
     89000   472.33867      1313.4915      1785.8302      82.77307       293.9621       0.1601946    
     90000   447.08164      1300.3293      1747.411       118.8717       291.01637      0.15759905   
     91000   473.11044      1328.8878      1801.9983      81.779972      297.40782      0.15857435   
     92000   463.13154      1282.1061      1745.2377      57.256118      286.93799      0.16420464   
     93000   439.86098      1336.9808      1776.8418      76.910055      299.21905      0.17041202   
     94000   460.72769      1347.6595      1808.3872      112.89103      301.60897      0.17086201   
     95000   443.79505      1362.4425      1806.2375      170.28796      304.91742      0.16856762   
     96000   440.51387      1361.1871      1801.701       191.59197      304.63647      0.16571069   
     97000   463.81867      1358.4831      1822.3018      260.85926      304.03131      0.16628666   
     98000   443.85284      1344.029       1787.8818      263.4187       300.79644      0.16817952   
     99000   445.35524      1347.19        1792.5452      230.74413      301.50389      0.17403947   
    100000   436.5138       1358.9303      1795.4441      191.89756      304.1314       0.17965217   
    101000   445.5675       1347.6172      1793.1847      136.5899       301.59949      0.18095943   
    102000   440.69999      1345.6898      1786.3898      109.28722      301.16813      0.18013075   
    103000   440.28969      1377.5128      1817.8025      145.23354      308.2902       0.17569113   
    104000   447.13147      1368.9907      1816.1222      146.75349      306.38293      0.16998661   
    105000   473.58358      1376.3949      1849.9785      161.38367      308.04         0.16699263   
    106000   466.00553      1340.4223      1806.4278      154.66872      299.98926      0.16486568   
    107000   436.00433      1317.3151      1753.3194      134.84134      294.81783      0.16263973   
    108000   462.98159      1325.2739      1788.2555      127.01103      296.59903      0.1628332    
    109000   469.50022      1313.1162      1782.6164      99.963291      293.8781       0.16374209   
    110000   424.9639       1313.4004      1738.3643      90.393322      293.9417       0.16782525   
    111000   452.91263      1301.3767      1754.2894      104.8803       291.25079      0.17520715   
    112000   421.60675      1282.1243      1703.7311      152.16884      286.94206      0.18104958   
    113000   416.16104      1343.3729      1759.534       226.61509      300.64962      0.18001655   
    114000   420.2785       1359.9726      1780.2511      177.98843      304.36466      0.17526625   
    115000   469.25771      1333.3929      1802.6506      182.19699      298.41606      0.17346211   
    116000   454.14142      1318.9988      1773.1402      174.84097      295.19464      0.1698336    
    117000   469.05368      1322.3085      1791.3621      114.52272      295.93535      0.16457456   
    118000   471.63127      1363.982       1835.6133      114.06094      305.26198      0.16295058   
    119000   448.55247      1370.4224      1818.9749      96.379278      306.70335      0.16319126   
    120000   432.85803      1379.9124      1812.7705      107.97647      308.82723      0.16563      
    121000   449.65238      1369.5073      1819.1596      135.78932      306.49854      0.16985612   
    122000   458.25709      1358.0402      1816.2973      113.2367       303.93219      0.1716178    
    123000   454.84472      1336.1125      1790.9572      135.80176      299.02472      0.17034025   
    124000   449.78972      1329.488       1779.2778      138.3885       297.54215      0.16402027   
    125000   463.99333      1303.159       1767.1523      138.00054      291.64966      0.15682967   
    126000   446.28009      1334.7022      1780.9822      147.96981      298.70908      0.15620741   
    127000   468.2514       1313.1737      1781.4251      154.31242      293.89097      0.16121283   
    128000   438.17911      1320.3622      1758.5414      210.13187      295.49978      0.16728853   
    129000   421.82924      1343.6567      1765.4859      212.60114      300.71312      0.16852892   
    130000   475.2799       1322.8712      1798.1511      151.80021      296.06129      0.1676126    
    131000   439.17713      1340.1051      1779.2823      143.33802      299.91828      0.166483     
    132000   437.56671      1357.6539      1795.2206      89.166753      303.84572      0.16575766   
    133000   473.60563      1314.2245      1787.8302      49.361063      294.12615      0.16476895   
    134000   464.16384      1329.46        1793.6238      1.4533517      297.53587      0.16460566   
    135000   418.95723      1348.6912      1767.6485      66.896846      301.83987      0.16771457   
    136000   458.03314      1318.7895      1776.8226      118.8805       295.14779      0.17023336   
    137000   446.5075       1324.8465      1771.354       138.15231      296.50337      0.1711798    
    138000   449.05816      1315.9903      1765.0484      177.16304      294.52132      0.16990918   
    139000   422.29614      1338.6953      1760.9915      231.18584      299.60276      0.16544627   
    140000   452.38931      1403.5715      1855.9608      194.578        314.12218      0.15915705   
    141000   467.76605      1379.8215      1847.5876      204.58351      308.80689      0.15754166   
    142000   460.07621      1395.965       1856.0412      194.56721      312.41984      0.15879534   
    143000   471.64056      1351.652       1823.2925      148.53534      302.50249      0.16061168   
    144000   454.68891      1359.7272      1814.4161      144.51865      304.30974      0.16345259   
    145000   453.74016      1348.7395      1802.4796      227.90763      301.85066      0.17047764   
    146000   395.0435       1401.8711      1796.9146      282.20351      313.74163      0.17547901   
    147000   431.00861      1305.5138      1736.5224      249.33657      292.17666      0.17462013   
    148000   442.55925      1334.6747      1777.2339      178.8422       298.70293      0.17119012   
    149000   448.98727      1331.5966      1780.5839      128.05429      298.01406      0.16735719   
    150000   438.97785      1326.0491      1765.027       100.46028      296.77251      0.16402693   
    151000   480.69768      1316.7931      1797.4907      151.75065      294.70099      0.16223472   
    152000   463.71578      1294.4209      1758.1367      165.45628      289.69405      0.16049425   
    153000   459.92236      1316.7243      1776.6467      224.70714      294.6856       0.15988917   
    154000   429.22315      1335.5905      1764.8136      256.18098      298.90789      0.16285074   
    155000   433.3426       1313.4892      1746.8318      267.56131      293.96158      0.16771259   
    156000   433.97872      1317.2613      1751.24        215.0171       294.80578      0.17013005   
    157000   403.71194      1305.2488      1708.9607      144.27309      292.11736      0.16914519   
    158000   426.56063      1295.4206      1721.9812      25.400569      289.91779      0.16814313   
    159000   457.33608      1317.6946      1775.0306     -5.5217241      294.90275      0.1677444    
    160000   442.65404      1331.4797      1774.1337      42.680305      297.98788      0.16765406   
    161000   435.5273       1319.763       1755.2903      121.42798      295.36567      0.16622717   
    162000   443.6025       1343.528       1787.1305      120.15545      300.68432      0.16060939   
    163000   500.0433       1310.8878      1810.9311      162.27382      293.37938      0.1561596    
    164000   469.93422      1345.6091      1815.5433      183.57415      301.15008      0.15639961   
    165000   461.16434      1336.1632      1797.3276      224.81878      299.03608      0.16403476   
    166000   453.75649      1379.5483      1833.3048      229.07832      308.74574      0.17099313   
    167000   433.95752      1357.7956      1791.7531      241.67021      303.87744      0.17466312   
    168000   466.34673      1343.7606      1810.1073      216.66121      300.73637      0.17447793   
    169000   461.40206      1360.8177      1822.2197      178.72949      304.55379      0.16984217   
    170000   458.2693       1365.4213      1823.6906      140.8522       305.58408      0.16521757   
    171000   442.87922      1372.315       1815.1942      198.60422      307.12692      0.1647948    
    172000   442.396        1386.4338      1828.8298      214.35098      310.28673      0.16317182   
    173000   466.39883      1343.5506      1809.9494      261.86566      300.68937      0.16143822   
    174000   459.74503      1335.8203      1795.5653      226.35975      298.95932      0.15863056   
    175000   482.85083      1304.2183      1787.0692      173.60955      291.88674      0.15264886   
    176000   471.61739      1323.8995      1795.5169      121.88373      296.29143      0.15058631   
    177000   482.53456      1313.4112      1795.9458      145.31231      293.94413      0.15831524   
    178000   430.42518      1344.1446      1774.5698      190.71447      300.82232      0.16626972   
    179000   442.16079      1332.181       1774.3418      199.87083      298.14484      0.16890081   
    180000   449.44368      1317.7493      1767.1929      167.54847      294.91499      0.16919432   
    181000   425.94559      1303.377       1729.3225      200.08121      291.69844      0.17028818   
    182000   418.83725      1337.726       1756.5632      183.96496      299.38582      0.17038047   
    183000   434.1318       1317.1677      1751.2995      144.81507      294.78484      0.16770522   
    184000   438.30342      1328.4487      1766.7521      115.21559      297.30955      0.16410868   
    185000   452.25182      1324.7245      1776.9763      123.69213      296.47606      0.15951681   
    186000   463.56269      1333.3722      1796.9349      102.42529      298.41144      0.15446842   
    187000   498.09045      1361.1843      1859.2747      105.68512      304.63584      0.15561575   
    188000   480.2106       1354.5662      1834.7768      156.74191      303.15469      0.16316351   
    189000   451.23312      1367.7855      1819.0186      218.46642      306.1132       0.16715119   
    190000   456.98819      1368.0791      1825.0673      251.56681      306.17891      0.17004773   
    191000   475.5321       1334.4628      1809.9949      252.49413      298.65552      0.17137468   
    192000   475.92022      1344.8241      1820.7443      202.05353      300.9744       0.17030396   
    193000   467.753        1377.3093      1845.0623      168.50003      308.24464      0.16812236   
    194000   461.83263      1343.4873      1805.3199      71.744048      300.67522      0.16571718   
    195000   457.25582      1348.6559      1805.9117      49.678801      301.83196      0.16483364   
    196000   460.07257      1369.3573      1829.4299      43.846971      306.46498      0.16672923   
    197000   463.63405      1373.3087      1836.9428      98.108473      307.34931      0.1730492    
    198000   451.03816      1372.8936      1823.9317      159.34829      307.2564       0.17839118   
    199000   418.84541      1316.9637      1735.8091      240.70738      294.73917      0.18059732   
    200000   431.85235      1319.547       1751.3994      254.68161      295.31734      0.17961369   
    201000   455.97693      1310.4257      1766.4026      203.82946      293.27595      0.17466033   
    202000   426.30057      1316.1374      1742.438       153.24833      294.55425      0.16725537   
    203000   444.00503      1312.2838      1756.2888      137.48243      293.69181      0.16453734   
    204000   477.54864      1305.3136      1782.8623      175.83008      292.13187      0.16534932   
    205000   447.53447      1332.7508      1780.2852      196.75042      298.27236      0.16674195   
    206000   443.32805      1319.1856      1762.5136      216.5229       295.23644      0.16779645   
    207000   429.47968      1331.207       1760.6867      227.64638      297.92686      0.16838723   
    208000   452.60484      1309.1611      1761.7659      158.86088      292.99294      0.16716505   
    209000   460.65242      1385.9181      1846.5705      173.0499       310.17132      0.1659111    
    210000   467.76047      1338.4856      1806.2461      141.63507      299.55583      0.16365141   
    211000   460.83131      1341.6824      1802.5138      72.689712      300.27128      0.16088198   
    212000   472.07023      1338.5505      1810.6207      119.20774      299.57034      0.16051504   
    213000   476.65677      1345.5006      1822.1574      162.87858      301.12581      0.16133694   
    214000   482.60791      1358.0787      1840.6866      187.321        303.94081      0.16217209   
    215000   479.96704      1335.4939      1815.4609      197.29726      298.88627      0.16436974   
    216000   461.99117      1372.4361      1834.4273      177.72455      307.15403      0.16770972   
    217000   470.77355      1353.9256      1824.6991      188.56409      303.01132      0.17315859   
    218000   443.5082       1355.1166      1798.6248      198.90661      303.27787      0.17730218   
    219000   437.54843      1314.0217      1751.5701      163.47943      294.08075      0.17669388   
    220000   432.76716      1304.4572      1737.2244      147.49368      291.94021      0.17232238   
    221000   433.0739       1313.6125      1746.6864      122.37769      293.98917      0.16596799   
    222000   456.6121       1325.4167      1782.0288      100.3899       296.63098      0.16108765   
    223000   481.29471      1391.2998      1872.5945      70.753555      311.37575      0.15849883   
    224000   476.77233      1402.3893      1879.1617      90.798084      313.85761      0.15858608   
    225000   468.98578      1369.2492      1838.2349      171.35138      306.44077      0.16117747   
    226000   419.38442      1375.3727      1794.7571      249.20907      307.81123      0.16606554   
    227000   450.76671      1332.8282      1783.5949      319.43147      298.28968      0.16751615   
    228000   458.46825      1296.087       1754.5553      315.86382      290.06694      0.16506778   
    229000   440.65293      1335.9464      1776.5993      266.27         298.98754      0.16158354   
    230000   460.21308      1324.1403      1784.3534      217.8705       296.34532      0.16187971   
    231000   441.31594      1343.9697      1785.2857      184.33986      300.78319      0.16471832   
    232000   440.5532       1346.3916      1786.9448      195.66865      301.32519      0.16828188   
    233000   439.61264      1327.7581      1767.3707      160.724        297.15498      0.17026403   
    234000   425.87015      1307.9413      1733.8114      174.34355      292.71995      0.17147301   
    235000   410.38451      1270.1308      1680.5153      143.69824      284.25789      0.16980823   
    236000   422.20659      1327.7964      1750.0029      172.82475      297.16355      0.16948345   
    237000   475.46238      1314.7002      1790.1626      174.76295      294.2326       0.16820558   
    238000   446.74712      1314.4725      1761.2196      184.90199      294.18164      0.16547106   
    239000   441.69919      1298.6896      1740.3888      152.55641      290.64941      0.16640111   
    240000   437.92837      1291.6923      1729.6207      155.68794      289.08339      0.17127579   
    241000   421.86088      1343.9171      1765.778       192.26581      300.7714       0.17796125   
    242000   427.02247      1353.6026      1780.6251      256.08014      302.93904      0.18008327   
    243000   446.81475      1330.1374      1776.9521      188.53257      297.68748      0.1758891    
    244000   462.97201      1326.3623      1789.3343      118.52902      296.8426       0.17077652   
    245000   462.6622       1398.3869      1861.0491      89.891264      312.96187      0.16606317   
    246000   468.28291      1398.2928      1866.5757      130.01814      312.9408       0.16408673   
    247000   472.36435      1366.707       1839.0713      128.92172      305.87183      0.16120345   
    248000   469.73392      1364.2069      1833.9408      142.61014      305.31231      0.16073807   
    249000   456.5985       1376.2879      1832.8864      207.00387      308.01607      0.163496     
    250000   478.98078      1327.9942      1806.975       228.50219      297.20783      0.16474908   
    251000   472.66512      1300.0383      1772.7035      209.88896      290.95125      0.1635599    
    252000   455.50035      1311.3732      1766.8735      218.26385      293.48801      0.15898376   
    253000   455.62918      1334.8181      1790.4473      187.41597      298.73503      0.15449285   
    254000   462.57965      1332.034       1794.6137      144.53324      298.11195      0.15153604   
    255000   456.49207      1307.3445      1763.8366      105.2869       292.58638      0.1504406    
    256000   457.8364       1301.1157      1758.9521      97.698138      291.19236      0.15669263   
    257000   481.95491      1274.5601      1756.515       140.2315       285.24916      0.16435124   
    258000   436.96114      1286.3228      1723.2839      176.00997      287.88168      0.16682145   
    259000   419.20119      1357.6369      1776.8381      214.9446       303.84192      0.1682653    
    260000   459.50064      1362.4982      1821.9988      174.75444      304.92989      0.16850119   
    261000   450.49706      1339.9675      1790.4646      126.62162      299.88748      0.16797633   
    262000   457.02521      1344.3461      1801.3713      87.376947      300.86741      0.16713604   
    263000   443.04441      1338.2345      1781.279       119.66326      299.49964      0.16531038   
    264000   461.10907      1314.1093      1775.2184      123.29962      294.10035      0.16249605   
    265000   479.03875      1307.2524      1786.2911      188.20752      292.56577      0.16065287   
    266000   446.49416      1364.8276      1811.3217      233.21822      305.45122      0.16222846   
    267000   476.97563      1363.9815      1840.9571      248.53236      305.26185      0.16709958   
    268000   454.3906       1357.2259      1811.6165      273.79892      303.74994      0.17132183   
    269000   441.29819      1334.9469      1776.2451      236.61462      298.76387      0.17225425   
    270000   426.5597       1298.3627      1724.9224      204.47168      290.57623      0.17128986   
    271000   448.55752      1282.1907      1730.7482      124.89894      286.95692      0.16601411   
    272000   474.63404      1301.1317      1775.7658      138.48784      291.19595      0.1583499    
    273000   464.64638      1342.0356      1806.6819      107.77141      300.35031      0.1540572    
    274000   465.05306      1326.2641      1791.3171      105.28919      296.82062      0.15483211   
    275000   471.25601      1293.5277      1764.7837      190.80632      289.49416      0.15797391   
    276000   453.89823      1346.1341      1800.0323      210.93014      301.26757      0.16139836   
    277000   467.94265      1362.4686      1830.4113      247.88377      304.92328      0.16688488   
    278000   459.92465      1344.7915      1804.7162      248.88621      300.96711      0.16906068   
    279000   462.479        1357.843       1820.322       192.09545      303.88804      0.16771922   
    280000   460.08157      1409.4526      1869.5341      199.70013      315.43838      0.16495161   
    281000   449.28198      1400.1586      1849.4405      214.9346       313.35836      0.16023063   
    282000   473.97141      1358.3188      1832.2902      195.16945      303.99454      0.15884934   
    283000   489.11648      1335.7455      1824.862       197.08919      298.94258      0.16109228   
    284000   462.61632      1371.9911      1834.6074      256.67098      307.05442      0.16674867   
    285000   472.66458      1293.3177      1765.9822      222.94852      289.44715      0.17004508   
    286000   459.44617      1310.5073      1769.9535      236.06561      293.29423      0.1730189    
    287000   413.29747      1343.5042      1756.8017      235.9485       300.679        0.17367623   
    288000   439.69536      1319.6927      1759.3881      164.73293      295.34994      0.17287632   
    289000   427.1704       1278.5482      1705.7186      108.56976      286.1417       0.16992069   
    290000   451.22112      1306.209       1757.4301      54.754632      292.33226      0.16685606   
    291000   480.06591      1327.1009      1807.1669      78.212647      297.00791      0.16487009   
    292000   454.2187       1329.4183      1783.637       73.435534      297.52654      0.16075736   
    293000   478.24889      1315.7987      1794.0476      98.887884      294.47845      0.15516163   
    294000   461.60911      1313.1962      1774.8053      155.08041      293.89601      0.15400312   
    295000   494.16762      1320.6613      1814.8289      161.87326      295.56671      0.15878703   
    296000   457.23102      1352.8856      1810.1166      222.0443       302.77858      0.16639767   
    297000   450.97122      1375.1039      1826.0751      266.71631      307.75107      0.17016844   
    298000   434.36828      1356.5196      1790.8879      244.29154      303.59187      0.17109016   
    299000   488.85563      1342.9713      1831.8269      169.28086      300.55973      0.16856254   
    300000   451.78537      1359.8719      1811.6573      106.08591      304.34213      0.16530283   
    301000   459.20456      1372.5799      1831.7844      162.67354      307.18619      0.16579123   
    302000   469.88209      1353.1059      1822.988       151.5912       302.82788      0.16760495   
    303000   498.34939      1352.8373      1851.1867      178.9023       302.76777      0.17003528   
    304000   472.68298      1366.2627      1838.9457      198.66206      305.77239      0.17316228   
    305000   443.84919      1317.1499      1760.9991      165.09149      294.78086      0.17565377   
    306000   426.00802      1353.2338      1779.2418      147.31695      302.8565       0.17474766   
    307000   463.75912      1340.6292      1804.3883      129.77071      300.03557      0.17310642   
    308000   457.53462      1328.9914      1786.526       178.26384      297.43101      0.17074372   
    309000   445.63636      1320.5288      1766.1651      220.1868       295.53705      0.16557424   
    310000   458.06275      1336.7675      1794.8303      195.25845      299.17131      0.16002496   
    311000   479.20387      1301.0742      1780.278       162.35925      291.18307      0.15865797   
    312000   445.70605      1322.9517      1768.6577      105.38323      296.0793       0.16313795   
    313000   451.39533      1359.7177      1811.113       142.11421      304.30761      0.17079044   
    314000   441.36654      1359.2322      1800.5988      120.93161      304.19896      0.17349327   
    315000   447.59191      1352.9393      1800.5312      111.15789      302.79059      0.17640726   
    316000   464.38324      1329.8813      1794.2645      71.553743      297.63016      0.17954939   
    317000   457.10211      1374.6994      1831.8015      98.324514      307.66054      0.18086047   
    318000   456.81302      1347.0132      1803.8262      88.222967      301.46431      0.17921317   
    319000   421.60991      1383.1034      1804.7133      125.31583      309.54137      0.17298385   
    320000   454.20552      1383.1962      1837.4017      132.6141       309.56215      0.1664047    
    321000   449.44195      1362.947       1812.3889      180.31917      305.03034      0.16420161   
    322000   471.8495       1360.5031      1832.3526      206.17596      304.48339      0.1635019    
    323000   456.12692      1342.514       1798.6409      188.31979      300.45738      0.16278565   
    324000   448.89861      1347.3582      1796.2568      144.63575      301.54152      0.16334277   
    325000   444.90973      1351.546       1796.4557      86.846791      302.47877      0.16498978   
    326000   465.34936      1337.0964      1802.4457      112.38376      299.24491      0.1674997    
    327000   446.56544      1348.9268      1795.4922      158.1123       301.89258      0.17261807   
    328000   437.47546      1371.6148      1809.0902      169.52099      306.9702       0.17884637   
    329000   445.34855      1391.6533      1837.0019      198.49011      311.45487      0.1800026    
    330000   446.0203       1354.4835      1800.5038      192.15581      303.13618      0.17230898   
    331000   461.00339      1361.8105      1822.8139      162.46967      304.77598      0.16555449   
    332000   482.24216      1343.0391      1825.2813      111.57294      300.57492      0.16403078   
    333000   472.75537      1303.8178      1776.5732      84.78233       291.7971       0.16414667   
    334000   467.82061      1311.9149      1779.7355      67.782967      293.60924      0.16631342   
    335000   434.92485      1290.6835      1725.6084      64.678376      288.85762      0.17016627   
    336000   434.85267      1360.5045      1795.3571      92.128836      304.48369      0.17375328   
    337000   457.76849      1344.851       1802.6195      166.75203      300.98041      0.17650529   
    338000   459.17947      1363.0943      1822.2738      178.31653      305.06331      0.17380167   
    339000   479.33674      1381.6515      1860.9883      218.49503      309.21645      0.16634428   
    340000   482.19868      1339.2846      1821.4833      216.87545      299.73464      0.15761911   
    341000   478.03417      1381.6673      1859.7014      214.18526      309.21997      0.15646605   
    342000   458.58237      1381.1152      1839.6976      188.52714      309.09642      0.15999236   
    343000   466.62341      1315.2471      1781.8705      143.04475      294.355        0.16442069   
    344000   471.64021      1334.3044      1805.9446      115.33465      298.62006      0.16811391   
    345000   466.04023      1354.1241      1820.1644      138.38332      303.05576      0.17174734   
    346000   453.15161      1353.0087      1806.1603      139.55486      302.80612      0.17263378   
    347000   472.99699      1376.1408      1849.1378      156.69671      307.98313      0.16925816   
    348000   475.74008      1357.0164      1832.7565      136.02381      303.70306      0.16421315   
    349000   481.35907      1354.4888      1835.8479      130.03303      303.13737      0.15898476   
    350000   449.95451      1390.2217      1840.1762      118.5718       311.13447      0.15928097   
    351000   466.52576      1347.1896      1813.7153      154.49157      301.50379      0.16108404   
    352000   470.10552      1333.0696      1803.1751      205.543        298.34371      0.16167414   
    353000   479.7643       1341.3329      1821.0972      254.59801      300.19307      0.1619935    
    354000   444.61311      1364.0571      1808.6702      241.85773      305.27878      0.16198302   
    355000   477.44008      1308.3932      1785.8333      170.14012      292.82109      0.1603327    
    356000   458.96408      1281.9373      1740.9014      97.661314      286.9002       0.16036235   
    357000   460.55674      1322.992       1783.5487      84.010559      296.08832      0.16248943   
    358000   442.76491      1331.8006      1774.5655      94.562106      298.05971      0.16440624   
    359000   449.61216      1345.7385      1795.3507      154.30183      301.17904      0.16674261   
    360000   475.87689      1368.7486      1844.6254      191.90864      306.32874      0.1669383    
    361000   460.27084      1355.2003      1815.4712      147.00654      303.29662      0.16553138   
    362000   454.89275      1370.1147      1825.0075      137.2607       306.63449      0.16610226   
    363000   464.60471      1345.7656      1810.3703      186.21246      301.1851       0.16899043   
    364000   455.64047      1321.1549      1776.7954      184.65497      295.67718      0.17095237   
    365000   451.45038      1300.1321      1751.5825      207.23479      290.97223      0.17101119   
    366000   440.09431      1272.6887      1712.7831      195.59391      284.83035      0.16754737   
    367000   470.76411      1313.8915      1784.6556      200.96009      294.05162      0.16310858   
    368000   485.79252      1304.591       1790.3835      151.97057      291.97014      0.155545     
    369000   473.10407      1317.3143      1790.4184      127.58081      294.81764      0.15207416   
    370000   471.32925      1339.462       1810.7913      161.66831      299.77435      0.15417304   
    371000   458.99684      1316.2271      1775.2239      124.82446      294.57433      0.15793555   
    372000   457.94406      1282.8297      1740.7737      120.54449      287.09991      0.16188708   
    373000   461.99491      1334.2613      1796.2562      167.71407      298.61042      0.16650231   
    374000   454.71859      1339.4392      1794.1577      189.7095       299.76923      0.17113277   
    375000   445.49348      1293.3761      1738.8696      203.62795      289.46023      0.17343739   
    376000   461.62537      1304.8058      1766.4311      172.28323      292.01821      0.17197702   
    377000   465.85175      1295.7807      1761.6325      88.091508      289.99838      0.16652216   
    378000   445.84407      1360.0077      1805.8518      37.955647      304.37253      0.16336597   
    379000   465.46633      1373.8424      1839.3087      38.995859      307.46874      0.16376365   
    380000   441.83588      1332.6375      1774.4734      92.191222      298.24701      0.16524505   
    381000   483.92062      1319.948       1803.8686      149.3682       295.40706      0.16817729   
    382000   431.03285      1353.9504      1784.9833      170.99478      303.01688      0.16941962   
    383000   470.14003      1335.6805      1805.8205      142.87573      298.92804      0.16898406   
    384000   464.86377      1300.6486      1765.5124      104.14505      291.08783      0.16677648   
    385000   464.86601      1332.642       1797.508       89.409039      298.24802      0.1631778    
    386000   461.06213      1320.2386      1781.3007      132.73838      295.4721       0.15782516   
    387000   465.28491      1291.3701      1756.655       143.23174      289.01127      0.15397656   
    388000   470.13945      1268.6113      1738.7508      163.6548       283.91782      0.1569433    
    389000   432.52796      1334.4522      1766.9802      233.43518      298.65315      0.16359996   
    390000   457.87811      1336.5468      1794.4249      261.0285       299.12192      0.16695445   
    391000   440.38473      1310.399       1750.7837      187.41949      293.26998      0.16630954   
    392000   448.15989      1332.2354      1780.3952      93.403243      298.15701      0.16715953   
    393000   444.0086       1322.7322      1766.7408      48.885232      296.03018      0.17022772   
    394000   451.24295      1307.7727      1759.0156      96.917396      292.6822       0.1720548    
    395000   452.18161      1302.0658      1754.2474      159.13821      291.405        0.16976046   
    396000   449.86549      1334.97        1784.8355      164.39516      298.76903      0.16306863   
    397000   448.16539      1326.838       1775.0034      166.85816      296.94908      0.15944625   
    398000   473.02186      1293.6609      1766.6828      179.1259       289.52397      0.16434777   
    399000   432.40567      1339.4548      1771.8604      233.41206      299.77272      0.17398803   
    400000   449.79282      1323.9436      1773.7364      219.71122      296.30129      0.17724359   
    401000   449.19375      1323.3947      1772.5884      216.48396      296.17844      0.17605324   
    402000   449.59933      1331.2646      1780.8639      188.06752      297.93974      0.1718527    
    403000   434.73023      1350.3994      1785.1296      189.30254      302.22216      0.16886734   
    404000   448.00728      1339.3935      1787.4008      153.88456      299.75902      0.16659951   
    405000   451.80259      1314.5862      1766.3888      154.05809      294.20709      0.16608566   
    406000   462.40706      1336.9752      1799.3823      204.43462      299.2178       0.16972646   
    407000   427.34823      1342.2549      1769.6031      225.70162      300.3994       0.17422017   
    408000   451.09117      1355.9276      1807.0187      178.14952      303.45937      0.17897275   
    409000   411.42078      1370.0725      1781.4933      157.70977      306.62504      0.18074593   
    410000   449.79754      1375.8796      1825.6771      113.41822      307.92467      0.17904328   
    411000   441.30821      1362.2242      1803.5324      123.45357      304.86857      0.17511076   
    412000   460.46767      1364.4004      1824.8681      98.003183      305.35561      0.17067419   
    413000   490.77679      1332.6321      1823.4089      96.517067      298.2458       0.16658912   
    414000   474.63761      1373.0598      1847.6974      119.14393      307.29361      0.16427444   
    415000   436.13367      1368.2188      1804.3525      179.51771      306.21018      0.1655878    
    416000   478.08489      1334.0609      1812.1458      154.86136      298.56556      0.17341445   
    417000   476.4342       1346.6231      1823.0573      155.08779      301.37702      0.18071342   
    418000   452.13869      1344.5441      1796.6828      82.292161      300.91173      0.18226161   
    419000   446.04571      1375.9972      1822.0429      65.358351      307.95099      0.1808097    
    420000   457.8624       1294.8051      1752.6675      7.8233652      289.78005      0.17588032   
    421000   461.50836      1343.2701      1804.7785      75.474195      300.62661      0.17316462   
    422000   481.82917      1322.2778      1804.107       151.46817      295.92849      0.1718606    
    423000   419.58362      1346.427       1766.0106      250.26711      301.33312      0.1736684    
    424000   418.7781       1309.9402      1728.7183      240.69161      293.1673       0.17688218   
    425000   445.95091      1304.6486      1750.5995      213.7258       291.98303      0.18014323   
    426000   439.18583      1323.9497      1763.1356      200.03411      296.30267      0.18207102   
    427000   456.44721      1316.8182      1773.2655      139.94108      294.70663      0.17638211   
    428000   466.23615      1366.2131      1832.4493      128.52448      305.7613       0.17013954   
    429000   471.73232      1373.3429      1845.0752      124.92828      307.35696      0.16733631   
    430000   471.75594      1347.7069      1819.4628      151.88971      301.61957      0.16671866   
    431000   479.74698      1367.5137      1847.2607      180.5745       306.05237      0.16846639   
    432000   457.04306      1417.4852      1874.5283      240.19186      317.2361       0.17275498   
    433000   463.1228       1376.3658      1839.4886      244.16595      308.0335       0.17422557   
    434000   484.62145      1341.2691      1825.8906      232.52052      300.17879      0.17516125   
    435000   469.66889      1376.0962      1845.7651      227.40501      307.97316      0.17160697   
    436000   478.31939      1358.7056      1837.025       155.75752      304.08111      0.16290794   
    437000   496.1181       1324.6479      1820.766       113.3455       296.45891      0.1592343    
    438000   462.28799      1315.3072      1777.5952      59.814698      294.36845      0.15919822   
    439000   459.25246      1339.8266      1799.0791      40.708605      299.85595      0.16445525   
    440000   476.11943      1324.613       1800.7325      61.302464      296.45112      0.16933914   
    441000   435.63326      1351.2606      1786.8938      112.36041      302.41489      0.17213399   
    442000   448.11121      1335.8525      1783.9637      89.877021      298.96652      0.17056679   
    443000   472.88796      1335.6354      1808.5233      139.21779      298.91794      0.16755837   
    444000   442.73593      1365.782       1808.5179      271.15601      305.66481      0.1666661    
    445000   490.52658      1325.9136      1816.4402      327.41438      296.74218      0.16729873   
    446000   451.06462      1382.4944      1833.559       273.46151      309.40508      0.16818128   
    447000   468.31485      1341.4899      1809.8048      164.7025       300.2282       0.1679722    
    448000   458.20158      1340.8672      1799.0688      82.921562      300.08884      0.16926729   
    449000   462.60686      1350.3293      1812.9361      40.143936      302.20647      0.17422875   
    450000   421.88596      1324.1209      1746.0068      159.04362      296.34097      0.18017993   
    451000   439.44426      1312.3074      1751.7517      164.20249      293.6971       0.18065669   
    452000   441.53337      1362.5485      1804.0819      245.43449      304.94115      0.17619352   
    453000   453.46819      1342.6431      1796.1113      277.9087       300.48629      0.17084473   
    454000   495.81359      1339.4331      1835.2467      223.50457      299.76787      0.16786558   
    455000   466.38524      1339.1225      1805.5078      202.29986      299.69837      0.16771559   
    456000   463.26228      1276.037       1739.2993      183.05439      285.57969      0.16931651   
    457000   449.59222      1315.8978      1765.49        153.067        294.50064      0.17132985   
    458000   451.0056       1324.4426      1775.4482      89.07574       296.41298      0.17360376   
    459000   461.08438      1320.4483      1781.5327      42.386279      295.51904      0.1756642    
    460000   440.18945      1301.0731      1741.2626      30.616087      291.18284      0.17459807   
    461000   433.83031      1335.1434      1768.9737      52.059612      298.80784      0.16972158   
    462000   420.19461      1339.0767      1759.2713      82.573233      299.68812      0.16725032   
    463000   493.66582      1311.1479      1804.8137      103.58545      293.4376       0.16807      
    464000   453.34973      1350.833       1804.1827      150.20275      302.3192       0.17061413   
    465000   463.18768      1380.1829      1843.3706      155.63025      308.88777      0.17210377   
    466000   462.29206      1403.6282      1865.9203      189.34155      314.13487      0.1715376    
    467000   466.68274      1347.601       1814.2838      179.57123      301.59588      0.16927521   
    468000   467.08439      1369.9359      1837.0203      179.29079      306.59447      0.16720049   
    469000   472.99732      1413.9914      1886.9887      197.79567      316.45418      0.16791569   
    470000   470.05546      1366.0351      1836.0906      128.40874      305.72146      0.16766653   
    471000   451.54481      1374.2194      1825.7642      160.74311      307.55312      0.16890727   
    472000   467.9114       1330.7449      1798.6563      118.72445      297.82343      0.17056982   
    473000   465.85071      1350.1776      1816.0283      109.4564       302.17251      0.17536607   
    474000   452.89551      1339.1053      1792.0008      112.27384      299.69451      0.18092777   
    475000   445.71005      1364.9204      1810.6304      155.29699      305.47198      0.18513193   
    476000   464.11201      1316.1368      1780.2488      152.37926      294.55412      0.18227053   
    477000   436.94376      1354.5909      1791.5347      101.15743      303.16023      0.17503369   
    478000   476.86761      1331.9971      1808.8648      119.62336      298.1037       0.17170851   
    479000   439.79023      1350.5025      1790.2927      166.10589      302.24523      0.17242643   
    480000   444.06769      1363.1124      1807.1801      211.5154       305.06735      0.17455047   
    481000   451.99178      1353.5038      1805.4956      273.6819       302.91693      0.17482931   
    482000   480.02867      1374.9571      1854.9858      245.56381      307.71823      0.17206049   
    483000   479.01771      1373.8757      1852.8934      178.57607      307.47621      0.16662575   
    484000   468.39919      1388.3827      1856.7819      127.91037      310.7229       0.16203797   
    485000   487.72152      1355.0279      1842.7495      73.992851      303.25804      0.15922443   
    486000   484.02577      1337.0691      1821.0949      77.572908      299.23881      0.15902698   
    487000   461.74599      1358.9103      1820.6563      102.29113      304.12692      0.16050526   
    488000   462.74556      1324.5096      1787.2552      138.67178      296.42798      0.16192108   
    489000   476.36626      1354.6435      1831.0098      219.25255      303.172        0.16523136   
    490000   467.82448      1363.215       1831.0395      244.68008      305.09032      0.17091163   
    491000   464.30131      1405.334       1869.6353      236.12432      314.51663      0.17539277   
    492000   464.73262      1361.3522      1826.0848      203.37019      304.67341      0.17289156   
    493000   425.72457      1372.2303      1797.9549      232.52021      307.10796      0.16613769   
    494000   474.77365      1350.8095      1825.5832      150.68351      302.31394      0.16307872   
    495000   460.58946      1335.5265      1796.116       164.24474      298.89358      0.16548241   
    496000   443.3283       1288.4625      1731.7908      115.1074       288.36055      0.16964217   
    497000   451.71394      1317.4019      1769.1158      41.460351      294.83724      0.17363101   
    498000   473.13607      1305.7681      1778.9041      9.7534048      292.23357      0.17559207   
    499000   450.64462      1337.3566      1788.0012      27.526827      299.30314      0.17650199   
    500000   428.09711      1395.8572      1823.9543      143.04457      312.39571      0.17948506   
    501000   463.9563       1370.3706      1834.3269      236.28459      306.69176      0.18142385   
    502000   460.89112      1350.4232      1811.3143      216.75702      302.22748      0.18085952   
    503000   437.50076      1348.1437      1785.6445      200.74777      301.71733      0.17973097   
    504000   431.89611      1310.9036      1742.7997      127.72374      293.38292      0.1769465    
    505000   469.53804      1282.8327      1752.3708      70.27133       287.1006       0.17374416   
    506000   461.87475      1296.0557      1757.9304      104.53621      290.05992      0.17264984   
    507000   445.47479      1330.0625      1775.5372      143.20314      297.67071      0.16995375   
    508000   447.23623      1327.1603      1774.3965      181.1449       297.0212       0.16578854   
    509000   469.60594      1328.7244      1798.3303      215.01047      297.37125      0.16424786   
    510000   460.66998      1386.0824      1846.7524      197.72219      310.20809      0.16974446   
    511000   475.72106      1349.0372      1824.7583      162.62075      301.91729      0.17732979   
    512000   454.22264      1344.4999      1798.7225      105.68286      300.90184      0.17939016   
    513000   441.99073      1352.5848      1794.5756      77.447013      302.71126      0.17653915   
    514000   452.83856      1327.0046      1779.8432      132.63352      296.98636      0.17182636   
    515000   456.26468      1326.0609      1782.3256      155.94268      296.77515      0.16849579   
    516000   466.48623      1279.866       1746.3522      179.9228       286.43663      0.1684651    
    517000   444.72758      1306.9117      1751.6393      204.172        292.48953      0.17174897   
    518000   436.88798      1329.5047      1766.3927      179.8613       297.54589      0.17402878   
    519000   428.47028      1330.8968      1759.3671      175.15775      297.85744      0.17582969   
    520000   451.5932       1341.1223      1792.7155      147.80855      300.14591      0.17725378   
    521000   472.51363      1401.0999      1873.6135      99.976224      313.56903      0.17772386   
    522000   449.24684      1380.9049      1830.1517      127.41972      309.04935      0.17582303   
    523000   462.42681      1345.2678      1807.6946      119.93522      301.07369      0.17088293   
    524000   481.69841      1341.3222      1823.0207      147.66863      300.19067      0.16736423   
    525000   452.95676      1346.3026      1799.2594      135.09676      301.30529      0.16717229   
    526000   468.16218      1322.2816      1790.4438      128.64224      295.92934      0.16860238   
    527000   444.84394      1296.0644      1740.9084      136.85615      290.06188      0.17192449   
    528000   439.21449      1298.8338      1738.0483      129.24262      290.68166      0.1773778    
    529000   431.40576      1331.8523      1763.2581      79.544621      298.07129      0.17933357   
    530000   439.85197      1317.7371      1757.5891      47.676738      294.91227      0.17633135   
    531000   463.89969      1313.9132      1777.8129      58.681697      294.05648      0.16443521   
    532000   459.63512      1342.2134      1801.8486      98.859811      300.39012      0.1597983    
    533000   467.51181      1343.3669      1810.8787      208.33289      300.64827      0.16239635   
    534000   456.01113      1357.8394      1813.8505      260.68622      303.88724      0.1677795    
    535000   443.09653      1363.9432      1807.0397      268.27035      305.25329      0.17271629   
    536000   491.44734      1370.7335      1862.1808      222.30154      306.77297      0.17390103   
    537000   472.10256      1400.8333      1872.9359      161.79625      313.50937      0.17020971   
    538000   465.83818      1372.6218      1838.46        157.38271      307.19558      0.1660912    
    539000   481.99211      1374.5406      1856.5327      162.58529      307.62501      0.16408657   
    540000   459.93416      1343.1319      1803.0661      167.62165      300.59568      0.16385256   
    541000   465.11701      1318.5983      1783.7153      218.44872      295.10501      0.16594931   
    542000   434.09605      1356.5016      1790.5976      207.02143      303.58784      0.16860399   
    543000   463.04501      1330.1171      1793.1621      217.47561      297.68293      0.17142765   
    544000   452.04184      1311.8778      1763.9196      161.55395      293.60093      0.17176486   
    545000   465.90603      1319.6851      1785.5911      73.237105      295.34822      0.17014349   
    546000   472.12567      1309.2777      1781.4034      71.528328      293.01904      0.17030631   
    547000   459.80145      1300.6213      1760.4228      91.905445      291.08173      0.17109257   
    548000   435.63473      1349.647       1785.2818      150.16449      302.05378      0.17127536   
    549000   455.0708       1331.538       1786.6088      176.38881      298.00095      0.17041134   
    550000   442.66978      1291.5352      1734.205       162.45692      289.04823      0.16917959   
    551000   438.64057      1317.4812      1756.1217      201.08271      294.85499      0.16948589   
    552000   471.3309       1330.3357      1801.6666      157.69853      297.73187      0.17001613   
    553000   471.44183      1323.8468      1795.2886      160.38998      296.27963      0.16949955   
    554000   463.56233      1334.4397      1798.0021      174.93048      298.65035      0.16917005   
    555000   473.21763      1376.6018      1849.8194      191.86188      308.08631      0.17120874   
    556000   464.617        1400.6047      1865.2217      231.91672      313.45821      0.17310265   
    557000   468.74748      1349.4824      1818.2299      234.8178       302.01693      0.17579036   
    558000   446.82919      1389.2617      1836.0909      233.82145      310.91963      0.17812835   
    559000   458.55096      1355.7121      1814.2631      232.08214      303.41116      0.17574134   
    560000   450.22466      1363.0546      1813.2792      143.88933      305.05441      0.1702772    
    561000   465.64173      1406.176       1871.8177      109.23155      314.70507      0.16613605   
    562000   466.01681      1394.1249      1860.1417      92.669374      312.00801      0.16288878   
    563000   485.95143      1368.8807      1854.8322      109.84288      306.35832      0.16194397   
    564000   460.02474      1361.3256      1821.3503      231.52759      304.66747      0.16789674   
    565000   466.08454      1341.861       1807.9455      231.44238      300.31124      0.17364112   
    566000   443.54757      1381.6934      1825.241       206.12106      309.22582      0.17658842   
    567000   425.71463      1426.0618      1851.7764      221.6          319.15556      0.17888375   
    568000   470.42826      1361.113       1831.5412      218.15314      304.61988      0.17768955   
    569000   444.05602      1362.4524      1806.5084      207.84039      304.91964      0.17430305   
    570000   453.81968      1354.0535      1807.8732      194.4619       303.03996      0.1728398    
    571000   470.73636      1370.7029      1841.4392      218.73464      306.76612      0.17418231   
    572000   467.15251      1339.5309      1806.6834      144.45744      299.78976      0.17572228   
    573000   460.33152      1355.3382      1815.6697      133.25395      303.32747      0.18012125   
    574000   463.92412      1371.4649      1835.3891      102.62453      306.93667      0.18628072   
    575000   435.44734      1354.2964      1789.7437      113.0796       303.09431      0.19047895   
    576000   442.64527      1336.3807      1779.026       79.708769      299.08474      0.18762753   
    577000   451.01158      1352.7576      1803.7692      143.37315      302.74993      0.17884427   
    578000   450.34169      1394.4491      1844.7908      138.28181      312.08058      0.17172547   
    579000   460.8621       1378.9834      1839.8455      170.11637      308.61932      0.17043881   
    580000   465.03107      1395.6745      1860.7056      208.20332      312.35483      0.17250615   
    581000   466.54354      1340.6448      1807.1883      197.64858      300.03906      0.17795655   
    582000   446.22042      1323.1494      1769.3698      195.98949      296.12355      0.18356907   
    583000   433.28254      1344.3883      1777.6708      170.55536      300.87685      0.18502678   
    584000   427.7009       1337.2875      1764.9884      118.41495      299.28769      0.1799596    
    585000   423.8939       1312.1401      1736.034       145.80457      293.65964      0.17489984   
    586000   453.30779      1323.2186      1776.5264      183.30409      296.13904      0.17242956   
    587000   436.94531      1334.4397      1771.3851      220.07654      298.65035      0.17140979   
    588000   471.06916      1314.1349      1785.2041      210.89284      294.1061       0.17146744   
    589000   426.15917      1328.1965      1754.3557      221.94934      297.25311      0.17424678   
    590000   452.99681      1371.735       1824.7318      161.72851      306.99711      0.17344391   
    591000   459.38647      1359.8972      1819.2837      129.52713      304.34778      0.16847689   
    592000   483.24986      1354.3045      1837.5544      75.063845      303.09613      0.16363021   
    593000   463.74176      1379.0323      1842.7741      121.66662      308.63026      0.16281352   
    594000   479.85347      1371.2065      1851.0599      174.76902      306.87882      0.16524966   
    595000   462.77138      1365.9935      1828.7649      191.28754      305.71215      0.17000788   
    596000   475.35455      1352.9149      1828.2694      173.91792      302.78513      0.17518592   
    597000   479.95858      1379.162       1859.1206      144.40157      308.65929      0.17775302   
    598000   468.8891       1355.7889      1824.678       88.295639      303.42834      0.17416523   
    599000   460.44634      1351.0305      1811.4768      72.267453      302.36339      0.1659118    
    600000   495.80913      1332.0683      1827.8774      61.955536      298.11962      0.16161045   
    601000   478.55614      1372.7603      1851.3164      101.45625      307.22657      0.15820733   
    602000   486.83142      1350.2124      1837.0439      215.90302      302.18032      0.15785968   
    603000   489.3935       1360.8291      1850.2226      260.70602      304.55635      0.16079456   
    604000   467.97925      1390.2519      1858.2312      265.77501      311.14124      0.16725048   
    605000   463.96606      1421.4618      1885.4278      243.20748      318.12607      0.17203016   
    606000   492.28852      1358.9635      1851.2521      150.04813      304.13883      0.17325739   
    607000   478.91989      1345.6163      1824.5361      115.9028       301.15168      0.17239123   
    608000   460.99925      1351.3843      1812.3836      96.128701      302.44259      0.17168422   
    609000   473.26269      1368.2165      1841.4791      139.2312       306.20965      0.17162919   
    610000   471.4287       1340.0057      1811.4344      196.62965      299.89602      0.17030836   
    611000   469.59815      1338.8791      1808.4773      217.54665      299.6439       0.16608307   
    612000   455.87569      1360.3054      1816.1811      237.30949      304.43914      0.16169945   
    613000   477.97658      1413.6599      1891.6365      193.81744      316.38         0.15751462   
    614000   497.70915      1362.1864      1859.8955      198.13922      304.8601       0.1556315    
    615000   479.14625      1368.2763      1847.4225      213.57282      306.22304      0.15924324   
    616000   475.33676      1423.7967      1899.1335      271.04431      318.64863      0.16611618   
    617000   469.89686      1373.639       1843.5359      208.17951      307.42323      0.1698765    
    618000   473.3167       1340.3258      1813.6425      158.85854      299.96767      0.17246571   
    619000   452.13319      1364.9842      1817.1174      116.93577      305.48627      0.17428921   
    620000   456.48347      1371.5285      1828.0119      109.37602      306.95088      0.17421837   
    621000   500.47368      1395.3648      1895.8385      116.66847      312.28552      0.17257855   
    622000   452.3833       1393.3639      1845.7472      109.42821      311.83769      0.16802659   
    623000   484.08736      1340.5613      1824.6487      119.14215      300.02038      0.15988258   
    624000   465.03002      1364.826       1829.856       176.37617      305.45085      0.15863873   
    625000   439.28413      1373.1847      1812.4689      214.78365      307.32156      0.16311939   
    626000   472.18309      1364.9918      1837.1749      259.8324       305.48796      0.17056221   
    627000   487.49382      1328.1864      1815.6802      194.81137      297.25084      0.17443054   
    628000   469.07018      1319.2425      1788.3126      183.93663      295.24917      0.17694425   
    629000   419.07815      1372.0982      1791.1764      204.18747      307.0784       0.17787177   
    630000   449.9343       1349.5835      1799.5178      208.15614      302.03956      0.17729349   
    631000   451.3438       1384.7132      1836.057       196.451        309.90166      0.17497242   
    632000   457.99087      1384.0941      1842.085       122.60897      309.76311      0.1716313    
    633000   470.8135       1334.2264      1805.0399      23.808909      298.6026       0.16740951   
    634000   483.63595      1341.6934      1825.3293     -51.180433      300.27374      0.16495502   
    635000   459.05114      1338.9236      1797.9748      6.9218893      299.65385      0.16721946   
    636000   468.23072      1345.2528      1813.4835      74.670993      301.07034      0.17222356   
    637000   427.54169      1378.0532      1805.5948      245.32666      308.41112      0.17859352   
    638000   437.72039      1384.1273      1821.8477      303.40331      309.77053      0.17981061   
    639000   456.23141      1331.8453      1788.0767      328.41478      298.06971      0.17756127   
    640000   442.18971      1350.9619      1793.1516      247.28457      302.34805      0.17167286   
    641000   466.37723      1284.1748      1750.552       205.7896       287.40095      0.16817521   
    642000   453.3133       1333.1921      1786.5054      144.47879      298.37113      0.16582018   
    643000   448.78903      1345.9884      1794.7775      75.144049      301.23497      0.16464296   
    644000   472.03971      1346.2286      1818.2683      67.6392        301.28873      0.16849339   
    645000   456.25068      1366.0609      1822.3116      113.42084      305.72724      0.17478407   
    646000   453.0281       1405.5408      1858.569       148.14976      314.56293      0.18023975   
    647000   441.04834      1365.5945      1806.6428      236.33124      305.62284      0.1802722    
    648000   458.8098       1335.7841      1794.5939      273.45698      298.95123      0.17688367   
    649000   466.86412      1285.3448      1752.2089      264.92235      287.6628       0.17102045   
    650000   449.33505      1341.3604      1790.6954      221.68119      300.19921      0.16691919   
    651000   440.84458      1310.4833      1751.3279      193.67132      293.28886      0.1664642    
    652000   466.33225      1314.1309      1780.4631      173.48132      294.10519      0.16813037   
    653000   439.1268       1334.8904      1774.0172      67.357339      298.75121      0.16973407   
    654000   454.10061      1334.0545      1788.1551      33.316782      298.56414      0.17291752   
    655000   443.98058      1327.1508      1771.1314      96.69448       297.01908      0.17578368   
    656000   455.21955      1333.2051      1788.4246      95.55101       298.37403      0.17602206   
    657000   474.21574      1355.3333      1829.5491      74.580005      303.32639      0.17467225   
    658000   458.32119      1347.3337      1805.6549      82.702906      301.53605      0.17392318   
    659000   472.44056      1339.15        1811.5906      82.359267      299.70452      0.17051144   
    660000   475.86957      1358.5834      1834.4529      63.533976      304.05374      0.16447512   
    661000   441.60976      1348.1746      1789.7844      85.290674      301.72425      0.16245112   
    662000   481.4518       1324.8707      1806.3225      126.25872      296.50878      0.16608309   
    663000   452.50352      1334.6693      1787.1728      189.29851      298.70172      0.17500996   
    664000   444.22195      1343.2759      1787.4979      258.70486      300.62791      0.17944354   
    665000   440.74412      1301.2712      1742.0154      240.93668      291.22717      0.17934655   
    666000   438.77182      1330.3605      1769.1324      239.93959      297.73742      0.177605     
    667000   479.87498      1307.8304      1787.7054      184.28091      292.69514      0.17353778   
    668000   465.73735      1315.5545      1781.2918      180.56547      294.4238       0.16871823   
    669000   468.61363      1331.414       1800.0277      202.47586      297.97319      0.16735977   
    670000   481.75057      1353.344       1835.0946      233.63123      302.88116      0.17077335   
    671000   476.68843      1360.1678      1836.8562      190.20122      304.40834      0.17443379   
    672000   452.9026       1358.304       1811.2066      142.6991       303.99123      0.1770206    
    673000   451.19166      1332.1525      1783.3442      114.148        298.13847      0.17628198   
    674000   456.25016      1284.3758      1740.626       116.62885      287.44595      0.17173983   
    675000   448.54728      1340.0671      1788.6144      158.87147      299.90976      0.16555996   
    676000   458.41377      1305.3032      1763.717       183.95884      292.12954      0.16225723   
    677000   462.4932       1308.7636      1771.2568      244.63207      292.90397      0.16241727   
    678000   479.52536      1321.9199      1801.4453      259.95712      295.84839      0.1649474    
    679000   468.52431      1327.8508      1796.3751      234.74683      297.17574      0.16735518   
    680000   487.70164      1326.7885      1814.4902      171.86396      296.938        0.16886593   
    681000   471.15651      1298.0654      1769.2219      112.31157      290.50969      0.1678852    
    682000   452.86334      1291.4659      1744.3293      98.130497      289.03273      0.16681077   
    683000   470.85302      1328.0989      1798.952       128.01757      297.23127      0.16558477   
    684000   474.08822      1326.8432      1800.9314      129.64316      296.95022      0.16247951   
    685000   472.34472      1350.8353      1823.1801      182.58349      302.31972      0.16098497   
    686000   477.83121      1353.7903      1831.6215      203.64775      302.98105      0.16437503   
    687000   468.51032      1345.6791      1814.1894      182.94239      301.16574      0.17280589   
    688000   458.27602      1386.1339      1844.4099      158.34662      310.21961      0.17660151   
    689000   462.38693      1343.6102      1805.9972      136.35617      300.70273      0.17498904   
    690000   470.23874      1402.52        1872.7588      131.01963      313.88686      0.17021251   
    691000   483.41795      1351.6035      1835.0214      69.659816      302.49163      0.16634186   
    692000   472.61268      1356.5384      1829.1511      92.460059      303.59609      0.16559308   
    693000   485.81379      1384.428       1870.2418      126.66219      309.83782      0.16671193   
    694000   501.3492       1391.1763      1892.5255      133.19275      311.34811      0.1694207    
    695000   500.4612       1339.7865      1840.2477      169.05494      299.84697      0.17461303   
    696000   441.69129      1377.5584      1819.2497      160.57668      308.3004       0.17923707   
    697000   440.14747      1319.1994      1759.3468      192.3279       295.23952      0.18203424   
    698000   418.85881      1316.2929      1735.1517      185.13597      294.58905      0.1817011    
    699000   438.9217       1293.0776      1731.9993      183.21209      289.39343      0.18149594   
    700000   439.37905      1314.9685      1754.3476      191.25329      294.29265      0.18033238   
    701000   462.68358      1308.327       1771.0106      180.06517      292.80627      0.17860083   
    702000   499.31747      1334.9789      1834.2964      181.687        298.77103      0.17395166   
    703000   462.1597       1361.3199      1823.4796      138.46701      304.66618      0.16543531   
    704000   494.61058      1376.9906      1871.6012      110.754        308.17332      0.16203654   
    705000   460.47855      1388.0313      1848.5099      105.79547      310.64426      0.16197057   
    706000   477.39137      1349.0565      1826.4479      115.29377      301.92162      0.16395448   
    707000   471.5497       1336.5518      1808.1015      172.64064      299.12303      0.16906661   
    708000   452.03999      1348.8685      1800.9084      147.02556      301.87953      0.17146648   
    709000   467.85553      1363.3224      1831.1779      91.8404        305.11435      0.17091102   
    710000   462.92858      1334.4631      1797.3917      36.694525      298.65559      0.17137392   
    711000   466.54731      1299.0225      1765.5698      28.880992      290.7239       0.1734307    
    712000   461.64368      1309.02        1770.6637      145.01712      292.96137      0.1759369    
    713000   484.25969      1321.2651      1805.5248      214.31353      295.70183      0.17509952   
    714000   451.19892      1313.0724      1764.2713      146.38864      293.8683       0.169296     
    715000   483.44359      1316.5104      1799.954       105.9981       294.63772      0.16534421   
    716000   461.33016      1348.1882      1809.5184      69.358053      301.72729      0.1675352    
    717000   452.48372      1339.1103      1791.594       63.704041      299.69563      0.17511072   
    718000   470.25864      1332.741       1802.9996      68.669788      298.27017      0.17995484   
    719000   452.62637      1360.749       1813.3754      96.173001      304.53843      0.17993766   
    720000   439.94377      1395.1442      1835.088       183.29866      312.23614      0.17742765   
    721000   444.74116      1350.3916      1795.1328      187.5372       302.22042      0.1758001    
    722000   459.44667      1350.1317      1809.5784      234.7157       302.16225      0.17461349   
    723000   461.26001      1334.8042      1796.0642      287.57459      298.73191      0.17136728   
    724000   449.4511       1344.7733      1794.2244      293.27694      300.96302      0.16771749   
    725000   472.81646      1329.9623      1802.7788      281.52547      297.6483       0.16636268   
    726000   444.22968      1310.6449      1754.8745      229.5575       293.32501      0.16874621   
    727000   458.78301      1330.9035      1789.6865      211.98456      297.85893      0.17443751   
    728000   427.30214      1314.7287      1742.0308      133.34729      294.23898      0.18048623   
    729000   440.49272      1335.3996      1775.8923      50.737111      298.86518      0.1810804    
    730000   468.94712      1315.3228      1784.2699      22.559153      294.37194      0.17002409   
    731000   462.59464      1293.0393      1755.634       80.271534      289.38485      0.16270417   
    732000   464.98947      1298.9185      1763.908       149.31303      290.70064      0.15943646   
    733000   472.09212      1298.1123      1770.2044      184.94854      290.5202       0.1595555    
    734000   476.85217      1316.8517      1793.7039      182.4624       294.71412      0.16017952   
    735000   473.71533      1321.8793      1795.5946      185.54571      295.8393       0.15971566   
    736000   499.19245      1360.8434      1860.0358      181.91401      304.55954      0.16100503   
    737000   508.13202      1363.1458      1871.2778      144.15288      305.07482      0.16291282   
    738000   488.22765      1366.3103      1854.538       93.629987      305.78305      0.16564712   
    739000   471.33271      1363.9477      1835.2804      77.371322      305.25428      0.1713142    
    740000   468.23871      1323.2801      1791.5188      49.995661      296.15281      0.17314153   
    741000   461.00602      1310.165       1771.171       135.3509       293.21761      0.16979494   
    742000   483.59489      1324.8263      1808.4212      201.75459      296.49884      0.16380812   
    743000   460.41176      1332.0238      1792.4355      256.6954       298.10965      0.16089118   
    744000   451.59811      1295.7624      1747.3605      212.43767      289.99428      0.16291576   
    745000   442.32048      1337.1961      1779.5166      156.35279      299.26724      0.17053572   
    746000   452.55499      1353.8502      1806.4052      146.00966      302.99446      0.17604505   
    747000   481.8609       1346.3949      1828.2558      97.74008       301.32594      0.17514966   
    748000   469.4958       1304.6935      1774.1892      112.22548      291.99307      0.171994     
    749000   482.5003       1345.1837      1827.684       172.35526      301.05488      0.16861558   
    750000   471.39057      1339.6083      1810.9989      214.43482      299.80709      0.16490685   
    751000   476.62633      1364.6173      1841.2436      236.98533      305.40414      0.16484639   
    752000   487.57821      1359.0276      1846.6059      302.68829      304.15318      0.16839239   
    753000   455.32501      1373.9088      1829.2338      205.75663      307.48361      0.17117593   
    754000   476.94987      1369.6588      1846.6087      122.55017      306.53246      0.17340399   
    755000   454.38488      1362.5676      1816.9524      86.921159      304.94542      0.17511452   
    756000   434.43272      1367.7629      1802.1956      127.16348      306.10814      0.17724495   
    757000   455.35035      1341.6857      1797.0361      179.99244      300.27202      0.17859584   
    758000   440.51421      1302.3339      1742.8481      213.7485       291.465        0.17802405   
    759000   442.35343      1335.6302      1777.9836      214.65783      298.91678      0.17758702   
    760000   422.87469      1360.7652      1783.6399      189.28022      304.54204      0.17494676   
    761000   459.20583      1311.027       1770.2329      147.79488      293.41054      0.17082126   
    762000   468.38162      1320.6809      1789.0625      125.23555      295.57109      0.17033439   
    763000   437.29933      1338.6332      1775.9325      146.75295      299.58885      0.17474331   
    764000   436.93294      1358.9063      1795.8392      155.66871      304.12602      0.17881103   
    765000   477.51892      1361.7033      1839.2222      110.65874      304.75199      0.17999968   
    766000   434.30753      1368.6605      1802.968       124.98316      306.30903      0.1786335    
    767000   476.61435      1357.5575      1834.1719      149.82405      303.82416      0.17251509   
    768000   498.99344      1354.8663      1853.8597      96.900545      303.22185      0.16687076   
    769000   482.59972      1394.5504      1877.1501      136.78104      312.10324      0.16756982   
    770000   482.67306      1397.6923      1880.3653      153.75381      312.80639      0.17242732   
    771000   453.29681      1399.4014      1852.6982      166.16416      313.1889       0.17946764   
    772000   438.82718      1341.5915      1780.4187      162.70233      300.25094      0.18301694   
    773000   436.72414      1330.8356      1767.5597      164.12511      297.84373      0.18345246   
    774000   431.67208      1336.1429      1767.815       177.67656      299.03153      0.18220913   
    775000   475.38622      1306.2145      1781.6008      174.87309      292.3335       0.17764181   
    776000   461.89123      1340.2997      1802.1909      157.13345      299.96183      0.17389622   
    777000   471.95173      1342.2418      1814.1935      192.88926      300.39647      0.17407186   
    778000   458.10667      1367.2443      1825.351       175.04083      305.99209      0.17399519   
    779000   429.17961      1372.7601      1801.9397      238.4716       307.22652      0.17517861   
    780000   466.01873      1345.403       1811.4217      199.18462      301.10394      0.17766352   
    781000   453.37886      1383.5641      1836.943       172.36931      309.64449      0.1794322    
    782000   456.78437      1405.6666      1862.451       154.10222      314.59108      0.17673641   
    783000   471.19614      1366.6795      1837.8757      62.796329      305.86568      0.16834785   
    784000   491.15199      1351.5752      1842.7272      100.81979      302.48531      0.16489088   
    785000   441.37029      1360.977       1802.3473      209.83394      304.58945      0.16773148   
    786000   455.31574      1341.796       1797.1117      268.08119      300.2967       0.1731153    
    787000   456.15706      1311.5212      1767.6782      250.67372      293.52113      0.17853126   
    788000   446.73817      1323.6507      1770.3888      223.57773      296.23574      0.18053692   
    789000   456.09679      1335.5497      1791.6465      129.24928      298.89877      0.17924777   
    790000   476.71167      1338.3241      1815.0358      66.362141      299.51968      0.17509213   
    791000   486.3443       1336.098       1822.4423      52.76897       299.02148      0.1709639    
    792000   486.95179      1376.1733      1863.125       67.343081      307.9904       0.17075259   
    793000   461.34319      1351.973       1813.3161      151.5936       302.57432      0.17271434   
    794000   450.91065      1366.3019      1817.2125      220.02037      305.78116      0.17486662   
    795000   455.96488      1365.9052      1821.8701      187.91506      305.6924       0.17415134   
    796000   487.11096      1357.8043      1844.9153      148.61423      303.87939      0.17310035   
    797000   492.88078      1386.3195      1879.2002      103.18473      310.26114      0.17114869   
    798000   468.3262       1370.939       1839.2652      91.557246      306.81897      0.17017305   
    799000   469.80601      1340.0697      1809.8757      144.59516      299.91035      0.17273564   
    800000   453.96375      1330.9872      1784.9509      176.39012      297.87766      0.17783686   
    801000   464.186        1307.547       1771.733       228.19421      292.6317       0.18231091   
    802000   434.26665      1310.2717      1744.5384      236.83609      293.2415       0.18399231   
    803000   442.5867       1295.289       1737.8757      171.72189      289.88835      0.18312445   
    804000   451.09989      1318.9373      1770.0371      151.35492      295.18086      0.18034598   
    805000   466.97747      1322.5723      1789.5498      136.83726      295.9944       0.17397019   
    806000   445.03335      1325.419       1770.4524      168.61499      296.6315       0.16956986   
    807000   457.83314      1315.533       1773.3662      173.81027      294.41899      0.16932143   
    808000   476.31223      1343.9663      1820.2785      158.52018      300.78241      0.17256691   
    809000   443.20131      1346.7627      1789.964       185.57504      301.40825      0.17721997   
    810000   468.34422      1330.7604      1799.1046      166.9027       297.82692      0.18074833   
    811000   443.30915      1335.2207      1778.5298      161.80662      298.82513      0.18380473   
    812000   445.39497      1342.0376      1787.4326      125.66551      300.35078      0.18550854   
    813000   440.53027      1326.498       1767.0282      187.6846       296.87296      0.18922126   
    814000   455.27566      1331.6742      1786.9498      163.19717      298.03141      0.19204354   
    815000   465.13454      1327.6392      1792.7738      231.95654      297.12838      0.19071499   
    816000   448.33991      1347.2425      1795.5824      199.91628      301.51565      0.18435135   
    817000   476.97338      1375.5265      1852.4999      125.41838      307.84566      0.17612924   
    818000   489.37618      1358.3348      1847.711       71.899905      303.99811      0.17167463   
    819000   463.16493      1330.0348      1793.1997      73.517746      297.66451      0.17164622   
    820000   463.74477      1335.124       1798.8688      100.33302      298.8035       0.17271761   
    821000   442.4557       1297.1917      1739.6474      160.38126      290.31415      0.17646453   
    822000   470.48944      1309.1478      1779.6373      182.07321      292.98997      0.18097927   
    823000   447.32338      1339.3973      1786.7206      223.05703      299.75985      0.17983911   
    824000   470.39488      1317.1512      1787.5461      206.29026      294.78114      0.17586161   
    825000   470.93742      1320.689       1791.6264      133.243        295.5729       0.1730552    
    826000   446.75164      1336.8805      1783.6322      86.674238      299.1966       0.17410501   
    827000   430.56551      1339.6258      1770.1913      163.47247      299.811        0.17771521   
    828000   460.46341      1334.8652      1795.3286      205.22435      298.74556      0.17753541   
    829000   453.80225      1300.2983      1754.1006      230.48958      291.00943      0.17485522   
    830000   437.08486      1282.6139      1719.6988      211.84903      287.05163      0.17201596   
    831000   465.70273      1320.1157      1785.8184      179.62865      295.4446       0.17283074   
    832000   487.42422      1330.192       1817.6162      109.80968      297.6997       0.17567083   
    833000   471.41814      1369.3271      1840.7453      102.35215      306.45822      0.17758201   
    834000   488.23606      1336.5855      1824.8215      51.369378      299.13057      0.17471231   
    835000   488.97559      1356.4588      1845.4344      78.31026       303.57826      0.16777613   
    836000   484.19422      1357.7739      1841.9681      168.05242      303.87259      0.16231008   
    837000   479.09751      1360.6256      1839.7231      274.99677      304.5108       0.16112188   
    838000   493.2814       1312.0701      1805.3515      264.85674      293.64398      0.1628581    
    839000   475.4577       1312.4832      1787.9409      196.43803      293.73644      0.16821805   
    840000   442.11263      1338.0507      1780.1634      162.92712      299.4585       0.17681673   
    841000   430.37158      1315.9516      1746.3232      101.96127      294.51267      0.18063868   
    842000   477.3981       1321.857       1799.2551      64.553465      295.83431      0.17992311   
    843000   478.57358      1350.7001      1829.2737      50.861612      302.28946      0.17517715   
    844000   478.99654      1363.6213      1842.6178      79.857564      305.18125      0.17083155   
    845000   468.26053      1387.6607      1855.9213      107.93851      310.56132      0.16947206   
    846000   490.88959      1388.3962      1879.2858      137.09602      310.72593      0.16954153   
    847000   484.04192      1355.0424      1839.0844      102.13942      303.26128      0.17042425   
    848000   480.70394      1326.8886      1807.5926      85.646256      296.9604       0.17214676   
    849000   469.73677      1317.6775      1787.4142      122.72864      294.89892      0.17532923   
    850000   449.64774      1316.1704      1765.8182      144.01947      294.56165      0.18124081   
    851000   450.58185      1311.2114      1761.7933      137.67264      293.45181      0.18494904   
    852000   435.48447      1310.3224      1745.8068      172.93474      293.25284      0.18465324   
    853000   427.87827      1309.5683      1737.4465      189.14898      293.08407      0.17805011   
    854000   447.17284      1329.3602      1776.533       177.13565      297.51354      0.17081272   
    855000   475.27078      1334.321       1809.5918      138.87975      298.62379      0.16752935   
    856000   489.84558      1332.8403      1822.6858      44.021011      298.29238      0.16688835   
    857000   469.92385      1352.9143      1822.8382      41.500254      302.78501      0.16775148   
    858000   474.95718      1354.5196      1829.4767      7.7250517      303.14426      0.16760494   
    859000   457.31129      1358.4082      1815.7195      94.327062      304.01455      0.16989554   
    860000   452.91733      1382.784       1835.7013      167.36208      309.4699       0.17485677   
    861000   477.27884      1389.3859      1866.6647      247.3212       310.94741      0.1819488    
    862000   467.3731       1373.9852      1841.3583      303.91801      307.5007       0.18523431   
    863000   456.75793      1358.7916      1815.5495      331.91166      304.10034      0.18176576   
    864000   477.9914       1340.104       1818.0954      276.4762       299.91802      0.16856295   
    865000   480.81108      1341.0567      1821.8677      200.84428      300.13123      0.16587699   
    866000   477.1464       1343.2177      1820.3641      156.89709      300.61489      0.16758388   
    867000   449.4459       1360.4909      1809.9368      56.384843      304.48065      0.16946057   
    868000   452.85535      1364.0738      1816.9291      94.962879      305.28251      0.16995207   
    869000   487.48418      1338.9251      1826.4093      148.9444       299.65419      0.16995544   
    870000   485.52967      1370.4957      1856.0254      199.41469      306.71976      0.17021914   
    871000   464.31559      1357.2883      1821.6039      278.13754      303.76391      0.17559598   
    872000   472.0424       1333.1897      1805.2321      234.07278      298.37059      0.18069531   
    873000   467.29834      1299.991       1767.2893      132.91093      290.94065      0.1804126    
    874000   463.05441      1318.1431      1781.1975      108.06181      295.00313      0.17921251   
    875000   463.38703      1324.8104      1788.1975      103.19018      296.4953       0.17785664   
    876000   434.17385      1326.1823      1760.3562      131.74749      296.80233      0.17406479   
    877000   446.74333      1355.7117      1802.455       186.02472      303.41106      0.16794653   
    878000   471.73295      1305.3146      1777.0476      192.68324      292.1321       0.16258122   
    879000   441.60713      1274.3356      1715.9427      163.87217      285.19891      0.16132691   
    880000   493.2224       1308.629       1801.8514      127.63426      292.87385      0.16363831   
    881000   465.0403       1328.1341      1793.1744      92.95581       297.23914      0.16653224   
    882000   447.32417      1342.2677      1789.5919      88.284849      300.40228      0.17111323   
    883000   438.45236      1320.3301      1758.7824      121.68021      295.49258      0.17724278   
    884000   463.11203      1329.3901      1792.5021      201.58334      297.52023      0.18111299   
    885000   457.01905      1352.3981      1809.4171      193.95853      302.66947      0.17983289   
    886000   483.50786      1382.1116      1865.6194      213.52577      309.3194       0.17456613   
    887000   492.63341      1333.9528      1826.5862      168.9066       298.54138      0.16811667   
    888000   480.42323      1366.9719      1847.3951      134.97104      305.93112      0.16690691   
    889000   493.32789      1336.6355      1829.9634      120.39896      299.14178      0.16786587   
    890000   473.46496      1377.6597      1851.1247      183.99225      308.32307      0.16966621   
    891000   467.96325      1360.6388      1828.602       206.12086      304.51375      0.17191778   
    892000   446.30245      1351.4125      1797.715       227.68027      302.4489       0.17558576   
    893000   435.54523      1339.9841      1775.5293      209.08015      299.89119      0.17954875   
    894000   442.73602      1304.1435      1746.8796      161.30335      291.87         0.18002965   
    895000   473.54104      1323.9886      1797.5296      118.53311      296.31136      0.17317711   
    896000   467.51961      1331.192       1798.7116      85.019367      297.92351      0.16470916   
    897000   470.44619      1326.0172      1796.4633      53.259587      296.76536      0.16422723   
    898000   466.68951      1341.6032      1808.2927      90.512072      300.25356      0.16791165   
    899000   473.86225      1361.8896      1835.7519      181.55529      304.7937       0.17294796   
    900000   478.00835      1375.0012      1853.0095      221.50836      307.72808      0.17557523   
    901000   441.75622      1378.4915      1820.2477      195.51492      308.50922      0.17809056   
    902000   452.62482      1348.8577      1801.4826      114.95997      301.87713      0.17946663   
    903000   473.28743      1343.9322      1817.2197      106.11874      300.77479      0.18027644   
    904000   459.30438      1327.3026      1786.607       112.38238      297.05305      0.17990828   
    905000   467.12867      1350.8684      1817.9971      116.87824      302.32712      0.18244045   
    906000   455.67964      1364.5955      1820.2751      79.435105      305.39928      0.18496109   
    907000   446.01162      1352.8677      1798.8793      83.983736      302.77457      0.18294388   
    908000   487.57963      1338.7833      1826.363       77.258659      299.62246      0.17546542   
    909000   483.71069      1335.0208      1818.7315      36.675542      298.78039      0.16895613   
    910000   481.4822       1317.7968      1799.279       82.430972      294.92562      0.16938171   
    911000   468.33258      1336.5333      1804.8659      133.51764      299.11889      0.17160202   
    912000   440.2454       1348.4116      1788.657       208.54501      301.77729      0.17659641   
    913000   457.10396      1336.0112      1793.1152      265.03518      299.00206      0.17987545   
    914000   473.9126       1318.224       1792.1366      288.42814      295.02123      0.17995671   
    915000   464.7317       1342.7184      1807.4501      281.03094      300.50313      0.17884275   
    916000   463.71576      1377.1526      1840.8683      246.95658      308.20958      0.17779052   
    917000   494.09415      1327.404       1821.4981      132.84413      297.07573      0.17500728   
    918000   462.71735      1305.9996      1768.7169      11.613368      292.28538      0.17070719   
    919000   489.61491      1328.9831      1818.598      -46.951791      297.42915      0.16574443   
    920000   482.07517      1334.1781      1816.2533     -16.991583      298.59181      0.1607253    
    921000   504.88386      1322.2029      1827.0868      80.400511      295.91173      0.16006471   
    922000   480.31498      1333.305       1813.62        259.60519      298.3964       0.16416978   
    923000   462.89059      1322.5114      1785.402       317.59658      295.98076      0.17039106   
    924000   455.06478      1332.2162      1787.281       315.03169      298.15273      0.17690169   
    925000   452.42131      1328.0679      1780.4892      211.70571      297.22432      0.17826654   
    926000   472.03953      1301.6502      1773.6897      75.494478      291.31198      0.17511821   
    927000   460.51271      1342.2248      1802.7375      59.723599      300.39267      0.1738337    
    928000   491.25646      1355.0806      1846.3371      94.250369      303.26983      0.17172274   
    929000   454.08381      1381.21        1835.2938      151.00856      309.11762      0.16746221   
    930000   487.39544      1378.9486      1866.344       199.39721      308.61152      0.16640772   
    931000   487.00741      1386.3731      1873.3805      291.0724       310.27314      0.16716135   
    932000   481.52682      1373.0777      1854.6045      316.13754      307.2976       0.16683768   
    933000   476.35582      1346.546       1822.9018      277.10744      301.35976      0.16423649   
    934000   485.48181      1310.2479      1795.7297      178.59648      293.23617      0.16068938   
    935000   501.6671       1328.358       1830.0251      91.056001      297.28925      0.15937712   
    936000   495.3532       1362.3838      1857.737       18.547407      304.90428      0.16261534   
    937000   474.88114      1357.3756      1832.2567     -25.536441      303.78344      0.16958417   
    938000   464.35715      1380.5488      1844.9059      58.676366      308.96965      0.17486078   
    939000   465.21079      1379.0563      1844.2671      136.04574      308.63563      0.17700356   
    940000   461.01139      1359.4433      1820.4547      233.57612      304.2462       0.17843691   
    941000   444.1167       1357.6819      1801.7986      238.90632      303.852        0.17972575   
    942000   461.56184      1321.7997      1783.3615      246.90863      295.82148      0.1789811    
    943000   455.7835       1308.2484      1764.0319      123.46027      292.78867      0.17416819   
    944000   469.24724      1320.9511      1790.1984      125.7534       295.63157      0.17315605   
    945000   459.37394      1326.9566      1786.3305      93.973973      296.97561      0.17529534   
    946000   441.58818      1352.7257      1794.3139      113.65635      302.74279      0.18102781   
    947000   454.62247      1359.9951      1814.6175      69.849292      304.36969      0.18262194   
    948000   432.45033      1352.0686      1784.519       132.45784      302.59573      0.18172065   
    949000   465.93667      1308.7609      1774.6976      123.89351      292.90337      0.17686386   
    950000   466.32988      1336.7939      1803.1238      101.26092      299.17722      0.17058248   
    951000   464.54291      1317.8645      1782.4074      110.67062      294.94077      0.16752783   
    952000   463.57189      1294.4067      1757.9786      136.91404      289.69089      0.16914303   
    953000   467.50148      1306.6447      1774.1462      139.15476      292.42977      0.17054532   
    954000   461.92353      1326.4981      1788.4216      167.79339      296.87299      0.17318717   
    955000   464.45921      1318.1742      1782.6334      180.51575      295.01009      0.17780163   
    956000   459.5088       1337.3847      1796.8935      152.04366      299.30944      0.18254019   
    957000   460.80988      1381.6237      1842.4335      112.61096      309.21021      0.18330009   
    958000   463.33013      1342.5423      1805.8725      117.83483      300.46373      0.17777534   
    959000   479.21009      1333.0516      1812.2617      123.80793      298.33968      0.16879296   
    960000   475.66253      1310.9175      1786.58        122.44773      293.38602      0.16402524   
    961000   461.02711      1356.8237      1817.8508      130.30248      303.65993      0.16526144   
    962000   501.64679      1328.5661      1830.2129      113.3993       297.33582      0.16871882   
    963000   477.44181      1356.2287      1833.6705      63.883931      303.52677      0.16979998   
    964000   476.4667       1292.9411      1769.4078      85.804181      289.36287      0.17088215   
    965000   487.68026      1305.5898      1793.27        65.74095       292.19367      0.17034568   
    966000   457.72677      1324.6403      1782.3671      113.51624      296.45723      0.16851516   
    967000   464.20483      1321.1451      1785.35        127.49116      295.67499      0.16663893   
    968000   456.73336      1320.1702      1776.9036      119.23956      295.45681      0.16718852   
    969000   438.58576      1328.0574      1766.6432      154.93043      297.22198      0.17258128   
    970000   422.11785      1343.7737      1765.8915      183.14832      300.7393       0.17870519   
    971000   444.8565       1277.4729      1722.3294      200.57351      285.90105      0.18133566   
    972000   422.12962      1333.1556      1755.2852      186.67927      298.36295      0.18056      
    973000   474.64615      1329.4633      1804.1095      109.07561      297.53662      0.1759206    
    974000   483.24007      1349.4458      1832.6858      62.275753      302.00873      0.1709029    
    975000   463.07224      1398.6435      1861.7157      137.73147      313.01928      0.17224563   
    976000   476.70756      1401.6476      1878.3551      194.50806      313.69161      0.17338683   
    977000   471.63666      1345.5682      1817.2048      219.15318      301.14092      0.1741594    
    978000   471.81203      1338.2076      1810.0196      251.52044      299.49361      0.17462993   
    979000   508.65753      1338.9911      1847.6486      197.45929      299.66896      0.17531366   
    980000   492.45878      1361.8446      1854.3034      97.948681      304.78362      0.17683868   
    981000   493.47502      1384.7744      1878.2494      38.031049      309.91535      0.17779449   
    982000   449.45098      1370.595       1820.046       56.172657      306.74198      0.17727021   
    983000   466.41006      1339.9713      1806.3814      120.45246      299.88833      0.17446641   
    984000   492.2888       1314.3038      1806.5926      127.58065      294.14388      0.16945601   
    985000   474.79066      1312.5134      1787.304       107.95186      293.74318      0.16660539   
    986000   477.72933      1332.8349      1810.5642      104.98469      298.29118      0.1679748    
    987000   501.69469      1326.2191      1827.9138      117.19666      296.81056      0.17590385   
    988000   464.84536      1412.9256      1877.771       220.64152      316.21565      0.18394756   
    989000   457.9965       1357.9396      1815.9361      202.85733      303.90967      0.18254998   
    990000   463.35574      1357.7         1821.0557      198.76135      303.85604      0.1790335    
    991000   473.47043      1378.509       1851.9794      207.60263      308.51314      0.17668956   
    992000   467.19227      1378.5055      1845.6978      164.96351      308.51236      0.173833     
    993000   500.06432      1386.9574      1887.0217      89.594126      310.40391      0.16917369   
    994000   490.123        1360.2556      1850.3786      92.83014       304.428        0.16604294   
    995000   476.32882      1347.8269      1824.1558      163.86661      301.64644      0.16847051   
    996000   460.90719      1345.2721      1806.1793      148.30734      301.07467      0.17586444   
    997000   451.60646      1323.9326      1775.539       136.67817      296.29882      0.18183267   
    998000   445.57011      1288.9865      1734.5566      60.507774      288.47781      0.18206223   
    999000   428.58342      1339.9195      1768.5029      29.783456      299.87673      0.18154253   
   1000000   463.88776      1330.6257      1794.5135      104.09179      297.79677      0.17979435   
   1001000   469.87649      1343.5841      1813.4606      111.98194      300.69689      0.17573106   
   1002000   480.48289      1365.2648      1845.7477      148.71753      305.54906      0.17048886   
   1003000   479.14566      1398.3384      1877.4841      172.69735      312.95101      0.16602588   
   1004000   515.01233      1389.3654      1904.3777      140.33092      310.94282      0.1643125    
   1005000   490.01547      1351.2781      1841.2936      102.56973      302.41882      0.1642677    
   1006000   475.47497      1339.533       1815.008       114.87807      299.79024      0.16618705   
   1007000   465.37801      1358.3112      1823.6893      161.91169      303.99284      0.17007102   
   1008000   501.30992      1320.6962      1822.0061      236.02932      295.57453      0.17462965   
   1009000   473.89516      1330.6424      1804.5375      239.4168       297.80049      0.17489991   
   1010000   454.11245      1319.1906      1773.3031      276.75907      295.23757      0.17407593   
   1011000   499.30477      1314.3902      1813.6949      261.66292      294.16321      0.17191358   
   1012000   474.34625      1312.34        1786.6863      226.66287      293.70439      0.16832661   
   1013000   479.21757      1304.0747      1783.2923      220.30271      291.8546       0.1667086    
   1014000   439.81914      1320.5456      1760.3648      241.72119      295.54082      0.16818501   
   1015000   450.93438      1339.0266      1789.961       189.6535       299.67691      0.17252332   
   1016000   474.79179      1341.8947      1816.6865      129.16054      300.31878      0.17701519   
   1017000   469.5179       1377.5336      1847.0515      113.24984      308.29484      0.17784056   
   1018000   479.50352      1355.5968      1835.1003      127.43659      303.38534      0.17612103   
   1019000   495.73517      1338.1394      1833.8746      88.161415      299.47835      0.1700208    
   1020000   467.45498      1384.0086      1851.4636      117.38557      309.74396      0.16529195   
   1021000   485.14564      1395.8429      1880.9885      181.33853      312.3925       0.16689363   
   1022000   512.89586      1367.4745      1880.3703      210.9764       306.04359      0.17158517   
   1023000   462.8191       1395.5839      1858.403       163.60534      312.33454      0.17575834   
   1024000   435.89493      1369.5628      1805.4577      131.73896      306.51096      0.17781163   
   1025000   462.72551      1368.9306      1831.6561      95.134621      306.36948      0.17726754   
   1026000   484.5144       1324.8815      1809.3959      68.14425       296.5112       0.172638     
   1027000   473.79888      1314.1197      1787.9186      55.224636      294.10269      0.16601667   
   1028000   444.24473      1291.552       1735.7968      95.864196      289.052        0.16439897   
   1029000   477.53306      1309.1808      1786.7138      126.1673       292.99734      0.16819998   
   1030000   455.44821      1338.8977      1794.3459      182.07557      299.64805      0.17464497   
   1031000   467.70109      1322.0662      1789.7673      198.58499      295.88113      0.17831173   
   1032000   430.11477      1324.2491      1754.3639      182.64605      296.36967      0.17724829   
   1033000   456.10247      1300.2155      1756.318       197.28592      290.99091      0.17404458   
   1034000   477.63021      1319.5971      1797.2273      183.74979      295.32854      0.17204823   
   1035000   465.21318      1295.9029      1761.1161      148.45301      290.02573      0.1728079    
   1036000   463.04114      1320.2395      1783.2806      142.45569      295.47231      0.17473395   
   1037000   457.07741      1319.1985      1776.2759      117.71353      295.23933      0.17613498   
   1038000   472.79205      1292.4689      1765.261       103.42235      289.25719      0.17420855   
   1039000   467.20545      1326.679       1793.8845      164.89596      296.91348      0.1732325    
   1040000   472.55042      1305.6704      1778.2208      157.59302      292.21171      0.17193936   
   1041000   440.44013      1279.0107      1719.4508      120.42643      286.24521      0.16748887   
   1042000   473.61971      1313.1068      1786.7266      113.02836      293.87601      0.16423429   
   1043000   486.58599      1335.7451      1822.3311      105.78911      298.94249      0.16565915   
   1044000   468.55081      1335.8347      1804.3856      142.41028      298.96256      0.17114595   
   1045000   465.18543      1362.5367      1827.7221      157.28104      304.9385       0.17526573   
   1046000   471.30609      1365.2535      1836.5596      221.01765      305.54654      0.17688363   
   1047000   454.46561      1394.443       1848.9086      220.35711      312.07921      0.17636404   
   1048000   479.33371      1351.1728      1830.5065      170.33663      302.39525      0.17378042   
   1049000   495.33407      1313.2546      1808.5887      157.0673       293.90908      0.17128088   
   1050000   476.49424      1344.1261      1820.6204      111.68802      300.81818      0.17040611   
   1051000   463.78648      1377.8952      1841.6817      153.13183      308.37577      0.17292618   
   1052000   450.12786      1367.8827      1818.0106      195.21659      306.13496      0.17813243   
   1053000   482.15432      1351.1685      1833.3228      225.77999      302.39427      0.18355917   
   1054000   460.58639      1383.6406      1844.227       245.29167      309.66161      0.18244457   
   1055000   478.40159      1387.9232      1866.3248      167.10354      310.62006      0.17770993   
   1056000   461.76803      1359.2323      1821.0004      44.829894      304.19898      0.17305395   
   1057000   494.07563      1332.4072      1826.4828     -13.231325      298.19546      0.17353021   
   1058000   462.74744      1342.2396      1804.987       31.488513      300.39598      0.17777367   
   1059000   450.1693       1298.7799      1748.9492      135.82263      290.66961      0.18327282   
   1060000   445.57182      1324.7402      1770.312       260.29297      296.47957      0.18556641   
   1061000   480.88323      1333.274       1814.1572      243.62652      298.38946      0.17904035   
   1062000   470.86837      1329.7956      1800.664       255.35014      297.61099      0.17016288   
   1063000   439.29845      1324.5305      1763.829       239.15733      296.43265      0.16530958   
   1064000   473.59647      1322.8985      1796.495       207.12359      296.06741      0.16461503   
   1065000   473.15099      1321.413       1794.564       190.13118      295.73495      0.1663457    
   1066000   471.6587       1287.5945      1759.2532      200.71677      288.16629      0.16991207   
   1067000   460.09679      1311.9625      1772.0593      229.19911      293.6199       0.17341506   
   1068000   453.13431      1342.0606      1795.1949      189.68887      300.35591      0.17317247   
   1069000   464.97584      1310.9398      1775.9156      229.86825      293.39102      0.17260167   
   1070000   440.86085      1321.5158      1762.3767      223.51956      295.75796      0.17151334   
   1071000   456.34622      1300.5909      1756.9372      255.75715      291.07492      0.17357672   
   1072000   442.82623      1331.6116      1774.4379      200.83397      298.01742      0.17746595   
   1073000   451.80296      1331.8453      1783.6482      140.11089      298.06971      0.18129838   
   1074000   447.35659      1338.0905      1785.4471      66.013072      299.4674       0.18293647   
   1075000   461.5953       1306.5553      1768.1506      35.242409      292.40976      0.18045751   
   1076000   482.38931      1311.9592      1794.3486      47.664177      293.61917      0.17339681   
   1077000   469.54119      1290.119       1759.6602      89.958916      288.73128      0.1669274    
   1078000   463.99693      1323.0948      1787.0918      122.64932      296.11134      0.16702967   
   1079000   483.83308      1316.1911      1800.0242      132.43626      294.56627      0.1681721    
   1080000   468.76566      1319.0366      1787.8022      131.07788      295.20309      0.17028184   
   1081000   461.76743      1299.167       1760.9344      150.0528       290.75623      0.17263979   
   1082000   457.29165      1304.0173      1761.309       166.42647      291.84175      0.17382808   
   1083000   468.12985      1302.1838      1770.3136      165.40031      291.43141      0.17360784   
   1084000   455.16692      1345.1192      1800.2862      134.17753      301.04045      0.17419899   
   1085000   471.3832       1323.7879      1795.1711      121.99872      296.26646      0.17455917   
   1086000   460.60776      1318.8399      1779.4477      139.58679      295.15908      0.17374904   
   1087000   433.36731      1307.9691      1741.3364      113.38518      292.72616      0.17092974   
   1088000   488.95358      1314.4568      1803.4103      141.44877      294.17812      0.16978137   
   1089000   448.97942      1341.8541      1790.8335      147.15792      300.30971      0.17230326   
   1090000   421.55655      1307.035       1728.5916      160.9878       292.51712      0.18016018   
   1091000   436.02229      1347.6106      1783.6329      132.58949      301.59802      0.18620345   
   1092000   455.10269      1340.8664      1795.9691      160.3103       300.08866      0.18455139   
   1093000   463.51478      1379.269       1842.7837      145.6019       308.68323      0.17803824   
   1094000   473.77515      1385.7161      1859.4912      161.00075      310.1261       0.1713663    
   1095000   480.94669      1349.0135      1829.9602      180.07261      301.91198      0.16640035   
   1096000   489.43038      1352.9328      1842.3631      169.1956       302.78913      0.16434241   
   1097000   486.01298      1360.902       1846.915       158.42346      304.57266      0.16677546   
   1098000   456.94759      1375.4569      1832.4045      142.23713      307.83008      0.17250649   
   1099000   465.33152      1374.1399      1839.4714      91.541769      307.53533      0.17525895   
   1100000   466.80225      1325.1641      1791.9663      114.43894      296.57444      0.17646734   
   1101000   449.82965      1334.2144      1784.044       170.2995       298.59992      0.17703566   
   1102000   448.52594      1336.0998      1784.6257      210.15837      299.02187      0.17497567   
   1103000   456.77638      1323.5896      1780.366       202.74643      296.22208      0.17431926   
   1104000   469.14436      1291.2176      1760.362       216.09976      288.97716      0.1747474    
   1105000   487.75132      1301.2353      1788.9867      206.56552      291.21914      0.17736574   
   1106000   448.213        1310.4506      1758.6636      161.98359      293.28154      0.17890098   
   1107000   440.63027      1315.3675      1755.9977      158.94772      294.38194      0.17932424   
   1108000   437.17514      1327.9015      1765.0766      153.5629       297.18708      0.17727753   
   1109000   446.87438      1334.7165      1781.5909      131.56743      298.7123       0.17332973   
   1110000   505.61139      1293.9859      1799.5972      165.23511      289.59669      0.17161481   
   1111000   477.19419      1303.5409      1780.7351      170.17515      291.73513      0.17066367   
   1112000   457.52546      1292.5356      1750.0611      178.07682      289.27213      0.17136781   
   1113000   453.70288      1304.9784      1758.6813      139.94326      292.05685      0.17317138   
   1114000   481.95071      1319.9448      1801.8955      93.211071      295.40636      0.1765425    
   1115000   468.99582      1319.8901      1788.8859      53.626399      295.3941       0.17547569   
   1116000   487.28806      1317.6236      1804.9117      70.563906      294.88687      0.17267735   
   1117000   487.44289      1291.7989      1779.2418      58.11039       289.10725      0.17004377   
   1118000   498.2804       1347.6979      1845.9783      91.989662      301.61755      0.16976654   
   1119000   445.73097      1367.5837      1813.3147      60.070528      306.06804      0.17000864   
   1120000   483.38533      1379.1225      1862.5078      69.895261      308.65045      0.17100264   
   1121000   503.71933      1341.968       1845.6874      57.911724      300.3352       0.17114031   
   1122000   483.27171      1351.2005      1834.4722      102.67873      302.40145      0.17304669   
   1123000   463.9256       1390.5089      1854.4345      177.77853      311.19874      0.17420341   
   1124000   496.24619      1345.3555      1841.6017      200.88457      301.09332      0.17421634   
   1125000   513.26588      1334.5839      1847.8498      178.24265      298.68262      0.17110905   
   1126000   472.69943      1357.837       1830.5365      151.79711      303.88671      0.16286198   
   1127000   453.11992      1331.8253      1784.9452      118.48047      298.06523      0.15761252   
   1128000   467.89817      1334.1513      1802.0494      149.487        298.58579      0.15961776   
   1129000   472.41626      1333.7725      1806.1888      134.7483       298.50103      0.16569676   
   1130000   486.49613      1290.5935      1777.0896      127.84866      288.83748      0.16914549   
   1131000   455.65465      1340.2523      1795.907       135.02825      299.95122      0.17075688   
   1132000   431.3512       1340.0854      1771.4366      98.989152      299.91385      0.1737118    
   1133000   441.98358      1324.7057      1766.6893      49.420717      296.47186      0.17744071   
   1134000   452.94839      1315.7472      1768.6956      28.935912      294.46692      0.18011249   
   1135000   478.80115      1261.6574      1740.4586      67.464059      282.36152      0.18040491   
   1136000   449.93557      1298.1498      1748.0853      124.72536      290.52858      0.17788952   
   1137000   487.83167      1289.2762      1777.1079      181.43565      288.54266      0.17302753   
   1138000   482.51925      1345.1394      1827.6586      174.48023      301.04495      0.16594437   
   1139000   481.09464      1338.1011      1819.1958      209.83254      299.46978      0.16124586   
   1140000   501.02939      1309.9856      1811.015       218.77387      293.17748      0.1634356    
   1141000   472.97825      1336.1195      1809.0978      202.60767      299.02629      0.16860003   
   1142000   464.81549      1339.4213      1804.2368      138.47114      299.76523      0.17032985   
   1143000   491.70275      1320.038       1811.7408      156.12516      295.42722      0.17189356   
   1144000   489.89522      1338.6766      1828.5719      167.64935      299.59858      0.17488958   
   1145000   453.84967      1377.0295      1830.8792      222.04186      308.18203      0.17570424   
   1146000   459.90447      1365.7416      1825.646       243.84786      305.65576      0.17429751   
   1147000   514.73529      1359.2846      1874.0199      190.34037      304.21069      0.17121186   
   1148000   487.50204      1332.1023      1819.6044      135.72522      298.12724      0.16790668   
   1149000   471.82908      1314.7709      1786.5999      128.29353      294.24842      0.16733036   
   1150000   473.8249       1304.8424      1778.6673      79.943882      292.02641      0.17143181   
   1151000   490.60257      1325.7443      1816.3469      99.62384       296.7043       0.17722709   
   1152000   457.86883      1337.5448      1795.4137      217.66896      299.34528      0.18234675   
   1153000   458.74819      1309.3133      1768.0615      242.24675      293.02701      0.18153455   
   1154000   469.3556       1314.7466      1784.1022      248.35767      294.24298      0.17553721   
   1155000   461.93858      1300.3694      1762.3079      236.12287      291.02533      0.17141686   
   1156000   455.93253      1360.165       1816.0975      169.62447      304.40772      0.17292473   
   1157000   435.59886      1363.3217      1798.9206      144.11501      305.11421      0.17550339   
   1158000   465.36211      1347.8655      1813.2276      181.77367      301.65506      0.17805991   
   1159000   449.24946      1374.2239      1823.4733      174.39545      307.55413      0.17861355   
   1160000   482.10138      1370.6289      1852.7303      211.34028      306.74956      0.17819208   
   1161000   478.19461      1358.0778      1836.2724      221.36925      303.9406       0.17542175   
   1162000   485.90691      1382.4686      1868.3755      199.72314      309.3993       0.17413365   
   1163000   489.03997      1346.2489      1835.2889      150.78157      301.29328      0.17376654   
   1164000   457.74378      1359.1909      1816.9346      129.23032      304.1897       0.17627842   
   1165000   478.11149      1385.0505      1863.162       113.63269      309.97715      0.17804503   
   1166000   477.83439      1344.628       1822.4624      138.15034      300.9305       0.17693519   
   1167000   457.55315      1365.132       1822.6851      235.48886      305.51934      0.17756256   
   1168000   496.04117      1320.5842      1816.6254      321.41147      295.54946      0.1754138    
   1169000   458.76653      1310.1024      1768.8689      288.13778      293.2036       0.16666907   
   1170000   454.93703      1321.7563      1776.6933      192.96928      295.81177      0.16244092   
   1171000   461.1684       1325.3313      1786.4997      110.96216      296.61187      0.16427733   
   1172000   496.08968      1315.5433      1811.633       58.766814      294.42129      0.16874298   
   1173000   467.05379      1305.5702      1772.624       58.229942      292.1893       0.1734059    
   1174000   455.49108      1340.9785      1796.4696      92.689655      300.11374      0.17628127   
   1175000   458.14803      1306.4473      1764.5953      140.55229      292.38558      0.17695805   
   1176000   470.6281       1319.3144      1789.9425      199.53613      295.26527      0.17373893   
   1177000   470.95019      1330.4527      1801.4028      173.33855      297.75804      0.16977764   
   1178000   446.4466       1324.9933      1771.4399      171.43374      296.53623      0.17019168   
   1179000   445.2578       1329.4648      1774.7226      163.01905      297.53695      0.17163685   
   1180000   474.495        1355.243       1829.738       169.42115      303.30616      0.17330183   
   1181000   476.53788      1369.8879      1846.4257      147.7923       306.58371      0.1744496    
   1182000   496.86708      1349.6115      1846.4786      196.55142      302.04583      0.17393946   
   1183000   453.64363      1355.2218      1808.8654      227.52389      303.30142      0.1680674    
   1184000   506.33         1367.5044      1873.8344      228.67891      306.0503       0.16163874   
   1185000   489.78167      1346.3037      1836.0854      206.8393       301.30554      0.15860049   
   1186000   511.70245      1361.3108      1873.0132      85.738341      304.66415      0.15889299   
   1187000   507.86853      1376.9231      1884.7916      68.343751      308.15821      0.16176491   
   1188000   476.24224      1397.8543      1874.0965      16.35584       312.84266      0.16384534   
   1189000   464.79918      1374.2012      1839.0003      36.963252      307.54904      0.16611879   
   1190000   477.63131      1342.9806      1820.6119      132.97536      300.56182      0.17117684   
   1191000   453.79529      1334.2288      1788.0241      238.46079      298.60314      0.17508053   
   1192000   441.66176      1326.4194      1768.0811      300.04812      296.85538      0.17636261   
   1193000   453.92882      1291.0902      1745.019       244.89536      288.94863      0.17574356   
   1194000   458.11663      1338.3649      1796.4815      172.06821      299.52881      0.17651567   
   1195000   475.31823      1311.374       1786.6923      124.24197      293.4882       0.17680885   
   1196000   470.42278      1342.7375      1813.1603      102.85358      300.5074       0.17579314   
   1197000   469.28938      1315.8282      1785.1176      159.07961      294.48506      0.17555003   
   1198000   478.3519       1301.3309      1779.6828      282.75398      291.24052      0.174174     
   1199000   450.64669      1309.1924      1759.8391      320.29324      292.99994      0.1667755    
   1200000   468.1769       1310.3839      1778.5608      263.80741      293.2666       0.16064069   
   1201000   485.45219      1309.5234      1794.9756      152.70191      293.07403      0.15894556   
   1202000   476.24814      1349.9141      1826.1623      1.3393015      302.11355      0.16061564   
   1203000   481.6743       1349.7629      1831.4372     -36.747648      302.07972      0.1656232    
   1204000   479.59933      1344.9344      1824.5337     -24.621751      300.99907      0.16942663   
   1205000   472.39065      1363.2065      1835.5972      92.491662      305.08842      0.17385755   
   1206000   468.0145       1344.7539      1812.7684      209.25484      300.95868      0.17568559   
   1207000   491.08252      1353.1029      1844.1854      318.24255      302.8272       0.17756028   
   1208000   453.43362      1355.483       1808.9166      265.98777      303.35987      0.17780303   
   1209000   483.71214      1330.8299      1814.542       227.05343      297.84246      0.1805597    
   1210000   458.54078      1368.2732      1826.814       139.45824      306.22234      0.17907847   
   1211000   499.34635      1369.6164      1868.9628      82.133859      306.52297      0.17289388   
   1212000   465.74424      1353.2962      1819.0405      42.790091      302.87048      0.16697955   
   1213000   494.92986      1362.5429      1857.4727      41.464686      304.93989      0.16472221   
   1214000   511.69512      1353.9465      1865.6416      102.68967      303.016        0.16560882   
   1215000   486.37103      1350.3122      1836.6832      126.56317      302.20264      0.17057065   
   1216000   479.049        1338.7063      1817.7553      164.45831      299.60521      0.17563548   
   1217000   453.91184      1349.194       1803.1058      203.58277      301.95238      0.17911059   
   1218000   448.03415      1284.7836      1732.8178      195.79022      287.53721      0.17918484   
   1219000   473.49077      1287.4568      1760.9475      178.41245      288.13546      0.17831754   
   1220000   440.34496      1332.8526      1773.1975      109.51991      298.29514      0.174848     
   1221000   467.56998      1324.7097      1792.2797      61.949253      296.47274      0.17000002   
   1222000   475.90642      1333.6102      1809.5166      69.536285      298.4647       0.16924693   
   1223000   443.62167      1336.3427      1779.9643      179.02119      299.07623      0.17303564   
   1224000   458.75027      1314.3533      1773.1036      242.91512      294.15498      0.17764678   
   1225000   453.33625      1330.7003      1784.0365      263.28036      297.81345      0.1833845    
   1226000   477.41621      1336.2184      1813.6346      267.68736      299.04843      0.18752978   
   1227000   450.96232      1323.0622      1774.0245      188.49086      296.10404      0.183587     
   1228000   455.97631      1338.2951      1794.2714      130.69407      299.51319      0.17613113   
   1229000   482.62911      1287.2368      1769.8659      55.866319      288.08623      0.17007087   
   1230000   478.7479       1326.9103      1805.6582      35.222427      296.96525      0.16560609   
   1231000   470.76321      1336.0494      1806.8126      70.46403       299.01059      0.1643859    
   1232000   464.77436      1344.8909      1809.6653      81.481885      300.98935      0.16666721   
   1233000   483.32187      1315.2847      1798.6066      106.01084      294.36343      0.17161022   
   1234000   479.85094      1340.3357      1820.1866      238.97911      299.96988      0.17655721   
   1235000   452.20424      1326.9072      1779.1115      302.37921      296.96456      0.17678634   
   1236000   459.38006      1321.0719      1780.4519      340.84301      295.65859      0.17573657   
   1237000   453.87302      1271.1322      1725.0052      283.26071      284.48199      0.17350186   
   1238000   438.1564       1319.1395      1757.2959      224.75294      295.22613      0.17229634   
   1239000   473.34115      1311.675       1785.0161      224.01801      293.55555      0.17406603   
   1240000   465.54657      1327.961       1793.5075      184.77147      297.20039      0.17726824   
   1241000   467.26284      1328.1473      1795.4102      155.48077      297.24209      0.17822776   
   1242000   461.94099      1330.6031      1792.5441      129.69669      297.7917       0.17868132   
   1243000   449.25182      1340.1362      1789.388       99.071935      299.92522      0.17839985   
   1244000   458.59966      1309.8115      1768.4112      138.57697      293.1385       0.17899682   
   1245000   473.59924      1319.9162      1793.5155      181.00419      295.39996      0.17882827   
   1246000   483.33094      1335.3868      1818.7177      158.5669       298.8623       0.1760978    
   1247000   456.71265      1377.06        1833.7726      138.83779      308.18885      0.17412882   
   1248000   490.724        1372.8571      1863.5811      126.74748      307.24825      0.17294411   
   1249000   506.07265      1326.2794      1832.3521      131.72748      296.82405      0.17427563   
   1250000   474.0762       1353.7056      1827.7818      179.11564      302.96209      0.17708363   
   1251000   475.75926      1380.7132      1856.4725      187.84852      309.00646      0.17687628   
   1252000   503.70752      1381.3195      1885.027       216.1924       309.14213      0.17425886   
   1253000   477.47568      1374.1895      1851.6652      283.63835      307.54644      0.17139464   
   1254000   500.49912      1362.2652      1862.7643      212.39825      304.87774      0.16998511   
   1255000   492.01824      1344.2941      1836.3123      146.21287      300.85577      0.17445709   
   1256000   470.19554      1361.4578      1831.6534      200.86442      304.69706      0.18300526   
   1257000   449.75062      1389.1552      1838.9058      223.47203      310.89578      0.18738964   
   1258000   473.49593      1399.5845      1873.0804      220.63407      313.22988      0.187057     
   1259000   451.52673      1375.1398      1826.6665      167.32717      307.75911      0.18218928   
   1260000   485.95595      1357.1752      1843.1312      99.898445      303.73861      0.17847121   
   1261000   469.28684      1332.0791      1801.366       137.72547      298.12204      0.17715293   
   1262000   447.53987      1291.46        1738.9998      109.70021      289.03139      0.17337065   
   1263000   455.39101      1296.4501      1751.8412      138.18437      290.1482       0.1706049    
   1264000   470.45859      1308.9609      1779.4195      211.71714      292.94814      0.16965986   
   1265000   458.60354      1348.2017      1806.8052      226.42891      301.7303       0.17456939   
   1266000   458.11476      1356.5068      1814.6215      284.70602      303.589        0.18379446   
   1267000   450.77406      1327.9723      1778.7463      260.45926      297.20292      0.18734639   
   1268000   438.65394      1311.4789      1750.1328      196.90552      293.51166      0.18447192   
   1269000   443.5668       1347.4268      1790.9936      201.83223      301.55689      0.18054871   
   1270000   462.22232      1286.2915      1748.5138      133.04746      287.87468      0.17680044   
   1271000   468.76195      1333.251       1802.013       133.82068      298.38432      0.17456365   
   1272000   490.48328      1327.1386      1817.6219      179.55948      297.01635      0.17419617   
   1273000   457.51624      1332.3132      1789.8294      180.05203      298.17442      0.17299087   
   1274000   475.69673      1375.7836      1851.4803      209.45547      307.90319      0.17412673   
   1275000   466.72127      1353.6224      1820.3437      176.30295      302.94347      0.1751377    
   1276000   476.14818      1373.7367      1849.8849      194.21812      307.44509      0.17954406   
   1277000   461.57305      1357.7559      1819.3289      187.90919      303.86856      0.18456507   
   1278000   474.80313      1358.9202      1833.7233      199.92414      304.12913      0.18649779   
   1279000   470.77891      1338.229       1809.0079      154.37684      299.4984       0.17864887   
   1280000   452.1885       1346.7844      1798.9729      99.664208      301.41312      0.17154695   
   1281000   479.97735      1317.716       1797.6933      136.99832      294.90754      0.17168405   
   1282000   449.27373      1333.9967      1783.2704      90.949685      298.55119      0.17090487   
   1283000   493.00212      1281.1763      1774.1785      100.9528       286.72989      0.17046128   
   1284000   489.45177      1320.8865      1810.3383      116.97708      295.61712      0.16995991   
   1285000   470.05558      1303.658       1773.7136      163.89696      291.76135      0.16962344   
   1286000   471.32728      1339.9873      1811.3146      209.11396      299.89191      0.1712911    
   1287000   479.13588      1357.7501      1836.886       282.85826      303.86726      0.17576585   
   1288000   490.217        1331.6919      1821.9089      318.50955      298.03539      0.17984673   
   1289000   483.1499       1352.0065      1835.1564      302.97723      302.58183      0.18189782   
   1290000   467.88908      1349.9383      1817.8274      209.81439      302.11897      0.17895426   
   1291000   482.07705      1334.2476      1816.3246      79.673276      298.60734      0.17258476   
   1292000   476.96093      1359.0143      1835.9752     -6.5194067      304.15019      0.16799624   
   1293000   447.45552      1374.5024      1821.9579     -22.999349      307.61646      0.16645529   
   1294000   496.6516       1375.7522      1872.4038      87.79958       307.89617      0.17325207   
   1295000   469.03384      1352.7718      1821.8056      159.68255      302.7531       0.17878741   
   1296000   482.90263      1370.4494      1853.352       272.47288      306.70939      0.18277972   
   1297000   461.9064       1347.9287      1809.8351      308.59064      301.66921      0.18202319   
   1298000   487.89909      1356.5138      1844.4129      166.72501      303.59057      0.17602241   
   1299000   496.68878      1362.6642      1859.353       58.90126       304.96705      0.17015146   
   1300000   477.62751      1366.6791      1844.3066      26.245633      305.86559      0.16987555   
   1301000   469.20103      1337.4882      1806.6892      41.259605      299.33261      0.17227208   
   1302000   463.575        1315.3373      1778.9123      74.311626      294.37519      0.17185095   
   1303000   459.30299      1306.1045      1765.4075      116.1529       292.30887      0.16908931   
   1304000   464.22108      1304.4654      1768.6865      164.8908       291.94203      0.16864762   
   1305000   497.12946      1322.2631      1819.3926      196.15699      295.9252       0.17115872   
   1306000   459.14155      1349.2389      1808.3805      181.36324      301.96244      0.17364659   
   1307000   470.05658      1347.1326      1817.1892      204.27588      301.49104      0.17658187   
   1308000   471.38974      1306.4079      1777.7976      198.6127       292.37676      0.17700566   
   1309000   449.98635      1319.1834      1769.1698      184.52088      295.23595      0.17552332   
   1310000   469.43719      1321.4734      1790.9106      120.88546      295.74845      0.17190802   
   1311000   478.81848      1338.868       1817.6865      83.486579      299.64141      0.16826575   
   1312000   483.98635      1333.0969      1817.0833      89.033524      298.34983      0.16666007   
   1313000   509.68124      1364.9602      1874.6414      125.1652       305.48089      0.16871382   
   1314000   489.79982      1364.9183      1854.7182      212.10169      305.47153      0.17236005   
   1315000   478.24324      1368.2446      1846.4878      227.6468       306.21595      0.17472382   
   1316000   479.06957      1353.3291      1832.3987      225.76099      302.87784      0.180351     
   1317000   477.9256       1344.7565      1822.6821      241.86487      300.95926      0.18693035   
   1318000   462.84268      1376.0307      1838.8734      175.4426       307.9585       0.18516962   
   1319000   455.51276      1345.6761      1801.1888      109.29761      301.16507      0.18118597   
   1320000   480.85809      1324.6462      1805.5043      70.623766      296.45854      0.17927071   
   1321000   477.25018      1353.937       1831.1872      65.722804      303.01389      0.17766446   
   1322000   464.01298      1353.993       1818.006       54.761248      303.02641      0.17585777   
   1323000   495.96406      1333.38        1829.344       69.452977      298.41318      0.17369563   
   1324000   475.33146      1384.1427      1859.4742      64.018994      309.77398      0.17181523   
   1325000   487.44493      1445.3059      1932.7509      138.20713      323.46244      0.17229926   
   1326000   485.34621      1358.5093      1843.8555      244.18635      304.03716      0.17396952   
   1327000   469.83062      1371.2482      1841.0788      322.12579      306.88816      0.17716768   
   1328000   463.57139      1370.7151      1834.2865      319.41036      306.76886      0.17934807   
   1329000   490.24578      1338.9701      1829.2159      278.46275      299.66427      0.18103094   
   1330000   495.06922      1358.3213      1853.3905      175.83839      303.9951       0.17738291   
   1331000   469.95342      1352.5608      1822.5143      118.44867      302.70589      0.1721891    
   1332000   481.51731      1384.4451      1865.9624      70.636314      309.84166      0.1690605    
   1333000   460.74555      1364.6778      1825.4233      110.36012      305.41768      0.16953227   
   1334000   479.24342      1362.6812      1841.9246      173.05165      304.97085      0.17450516   
   1335000   474.31453      1379.1946      1853.5091      206.62868      308.66658      0.18350557   
   1336000   451.85684      1360.9405      1812.7973      245.24817      304.58127      0.18830738   
   1337000   436.1471       1372.7691      1808.9162      250.31272      307.22855      0.18668621   
   1338000   465.42219      1393.1687      1858.5909      176.6789       311.79402      0.18406965   
   1339000   486.62161      1345.4053      1832.0269      89.07996       301.10446      0.18114396   
   1340000   475.62436      1359.1447      1834.7691      69.039278      304.17938      0.17764373   
   1341000   482.67711      1336.0095      1818.6866      60.252336      299.00167      0.17623302   
   1342000   497.41334      1364.2903      1861.7037      98.449725      305.33098      0.17730296   
   1343000   466.40535      1373.8167      1840.222       142.6488       307.46299      0.18037547   
   1344000   463.58738      1362.5696      1826.157       238.44916      304.94588      0.18176744   
   1345000   468.47842      1359.9181      1828.3965      291.60126      304.35247      0.17898773   
   1346000   451.77886      1362.3012      1814.0801      305.30326      304.88581      0.17338078   
   1347000   478.81662      1381.8704      1860.687       195.31181      309.26544      0.16847017   
   1348000   475.24906      1348.1232      1823.3723      99.734631      301.71275      0.16961417   
   1349000   469.47435      1334.1739      1803.6483      29.446192      298.59087      0.17578575   
   1350000   474.31234      1335.2497      1809.5621      37.906604      298.83163      0.18096352   
   1351000   469.26593      1373.3928      1842.6587      141.07078      307.36812      0.18155323   
   1352000   451.76755      1367.0012      1818.7688      234.36455      305.93768      0.18030727   
   1353000   482.78107      1330.8096      1813.5907      264.11754      297.83793      0.17780753   
   1354000   460.94869      1320.1126      1781.0613      224.6084       295.44391      0.17458244   
   1355000   458.00856      1348.289       1806.2975      174.66976      301.74984      0.17220824   
   1356000   466.83828      1321.4639      1788.3022      101.80693      295.74634      0.17148676   
   1357000   486.48069      1293.5446      1780.0253      64.422786      289.49794      0.17038479   
   1358000   490.26899      1323.15        1813.419       80.714242      296.12368      0.1669673    
   1359000   476.18012      1306.3865      1782.5666      163.16519      292.37199      0.16359776   
   1360000   473.02998      1326.0514      1799.0814      252.95792      296.77302      0.16241979   
   1361000   493.00825      1327.849       1820.8573      292.91894      297.17533      0.16494415   
   1362000   478.0666       1360.8486      1838.9152      302.73036      304.56072      0.17159215   
   1363000   492.10367      1336.6591      1828.7627      168.54875      299.14704      0.17547437   
   1364000   484.3717       1365.9946      1850.3663      100.82891      305.71239      0.17667637   
   1365000   459.83476      1355.5969      1815.4316      65.758292      303.38536      0.17737127   
   1366000   495.35631      1340.3965      1835.7528      86.076019      299.98349      0.17544977   
   1367000   490.59635      1320.3345      1810.9308      81.434361      295.49357      0.16709575   
   1368000   479.97336      1340.0817      1820.055       182.92784      299.91303      0.16241472   
   1369000   479.29428      1333.4012      1812.6955      235.5763       298.41792      0.16431195   
   1370000   493.72912      1302.9385      1796.6676      241.85623      291.60031      0.16758711   
   1371000   481.11929      1310.3018      1791.4211      102.19543      293.24823      0.16954655   
   1372000   460.17119      1307.5297      1767.7009      18.421596      292.62783      0.17232845   
   1373000   460.25534      1330.2749      1790.5303      37.594764      297.71826      0.17539761   
   1374000   486.0814       1284.5541      1770.6355      92.151108      287.48584      0.17578146   
   1375000   492.17377      1307.4029      1799.5767      153.32876      292.59946      0.17472608   
   1376000   460.69935      1334.8974      1795.5968      223.305        298.75278      0.17392562   
   1377000   441.96998      1321.3333      1763.3033      230.72505      295.71711      0.17559299   
   1378000   500.72058      1312.6037      1813.3243      144.45881      293.7634       0.17820928   
   1379000   468.35854      1335.686       1804.0445      149.35031      298.92927      0.18147006   
   1380000   468.59348      1383.9579      1852.5514      160.24683      309.73262      0.18231581   
   1381000   489.51329      1349.5703      1839.0836      179.29024      302.03661      0.17996854   
   1382000   482.9877       1363.5698      1846.5575      182.5216       305.16971      0.17519588   
   1383000   471.96741      1382.0511      1854.0185      151.17199      309.30587      0.17114825   
   1384000   490.1369       1358.9872      1849.1241      53.198355      304.14413      0.16984104   
   1385000   510.6291       1363.1392      1873.7683      76.923549      305.07335      0.17465997   
   1386000   464.07657      1363.9079      1827.9845      158.86877      305.24539      0.18220034   
   1387000   458.16136      1376.2129      1834.3743      197.51111      307.99928      0.18517622   
   1388000   479.85495      1343.3161      1823.1711      245.32236      300.63691      0.18331588   
   1389000   466.47234      1346.4174      1812.8897      236.96265      301.33097      0.18024601   
   1390000   459.53803      1374.1541      1833.6921      172.51983      307.5385       0.17826904   
   1391000   456.39482      1348.2718      1804.6666      87.546153      301.746        0.17819692   
   1392000   484.89675      1302.0516      1786.9483      43.792602      291.40181      0.17807806   
   1393000   456.26045      1330.0299      1786.2903      94.99919       297.66342      0.17673943   
   1394000   434.73191      1356.4125      1791.1444      105.87948      303.56791      0.17313211   
   1395000   499.0436       1282.2955      1781.3391      126.08122      286.98035      0.16724262   
   1396000   487.30273      1268.903       1756.2057      116.09683      283.9831       0.16254869   
   1397000   496.10619      1319.5493      1815.6555      118.77403      295.31784      0.16342534   
   1398000   478.65803      1308.8693      1787.5273      103.66992      292.92764      0.16677076   
   1399000   492.48208      1323.995       1816.4771      90.943699      296.31281      0.17007814   
   1400000   505.51269      1382.6274      1888.1401      87.815052      309.43485      0.17079678   
   1401000   486.21779      1379.7357      1865.9535      118.64969      308.78767      0.17059647   
   1402000   486.0437       1359.7572      1845.8009      50.276434      304.31645      0.17108811   
   1403000   489.3317       1352.0104      1841.3421      55.540266      302.5827       0.17528113   
   1404000   472.356        1391.9107      1864.2667      106.99899      311.51247      0.18084515   
   1405000   471.02307      1359.7647      1830.7878      142.84615      304.31813      0.18167245   
   1406000   472.91299      1355.0496      1827.9626      203.62692      303.26288      0.18078978   
   1407000   456.45106      1355.8253      1812.2763      268.9401       303.43648      0.17926728   
   1408000   483.4594       1323.4547      1806.9141      204.21179      296.19188      0.17667497   
   1409000   492.83311      1320.3598      1813.1929      170.95318      295.49923      0.17416206   
   1410000   465.48593      1314.8575      1780.3434      139.0964       294.2678       0.17058631   
   1411000   463.47853      1334.1242      1797.6027      168.986        298.57973      0.16867254   
   1412000   479.71592      1302.0243      1781.7403      140.28105      291.39572      0.16923508   
   1413000   485.35417      1335.3405      1820.6947      141.13181      298.85194      0.17188861   
   1414000   458.28114      1356.4828      1814.7639      201.09219      303.58363      0.17770134   
   1415000   461.15875      1314.3624      1775.5211      218.10345      294.157        0.1845506    
   1416000   430.87433      1339.3031      1770.1774      254.83406      299.73878      0.18694704   
   1417000   457.69149      1317.9821      1775.6736      201.37441      294.96711      0.18276025   
   1418000   445.44674      1289.7395      1735.1863      159.12896      288.64635      0.17715555   
   1419000   471.85727      1313.1197      1784.977       126.71315      293.87888      0.17322333   
   1420000   475.47601      1352.2641      1827.7401      111.79921      302.63948      0.17054737   
   1421000   479.18336      1368.7041      1847.8874      146.09803      306.31878      0.17029179   
   1422000   487.32126      1343.8865      1831.2078      118.0597       300.76456      0.17256574   
   1423000   483.58353      1367.7106      1851.2942      152.67134      306.09644      0.17546073   
   1424000   467.85334      1349.8042      1817.6576      153.40772      302.08896      0.17961454   
   1425000   461.26162      1344.8236      1806.0852      143.51336      300.97429      0.18246798   
   1426000   466.62346      1352.8366      1819.4601      109.81856      302.76762      0.18017127   
   1427000   492.18852      1374.2183      1866.4068      106.96984      307.55288      0.17080599   
   1428000   490.87597      1352.082       1842.9579      172.01704      302.59872      0.16184097   
   1429000   488.43187      1376.5238      1864.9556      234.23669      308.06884      0.15980462   
   1430000   464.27685      1325.0562      1789.333       231.87258      296.55029      0.16149466   
   1431000   471.99011      1323.9857      1795.9758      172.84416      296.31072      0.16840369   
   1432000   469.12991      1338.8446      1807.9745      174.24474      299.63616      0.17566746   
   1433000   471.27347      1340.8949      1812.1684      173.40898      300.09503      0.17667186   
   1434000   469.09353      1351.6773      1820.7708      191.44436      302.50815      0.17558288   
   1435000   494.82359      1372.1631      1866.9867      234.34299      307.09293      0.17269899   
   1436000   474.0215       1358.2385      1832.26        241.57945      303.97657      0.16708439   
   1437000   465.5249       1391.1165      1856.6414      205.26178      311.33472      0.16638776   
   1438000   482.47595      1344.497       1826.9729      230.54762      300.90119      0.17064653   
   1439000   495.33307      1335.9273      1831.2604      186.33698      298.98327      0.17297835   
   1440000   498.97028      1349.7742      1848.7445      155.84134      302.08225      0.17363407   
   1441000   458.0179       1352.9392      1810.9571      151.19301      302.79057      0.17256304   
   1442000   486.20995      1376.5784      1862.7883      91.031248      308.08106      0.17070593   
   1443000   503.66721      1323.0434      1826.7106      168.04507      296.09982      0.16936427   
   1444000   497.09544      1366.7242      1863.8196      176.87879      305.87568      0.16688693   
   1445000   479.55139      1354.0656      1833.617       163.82317      303.04267      0.16513588   
   1446000   488.40283      1283.4981      1771.9009      100.87583      287.2495       0.16001675   
   1447000   503.34046      1308.9649      1812.3054      112.36925      292.94903      0.15662308   
   1448000   482.91484      1328.1756      1811.0905      173.36762      297.24843      0.15919933   
   1449000   463.7438       1360.8875      1824.6313      203.64591      304.56941      0.16559303   
   1450000   492.39341      1373.7611      1866.1545      226.06876      307.45055      0.17183206   
   1451000   487.43871      1347.6119      1835.0506      201.57285      301.5983       0.17442246   
   1452000   466.94594      1349.6498      1816.5957      162.77839      302.0544       0.17397536   
   1453000   486.77346      1378.2242      1864.9976      163.80118      308.4494       0.1729521    
   1454000   490.45443      1347.0132      1837.4676      139.86913      301.46432      0.17036098   
   1455000   481.17704      1369.1542      1850.3313      203.36089      306.41953      0.16873597   
   1456000   481.07584      1384.7365      1865.8124      221.47242      309.90688      0.16377169   
   1457000   498.07835      1342.7521      1840.8305      160.52627      300.51068      0.15400276   
   1458000   489.42709      1391.0828      1880.5099      122.2695       311.32719      0.15402642   
   1459000   503.23715      1347.8684      1851.1055      13.957788      301.65571      0.15948255   
   1460000   480.70603      1320.5003      1801.2063     -28.487956      295.53067      0.16544799   
   1461000   503.70184      1311.8043      1815.5061      9.0270728      293.58449      0.17041552   
   1462000   476.02481      1323.7065      1799.7313      81.541892      296.24824      0.17405874   
   1463000   462.73806      1352.4048      1815.1429      184.50882      302.67098      0.17564662   
   1464000   486.10812      1337.1571      1823.2652      228.65985      299.25851      0.17604337   
   1465000   474.43053      1348.8352      1823.2657      257.49991      301.87208      0.17618721   
   1466000   459.10351      1381.8753      1840.9788      278.25942      309.26654      0.17662708   
   1467000   484.20941      1354.454       1838.6634      164.38743      303.12957      0.17570622   
   1468000   501.43208      1333.4982      1834.9303      101.94535      298.43964      0.17168504   
   1469000   503.60207      1358.0932      1861.6953      92.952374      303.94404      0.16626679   
   1470000   509.2076       1335.8842      1845.0918      147.90265      298.97363      0.1632522    
   1471000   501.41679      1358.5346      1859.9514      150.16697      304.04284      0.16287001   
   1472000   512.89627      1327.8522      1840.7485      121.96663      297.17605      0.16724602   
   1473000   477.53644      1368.4801      1846.0165      170.32014      306.26865      0.17309588   
   1474000   469.93734      1368.6284      1838.5657      206.74815      306.30184      0.1765736    
   1475000   474.55438      1353.726       1828.2804      190.22204      302.96667      0.17817915   
   1476000   488.4431       1350.5118      1838.9549      227.67606      302.24731      0.17888577   
   1477000   479.39333      1358.7067      1838.1001      260.44153      304.08136      0.17762197   
   1478000   487.07089      1410.0128      1897.0837      224.32251      315.56377      0.17218926   
   1479000   475.06         1342.6859      1817.7459      162.63071      300.49586      0.16714777   
   1480000   499.0472       1344.6186      1843.6658      123.38199      300.9284       0.16499269   
   1481000   508.09715      1335.8162      1843.9133      140.77331      298.9584       0.16513253   
   1482000   492.52664      1340.6213      1833.1479      157.21014      300.03379      0.1677808    
   1483000   487.77375      1339.4962      1827.27        132.36221      299.782        0.17137033   
   1484000   475.74431      1297.5844      1773.3288      165.06273      290.40206      0.17768234   
   1485000   456.34884      1341.9569      1798.3057      209.75026      300.33271      0.18242592   
   1486000   482.48075      1340.4853      1822.9661      188.48913      300.00337      0.18236157   
   1487000   475.86116      1369.2818      1845.143       222.2478       306.44808      0.18006265   
   1488000   488.12668      1387.1223      1875.249       137.19401      310.44081      0.17493553   
   1489000   516.99938      1366.8289      1883.8283      97.912098      305.89911      0.17274091   
   1490000   477.62358      1308.969       1786.5926      83.813571      292.94995      0.17267099   
   1491000   463.07405      1340.7892      1803.8633      70.027077      300.07138      0.17639543   
   1492000   456.75713      1336.4477      1793.2049      129.47736      299.09974      0.1825046    
   1493000   477.49338      1314.3751      1791.8684      163.37015      294.15984      0.18563325   
   1494000   455.80717      1311.0579      1766.8651      189.90392      293.41745      0.18393326   
   1495000   495.73564      1321.5084      1817.244       164.48755      295.75629      0.17736238   
   1496000   485.30555      1337.7069      1823.0125      155.9195       299.38155      0.17354847   
   1497000   488.75727      1375.0073      1863.7645      105.96453      307.72945      0.17194593   
   1498000   457.73703      1371.5395      1829.2765      97.011198      306.95335      0.17164447   
   1499000   477.32602      1374.3488      1851.6748      106.57063      307.58208      0.17101504   
   1500000   488.57214      1329.6833      1818.2554      120.01046      297.58585      0.17088424   
   1501000   479.92804      1341.8703      1821.7984      123.29808      300.31333      0.1739253    
   1502000   462.24263      1318.5132      1780.7559      185.13308      295.08597      0.17987133   
   1503000   469.74498      1309.7373      1779.4823      265.4403       293.12189      0.18293906   
   1504000   454.5258       1331.1433      1785.6691      267.35805      297.91259      0.18190898   
   1505000   468.22964      1321.7971      1790.0267      242.61033      295.8209       0.17755431   
   1506000   478.73992      1265.3983      1744.1383      174.08197      283.19875      0.16961828   
   1507000   493.19215      1309.8579      1803.0501      91.702154      293.14889      0.15961639   
   1508000   482.37217      1314.9274      1797.2996      81.033975      294.28346      0.16026468   
   1509000   476.7305       1292.3038      1769.0343      96.13826       289.22025      0.16479768   
   1510000   489.71449      1313.8974      1803.6119      136.99984      294.05294      0.16950806   
   1511000   484.35619      1334.9312      1819.2874      153.318        298.76035      0.17060613   
   1512000   471.6505       1333.8055      1805.456       186.27578      298.5084       0.1720939    
   1513000   483.57654      1334.0644      1817.6409      235.06067      298.56635      0.17687882   
   1514000   467.55403      1340.5597      1808.1137      228.15042      300.02001      0.18112052   
   1515000   477.63382      1393.2851      1870.919       216.74689      311.82008      0.18320359   
   1516000   486.23671      1353.4588      1839.6956      174.31641      302.90687      0.17974704   
   1517000   470.70201      1354.7818      1825.4838      148.61848      303.20294      0.17328433   
   1518000   498.61692      1350.6153      1849.2322      144.74784      302.27048      0.17077968   
   1519000   461.18845      1364.25        1825.4384      160.47248      305.32194      0.17137633   
   1520000   497.29525      1369.6542      1866.9495      161.83341      306.53143      0.1729782    
   1521000   492.37815      1316.3247      1808.7028      167.50242      294.59617      0.17163011   
   1522000   475.50289      1326.1766      1801.6795      138.49435      296.80104      0.16835491   
   1523000   452.53829      1337.2118      1789.7501      125.16246      299.27076      0.16856883   
   1524000   489.6854       1368.3629      1858.0482      114.91253      306.24241      0.16838321   
   1525000   499.44874      1342.5162      1841.9649      126.31471      300.45787      0.16792954   
   1526000   494.91847      1354.1537      1849.0721      107.7759       303.06237      0.16866427   
   1527000   489.0708       1343.8629      1832.9337      154.82736      300.75929      0.17151725   
   1528000   461.56947      1382.2832      1843.8526      179.63704      309.35781      0.17208133   
   1529000   496.24087      1345.7482      1841.9891      121.06056      301.18122      0.16922785   
   1530000   539.9462       1332.1908      1872.137       93.152555      298.14703      0.16534998   
   1531000   483.95001      1345.8584      1829.8084      75.10356       301.20586      0.16359154   
   1532000   482.46967      1381.4722      1863.9418      99.6689        309.17631      0.16646687   
   1533000   478.30099      1345.1051      1823.4061      108.80285      301.03728      0.17144357   
   1534000   480.08698      1350.5597      1830.6467      196.87341      302.25804      0.17747733   
   1535000   437.05444      1360.1466      1797.201       172.63212      304.4036       0.17935105   
   1536000   457.86022      1330.2011      1788.0614      145.11019      297.70175      0.18150059   
   1537000   468.01448      1303.7999      1771.8144      99.432781      291.79309      0.17905008   
   1538000   503.31876      1361.9985      1865.3172      18.607311      304.81805      0.16811181   
   1539000   489.44249      1345.7682      1835.2106      92.483476      301.18568      0.16242208   
   1540000   489.68138      1334.1945      1823.8759      172.89299      298.59547      0.16594131   
   1541000   456.31773      1310.5567      1766.8744      292.91825      293.30528      0.17217556   
   1542000   491.37057      1317.5602      1808.9308      321.00665      294.87268      0.17554986   
   1543000   450.99353      1342.203       1793.1966      281.34974      300.38779      0.17669179   
   1544000   453.83538      1317.3857      1771.2211      177.09792      294.83362      0.17619144   
   1545000   470.80959      1264.4952      1735.3048      140.65807      282.99663      0.17325609   
   1546000   451.79302      1312.5487      1764.3417      152.06853      293.75109      0.16812562   
   1547000   470.33615      1335.9911      1806.3273      194.163        298.99755      0.16501974   
   1548000   473.21667      1345.512       1818.7286      183.22609      301.12834      0.16555638   
   1549000   477.38426      1339.3461      1816.7304      190.59672      299.74841      0.17181094   
   1550000   454.54209      1388.1861      1842.7282      198.75647      310.6789       0.18164848   
   1551000   432.69352      1366.4171      1799.1107      150.90646      305.80696      0.18479337   
   1552000   478.24608      1352.4696      1830.7157      94.182429      302.68548      0.18381602   
   1553000   500.99564      1343.0828      1844.0784      123.49268      300.58468      0.17946534   
   1554000   438.56255      1379.7327      1818.2952      158.72306      308.787        0.1732806    
   1555000   505.23915      1378.1768      1883.4159      214.25594      308.43879      0.1695487    
   1556000   475.82384      1339.8605      1815.6844      216.56692      299.86354      0.16727162   
   1557000   478.64491      1330.6004      1809.2453      229.16525      297.7911       0.16866149   
   1558000   468.23122      1320.0019      1788.2331      275.73994      295.41913      0.17257597   
   1559000   454.42281      1328.7106      1783.1334      237.96577      297.36817      0.17645916   
   1560000   477.1804       1304.8692      1782.0496      216.04449      292.0324       0.17829926   
   1561000   444.96106      1281.8503      1726.8114      168.63471      286.88074      0.17873194   
   1562000   468.33313      1305.0821      1773.4153      137.61932      292.08006      0.17797654   
   1563000   499.05501      1318.2531      1817.3081      95.844841      295.02775      0.1741337    
   1564000   493.6152       1369.0877      1862.7029      23.821231      306.40464      0.16952857   
   1565000   484.95442      1360.7029      1845.6574     -17.638502      304.52811      0.16949605   
   1566000   488.50961      1369.845       1858.3546      2.7367354      306.57413      0.16996795   
   1567000   481.19524      1351.3798      1832.5751      70.190849      302.44158      0.1714442    
   1568000   497.71841      1362.499       1860.2174      202.74644      304.93007      0.17719365   
   1569000   456.65163      1331.5268      1788.1784      311.12745      297.99843      0.18300404   
   1570000   458.43921      1334.8256      1793.2648      312.62307      298.7367       0.1838435    
   1571000   469.06873      1328.2263      1797.2951      242.73398      297.25978      0.17987726   
   1572000   478.69283      1336.8049      1815.4977      152.87509      299.17967      0.17374306   
   1573000   492.76737      1384.3338      1877.1012      103.22675      309.81676      0.16958134   
   1574000   494.59475      1340.5507      1835.1455      78.493328      300.018        0.16867168   
   1575000   452.48775      1360.5826      1813.0703      43.834601      304.50117      0.16803208   
   1576000   473.24091      1309.7862      1783.0271      93.21779       293.13284      0.1708694    
   1577000   444.05656      1280.1339      1724.1905      177.03919      286.4966       0.17462065   
   1578000   468.11017      1304.3983      1772.5085      259.79185      291.92702      0.17620903   
   1579000   464.44739      1327.6542      1792.1016      350.26283      297.13173      0.17652272   
   1580000   478.53254      1336.2226      1814.7552      273.79538      299.04937      0.17476967   
   1581000   454.10928      1340.1288      1794.2381      214.11933      299.92358      0.17431972   
   1582000   466.01738      1300.6418      1766.6592      159.5748       291.08631      0.17676866   
   1583000   436.35156      1356.9729      1793.3244      75.93448       303.69331      0.18228285   
   1584000   437.45861      1322.4421      1759.9008      141.32832      295.96527      0.188873     
   1585000   444.9943       1341.8288      1786.8231      110.07995      300.30404      0.18633295   
   1586000   461.43175      1297.6673      1759.099       107.73521      290.4206       0.18010426   
   1587000   468.88341      1334.6566      1803.54        114.90265      298.69888      0.17650529   
   1588000   452.66195      1356.256       1808.918       169.01646      303.53289      0.17563446   
   1589000   478.23724      1310.5221      1788.7593      170.45054      293.29754      0.1723164    
   1590000   509.93884      1318.9408      1828.8796      218.73895      295.18166      0.16861195   
   1591000   486.52337      1359.8007      1846.324       191.34067      304.32618      0.16687505   
   1592000   503.83126      1329.981       1833.8122      152.31468      297.65247      0.16876989   
   1593000   496.37145      1342.3184      1838.6899      77.402239      300.41362      0.17024202   
   1594000   463.54721      1349.484       1813.0312      59.063666      302.01729      0.1722722    
   1595000   484.25375      1354.6737      1838.9274      70.449137      303.17875      0.17326283   
   1596000   471.45294      1352.2006      1823.6535      136.05549      302.62526      0.17279869   
   1597000   475.97583      1381.5748      1857.5507      222.24713      309.19929      0.17123405   
   1598000   502.87633      1334.5579      1837.4342      286.14089      298.67679      0.16930464   
   1599000   514.41094      1349.1469      1863.5579      298.396        301.94185      0.1682207    
   1600000   467.51025      1388.5286      1856.0389      274.43414      310.75556      0.16672486   
   1601000   493.34693      1336.4937      1829.8407      148.82969      299.11004      0.1651354    
   1602000   493.47319      1325.4206      1818.8938      101.53973      296.63184      0.16665745   
   1603000   474.34653      1352.0459      1826.3925      57.835617      302.59066      0.17162989   
   1604000   456.94429      1349.5029      1806.4472      59.767047      302.02151      0.17752149   
   1605000   472.30524      1347.1615      1819.4667      138.74427      301.49751      0.17969425   
   1606000   464.48783      1354.8804      1819.3682      241.6683       303.22502      0.17713708   
   1607000   481.02241      1350.5624      1831.5848      243.83678      302.25863      0.17177859   
   1608000   521.92033      1333.7497      1855.6701      219.13711      298.49593      0.17065168   
   1609000   473.45647      1344.4864      1817.9428      190.30775      300.89881      0.1718988    
   1610000   442.0735       1347.1894      1789.2629      98.604709      301.50376      0.17515124   
   1611000   480.18534      1279.9631      1760.1485      64.96158       286.45837      0.17849271   
   1612000   478.31471      1272.6647      1750.9794      20.796836      284.82498      0.17923618   
   1613000   459.91184      1321.6987      1781.6105      48.574244      295.79887      0.18215643   
   1614000   468.51686      1315.1487      1783.6656      152.6437       294.33299      0.18492715   
   1615000   469.80348      1352.9811      1822.7846      250.1716       302.79995      0.18296406   
   1616000   461.29432      1375.5743      1836.8686      262.18217      307.85636      0.1779975    
   1617000   472.31224      1358.1198      1830.432       269.87261      303.95         0.17479565   
   1618000   505.20688      1332.4371      1837.644       214.95192      298.20217      0.1737749    
   1619000   467.42967      1273.0438      1740.4734      121.20205      284.90981      0.17311245   
   1620000   456.78118      1323.4087      1780.1899      107.88533      296.18158      0.17512651   
   1621000   472.54571      1326.2158      1798.7615      142.59625      296.80982      0.17806114   
   1622000   481.96286      1319.0787      1801.0415      192.65234      295.21252      0.17305621   
   1623000   481.78558      1305.2906      1787.0762      170.29234      292.12671      0.1649689    
   1624000   453.31957      1316.0864      1769.4059      208.66439      294.54283      0.1658111    
   1625000   446.24162      1356.0555      1802.2971      202.42131      303.48801      0.16895819   
   1626000   456.81082      1333.8965      1790.7074      152.09987      298.52878      0.16962168   
   1627000   480.95673      1305.5544      1786.5111      122.79239      292.18575      0.17044682   
   1628000   466.09624      1310.1167      1776.213       111.70386      293.20681      0.17235873   
   1629000   480.46288      1327.7023      1808.1652      238.81223      297.1425       0.17920617   
   1630000   445.15803      1330.1743      1775.3323      301.45587      297.69573      0.18424423   
   1631000   453.62633      1313.5444      1767.1707      338.91458      293.97393      0.18407305   
   1632000   466.36671      1270.6791      1737.0458      340.2448       284.38058      0.17919569   
   1633000   466.17934      1328.9243      1795.1036      249.14138      297.41598      0.1712004    
   1634000   472.9658       1327.865       1800.8308      161.19703      297.17891      0.1687498    
   1635000   461.38747      1302.0695      1763.457       89.761187      291.40583      0.16988508   
   1636000   462.86132      1329.2665      1792.1278      100.3577       297.49257      0.17280445   
   1637000   472.63907      1278.8574      1751.4965      69.738898      286.21091      0.17595327   
   1638000   470.18777      1310.6408      1780.8286      119.41512      293.3241       0.17808794   
   1639000   432.51526      1356.8841      1789.3993      216.66075      303.67344      0.17778532   
   1640000   464.69338      1307.8568      1772.5501      201.91979      292.70103      0.17615853   
   1641000   505.41949      1337.7725      1843.1919      194.09859      299.39622      0.17488213   
   1642000   499.29774      1344.5126      1843.8104      118.55387      300.90468      0.17165949   
   1643000   489.9377       1306.6098      1796.5475     -7.927175       292.42196      0.16467697   
   1644000   470.64146      1251.766       1722.4075     -58.565416      280.1478       0.16111742   
   1645000   488.82501      1308.5493      1797.3743     -13.166702      292.85602      0.16331724   
   1646000   483.42371      1332.0706      1815.4943      64.794609      298.12014      0.16787609   
   1647000   460.48434      1315.9797      1776.464       112.84689      294.51896      0.17112666   
   1648000   463.74182      1330.0509      1793.7927      205.52418      297.66811      0.1728998    
   1649000   438.74085      1318.3607      1757.1016      224.51111      295.05184      0.17453711   
   1650000   465.05255      1347.0177      1812.0702      209.68918      301.46532      0.1766513    
   1651000   507.86138      1343.678       1851.5394      131.24063      300.71789      0.17644411   
   1652000   470.42339      1386.0419      1856.4653      158.94526      310.19903      0.17581482   
   1653000   511.17783      1407.9058      1919.0836      176.67182      315.0922       0.17374305   
   1654000   489.10856      1381.6758      1870.7843      191.38616      309.22187      0.17303749   
   1655000   476.8905       1350.118       1827.0085      187.86014      302.15919      0.17167055   
   1656000   492.38033      1370.4912      1862.8715      203.90133      306.71873      0.17253402   
   1657000   472.75714      1349.9501      1822.7072      187.96389      302.1216       0.17598038   
   1658000   506.32936      1343.0443      1849.3736      123.311        300.57607      0.17788472   
   1659000   479.23581      1357.651       1836.8868      124.46362      303.84507      0.17769832   
   1660000   487.35386      1364.5683      1851.9221      144.41979      305.39318      0.17699805   
   1661000   471.8715       1333.0126      1804.8841      83.386599      298.33095      0.17235667   
   1662000   486.91646      1330.8015      1817.718       134.83048      297.83611      0.17373359   
   1663000   463.56512      1362.0018      1825.567       190.20002      304.81881      0.17743579   
   1664000   481.22217      1387.9947      1869.2169      245.83903      310.63606      0.1803814    
   1665000   458.51158      1357.0475      1815.5591      249.52345      303.71001      0.18281475   
   1666000   465.27466      1355.6808      1820.9555      244.35397      303.40415      0.18474352   
   1667000   472.07727      1364.0201      1836.0974      193.21261      305.2705       0.18407594   
   1668000   510.93635      1390.9969      1901.9332      174.82372      311.30796      0.1838738    
   1669000   478.4083       1390.6594      1869.0677      133.25744      311.23243      0.18292686   
   1670000   463.88791      1375.5988      1839.4867      117.69999      307.86183      0.17967292   
   1671000   458.55475      1374.4009      1832.9557      105.0776       307.59375      0.17746021   
   1672000   500.46377      1337.0702      1837.534       67.237013      299.23905      0.17635203   
   1673000   480.96446      1343.9153      1824.8798      26.224028      300.77101      0.17627962   
   1674000   468.13624      1376.5979      1844.7342      90.829073      308.08544      0.17890369   
   1675000   459.3867       1353.8989      1813.2856      171.17637      303.00535      0.18256342   
   1676000   466.80232      1306.7554      1773.5577      254.86443      292.45455      0.18372533   
   1677000   471.08191      1339.4016      1810.4835      306.84054      299.76082      0.1809194    
   1678000   459.11205      1321.6353      1780.7473      302.74245      295.78468      0.17466193   
   1679000   512.92975      1332.6414      1845.5712      220.95347      298.24789      0.17021488   
   1680000   488.33308      1361.5373      1849.8703      173.60852      304.71483      0.1689561    
   1681000   458.99115      1366.8438      1825.835       150.43429      305.90246      0.17150251   
   1682000   464.54797      1327.5166      1792.0646      101.42481      297.10094      0.17778331   
   1683000   470.8975       1313.5787      1784.4762      64.384691      293.98161      0.1860147    
   1684000   463.19367      1283.6541      1746.8478      90.272087      287.28443      0.18689697   
   1685000   470.64705      1346.2117      1816.8587      102.70237      301.28494      0.18186595   
   1686000   476.54557      1359.1382      1835.6838      167.34643      304.17792      0.17633062   
   1687000   475.92119      1358.4979      1834.4191      240.28214      304.03462      0.17377476   
   1688000   471.12031      1391.5106      1862.6309      239.7075       311.42293      0.1723011    
   1689000   526.57641      1350.192       1876.7684      204.76548      302.17575      0.16879495   
   1690000   489.94169      1423.88        1913.8217      173.50971      318.66726      0.16462581   
   1691000   468.40522      1401.5347      1869.9399      149.02828      313.66633      0.16442909   
   1692000   492.47413      1356.5872      1849.0613      150.27717      303.60699      0.16979509   
   1693000   484.19204      1390.2751      1874.4671      156.04388      311.14642      0.17512939   
   1694000   473.16121      1364.473       1837.6342      126.65846      305.37186      0.17808672   
   1695000   491.79731      1332.6118      1824.4091      57.938539      298.24126      0.1802784    
   1696000   514.70266      1320.3273      1835.0299      27.67642       295.49195      0.18149904   
   1697000   469.42477      1388.2025      1857.6273      67.638328      310.68258      0.18281087   
   1698000   483.07706      1348.7491      1831.8262      36.024056      301.85282      0.18385999   
   1699000   477.53739      1359.1675      1836.7049      165.04349      304.18447      0.18686965   
   1700000   475.81668      1353.3346      1829.1513      217.74527      302.87906      0.18557635   
   1701000   471.80022      1361.7801      1833.5803      239.20228      304.76918      0.17995043   
   1702000   478.20327      1370.5251      1848.7284      165.03347      306.72633      0.17457554   
   1703000   524.91904      1339.2046      1864.1236      73.432001      299.71673      0.17442031   
   1704000   480.23404      1380.6291      1860.8631      46.622829      308.98762      0.17991229   
   1705000   463.87901      1313.5565      1777.4355      66.106951      293.97663      0.18639007   
   1706000   488.28273      1333.6471      1821.9299      113.54399      298.47296      0.19003647   
   1707000   465.02729      1367.0568      1832.0841      148.61588      305.95013      0.18800386   
   1708000   478.81757      1357.1863      1836.0039      183.21917      303.74109      0.18207939   
   1709000   475.34777      1382.4844      1857.8322      240.64238      309.40285      0.17927681   
   1710000   470.49239      1349.6435      1820.1359      233.16812      302.05299      0.17964048   
   1711000   461.30566      1353.1992      1814.5049      155.64425      302.84876      0.17945221   
   1712000   482.14934      1334.4568      1816.6061      98.935121      298.65417      0.18042146   
   1713000   471.46062      1376.7712      1848.2318      103.21589      308.12423      0.18117206   
   1714000   474.20331      1342.6065      1816.8098      151.81312      300.47809      0.17994166   
   1715000   514.66164      1358.5073      1873.169       190.26997      304.03673      0.17830007   
   1716000   480.30094      1340.8765      1821.1775      188.3708       300.09092      0.17533583   
   1717000   453.0206       1341.2419      1794.2625      214.04492      300.17269      0.17441377   
   1718000   449.85738      1342.3465      1792.2039      206.75486      300.41991      0.17501705   
   1719000   449.22079      1298.8286      1748.0494      185.3427       290.68052      0.17593429   
   1720000   470.5036       1310.237       1780.7406      272.51566      293.23372      0.17801766   
   1721000   477.72949      1326.326       1804.0555      225.46616      296.83448      0.17453414   
   1722000   494.77739      1335.6387      1830.4161      158.62939      298.91868      0.16940789   
   1723000   489.64131      1357.1952      1846.8365      122.24771      303.74308      0.16901969   
   1724000   466.49912      1385.6519      1852.151       94.271719      310.11173      0.17642249   
   1725000   481.93486      1339.3597      1821.2946      130.78704      299.75146      0.18438956   
   1726000   469.31447      1377.3169      1846.6314      197.58038      308.24635      0.18677551   
   1727000   471.27614      1351.1403      1822.4165      208.82021      302.38798      0.18411453   
   1728000   458.44599      1344.36        1802.806       176.52625      300.87054      0.18046683   
   1729000   495.68055      1321.646       1817.3266      166.43288      295.7871       0.17921503   
   1730000   460.11733      1349.7755      1809.8928      158.56025      302.08253      0.1804866    
   1731000   450.31943      1349.5328      1799.8523      143.32371      302.02822      0.17845986   
   1732000   456.26502      1354.6281      1810.8932      179.7395       303.16856      0.16766717   
   1733000   490.95628      1309.6801      1800.6364      212.75272      293.1091       0.16243903   
   1734000   494.39414      1329.3085      1823.7026      264.75655      297.50196      0.16394463   
   1735000   461.45591      1318.9151      1780.371       220.82885      295.1759       0.16608416   
   1736000   476.56795      1284.5229      1761.0908      166.42927      287.47886      0.1719492    
   1737000   460.50611      1318.9098      1779.4159      142.85247      295.17472      0.17730962   
   1738000   470.38505      1313.6322      1784.0172      95.81619       293.99358      0.17884807   
   1739000   471.40038      1325.7054      1797.1058      113.4333       296.6956       0.17828356   
   1740000   459.37517      1316.5257      1775.9009      125.95157      294.64115      0.17444026   
   1741000   492.06497      1354.432       1846.497       198.11288      303.12466      0.17049426   
   1742000   511.17628      1349.317       1860.4933      161.10465      301.97991      0.16808674   
   1743000   478.52335      1369.9213      1848.4447      138.0842       306.5912       0.16784311   
   1744000   503.84434      1353.5988      1857.4431      115.39375      302.93818      0.16847703   
   1745000   487.2625       1362.5896      1849.8521      121.38564      304.95036      0.16943788   
   1746000   509.55912      1388.3525      1897.9116      142.05648      310.71613      0.17426324   
   1747000   473.34129      1414.7308      1888.0721      170.97752      316.61967      0.17961967   
   1748000   499.37391      1325.765       1825.139       119.1599       296.70894      0.18055485   
   1749000   490.77923      1326.5202      1817.2995      105.80966      296.87795      0.179022     
   1750000   470.48952      1314.5964      1785.086       98.148334      294.20938      0.17629659   
   1751000   475.30113      1357.0095      1832.3106      186.21515      303.7015       0.17579144   
   1752000   474.59085      1363.9681      1838.559       255.10445      305.25886      0.17434241   
   1753000   500.00166      1359.2707      1859.2724      217.37991      304.20758      0.17193287   
   1754000   499.55981      1343.8236      1843.3834      131.94767      300.75047      0.17074985   
   1755000   497.79863      1338.3136      1836.1122      100.07627      299.51733      0.17234067   
   1756000   496.90646      1353.2335      1850.1399      94.425198      302.85643      0.17675537   
   1757000   476.15866      1345.3643      1821.5229      94.422059      301.09529      0.18387707   
   1758000   448.64776      1389.6234      1838.2711      194.29486      311.00056      0.19064553   
   1759000   481.50765      1393.2515      1874.7591      211.77799      311.81254      0.18966908   
   1760000   494.52108      1336.0073      1830.5284      211.65173      299.00118      0.18428514   
   1761000   471.48818      1344.5345      1816.0227      243.96055      300.90957      0.18094108   
   1762000   446.12836      1362.6704      1808.7987      227.80959      304.96843      0.17916872   
   1763000   475.67355      1328.6637      1804.3372      235.01736      297.35765      0.1781414    
   1764000   486.96988      1338.9638      1825.9336      225.87488      299.66284      0.17761632   
   1765000   480.5486       1342.7477      1823.2963      169.10309      300.5097       0.17540828   
   1766000   462.36339      1342.0337      1804.3971      149.50679      300.3499       0.17119245   
   1767000   510.9952       1331.1172      1842.1124      151.10006      297.90677      0.16839941   
   1768000   494.03468      1341.4459      1835.4806      130.02288      300.21835      0.16869958   
   1769000   468.45968      1361.8716      1830.3313      142.4124       304.78967      0.17391016   
   1770000   485.75694      1366.4965      1852.2534      141.89453      305.82472      0.18021115   
   1771000   437.9663       1324.9623      1762.9286      167.93965      296.52929      0.18426281   
   1772000   464.74082      1332.1419      1796.8827      246.57618      298.13609      0.18583298   
   1773000   471.24454      1326.0494      1797.294       256.16476      296.77258      0.18427584   
   1774000   467.36697      1316.681       1784.048       206.92252      294.67591      0.18056627   
   1775000   475.73497      1289.2827      1765.0177      128.21636      288.54412      0.17457489   
   1776000   469.53508      1295.4599      1764.9949      45.020588      289.92658      0.17273534   
   1777000   497.14073      1350.3319      1847.4726      78.951541      302.20704      0.17554848   
   1778000   481.34242      1350.6608      1832.0032      178.32097      302.28065      0.17971547   
   1779000   502.18141      1346.9867      1849.1681      203.88437      301.45839      0.18040544   
   1780000   498.10448      1388.2611      1886.3656      198.89656      310.69569      0.17960042   
   1781000   493.35262      1366.8304      1860.183       193.09397      305.89945      0.17951774   
   1782000   487.61594      1370.8235      1858.4395      165.0786       306.79312      0.1790748    
   1783000   500.8924       1348.3775      1849.2699      171.31198      301.76964      0.17940632   
   1784000   477.52463      1359.7436      1837.2682      113.15771      304.3134       0.18176804   
   1785000   480.92509      1340.0396      1820.9647      83.948193      299.90361      0.1876698    
   1786000   481.5712       1288.0277      1769.5989      104.80676      288.26323      0.19008405   
   1787000   457.49376      1323.2033      1780.6971      111.51356      296.13562      0.18613744   
   1788000   459.64462      1339.7638      1799.4084      115.23162      299.84188      0.17686633   
   1789000   496.41667      1339.0194      1835.4361      137.71365      299.67529      0.17255677   
   1790000   515.55438      1376.3498      1891.9042      181.5762       308.02992      0.17122957   
   1791000   500.07292      1394.5972      1894.6701      170.79076      312.1137       0.17122738   
   1792000   474.33417      1360.7348      1835.069       228.36747      304.53524      0.17403504   
   1793000   436.27585      1365.3858      1801.6617      211.91087      305.57615      0.17959466   
   1794000   467.39168      1356.8934      1824.2851      159.45839      303.67552      0.183321     
   1795000   462.25808      1391.0354      1853.2935      165.38504      311.31658      0.185232     
   1796000   483.46686      1378.281       1861.7479      140.57188      308.46211      0.18513904   
   1797000   479.6911       1339.9116      1819.6027      151.51079      299.87497      0.18298418   
   1798000   475.55004      1361.9836      1837.5336      141.31003      304.81472      0.17575033   
   1799000   459.62333      1378.8996      1838.5229      143.4688       308.60056      0.16741402   
   1800000   480.22545      1349.833       1830.0584      105.42549      302.09539      0.16676044   
   1801000   497.30901      1356.0983      1853.4073      132.29824      303.49758      0.17086774   
   1802000   479.41433      1344.7462      1824.1605      134.49224      300.95695      0.17455374   
   1803000   486.45325      1346.2567      1832.71        192.19662      301.29502      0.1777667    
   1804000   498.61682      1356.8763      1855.4931      192.03577      303.6717       0.17727406   
   1805000   485.05645      1367.0222      1852.0786      234.24525      305.94237      0.17585831   
   1806000   493.15516      1393.3013      1886.4564      215.31782      311.82368      0.17266539   
   1807000   467.84089      1390.6189      1858.4598      180.85854      311.22336      0.16881897   
   1808000   526.03457      1340.2506      1866.2852      82.794296      299.95084      0.16330342   
   1809000   505.60984      1344.7352      1850.345       49.003388      300.9545       0.15972841   
   1810000   488.87482      1306.5767      1795.4515      99.728228      292.41455      0.16512788   
   1811000   488.19026      1306.5638      1794.754       171.90451      292.41165      0.17249254   
   1812000   485.99407      1321.712       1807.7061      243.74672      295.80186      0.17545282   
   1813000   459.93131      1323.8665      1783.7978      234.33542      296.28403      0.17449408   
   1814000   475.4294       1331.7038      1807.1332      242.80648      298.03805      0.17413385   
   1815000   498.62695      1292.0674      1790.6943      183.88171      289.16733      0.17510577   
   1816000   465.10472      1330.0989      1795.2036      169.222        297.67885      0.17893917   
   1817000   438.20253      1330.1117      1768.3142      67.524828      297.68172      0.18428754   
   1818000   445.13273      1301.4054      1746.5382      63.144749      291.2572       0.1909621    
   1819000   474.08999      1306.411       1780.501       54.918052      292.37746      0.19466164   
   1820000   452.5142       1355.8596      1808.3738      169.3341       303.44416      0.19377143   
   1821000   468.56074      1317.3505      1785.9112      299.47604      294.82574      0.1900916    
   1822000   466.46313      1357.5863      1824.0494      314.54936      303.83059      0.18596034   
   1823000   465.876        1388.7789      1854.6549      233.25056      310.81157      0.17947647   
   1824000   497.07971      1344.5423      1841.622       112.58188      300.91132      0.17442386   
   1825000   475.61878      1340.0436      1815.6624      64.823336      299.90451      0.17239444   
   1826000   483.14449      1352.8189      1835.9634      75.427468      302.76365      0.17172937   
   1827000   461.38982      1360.4322      1821.822       173.59735      304.46751      0.17172426   
   1828000   510.69126      1374.6575      1885.3488      191.84748      307.65117      0.17266858   
   1829000   483.55063      1356.8097      1840.3603      165.66939      303.6568       0.17758029   
   1830000   473.52484      1350.3349      1823.8598      105.52502      302.20773      0.18488415   
   1831000   460.65733      1366.8287      1827.486       53.7256        305.89907      0.18910948   
   1832000   464.60897      1344.7233      1809.3323      72.519312      300.95184      0.1900134    
   1833000   468.86438      1345.6749      1814.5393      60.67464       301.16481      0.18703746   
   1834000   490.89169      1350.4794      1841.3711      108.86241      302.24006      0.18060578   
   1835000   492.50949      1316.3721      1808.8816      131.53368      294.60677      0.17539693   
   1836000   502.27735      1312.0321      1814.3095      191.67346      293.63548      0.17550126   
   1837000   488.25338      1332.5508      1820.8042      114.40119      298.22761      0.17645839   
   1838000   475.18901      1328.1507      1803.3397      80.781614      297.24286      0.1796543    
   1839000   472.37718      1310.6737      1783.0509      57.851807      293.33146      0.1837156    
   1840000   453.53147      1304.7653      1758.2968      11.774488      292.00916      0.18353186   
   1841000   487.70719      1297.1269      1784.8341     -37.474484      290.29967      0.17831032   
   1842000   488.75547      1321.7427      1810.4982      60.248949      295.80874      0.17564844   
   1843000   442.34008      1356.0199      1798.36        165.70214      303.48004      0.17479859   
   1844000   470.65029      1322.2648      1792.9151      208.62043      295.92557      0.17357809   
   1845000   501.03668      1342.1459      1843.1826      176.05907      300.375        0.17024214   
   1846000   465.88653      1390.1048      1855.9913      135.95687      311.10831      0.1660292    
   1847000   513.57615      1346.5905      1860.1666      74.513029      301.36971      0.16289086   
   1848000   509.40302      1346.5628      1855.9658      43.915976      301.36352      0.1608645    
   1849000   491.05394      1365.722       1856.776       98.249553      305.65139      0.16544138   
   1850000   473.66532      1366.3442      1840.0096      204.02101      305.79065      0.17247895   
   1851000   492.40038      1346.964       1839.3644      214.87947      301.45332      0.17579717   
   1852000   511.17611      1326.6558      1837.832       233.38243      296.9083       0.1755766    
   1853000   482.83031      1339.6035      1822.4338      167.39659      299.806        0.17005155   
   1854000   471.18007      1356.5165      1827.6966      175.62138      303.59119      0.1655921    
   1855000   512.13636      1370.4007      1882.5371      140.67801      306.69849      0.16377838   
   1856000   487.64505      1357.2749      1844.92        140.29663      303.76092      0.16451572   
   1857000   490.97616      1344.5662      1835.5424      137.74498      300.91668      0.16815001   
   1858000   487.18185      1299.3367      1786.5186      114.7159       290.79422      0.17254903   
   1859000   464.6678       1314.2344      1778.9022      144.07172      294.12836      0.17778835   
   1860000   452.85338      1325.3817      1778.235       167.97831      296.62314      0.18123248   
   1861000   473.99973      1331.8121      1805.8119      144.57304      298.06229      0.18216056   
   1862000   493.19543      1299.4526      1792.648       139.01459      290.82015      0.18102634   
   1863000   454.55999      1325.7617      1780.3217      166.04949      296.70819      0.17609962   
   1864000   441.11429      1295.2909      1736.4052      138.03689      289.88876      0.17180866   
   1865000   468.46003      1313.3893      1781.8493      165.57355      293.93922      0.17149424   
   1866000   471.18281      1328.7504      1799.9332      129.2272       297.37707      0.1726925    
   1867000   459.08986      1328.6052      1787.695       113.68351      297.34456      0.17466009   
   1868000   490.04144      1339.0529      1829.0943      119.04452      299.68278      0.17206617   
   1869000   488.21493      1346.2367      1834.4516      99.748544      301.29053      0.1661145    
   1870000   511.89816      1329.1524      1841.0506      175.98317      297.46704      0.16498575   
   1871000   502.11165      1316.5365      1818.6481      218.25131      294.64356      0.16680437   
   1872000   506.58898      1332.1472      1838.7362      196.55501      298.13728      0.17109701   
   1873000   445.59109      1352.3362      1797.9273      149.8986       302.65562      0.17522033   
   1874000   480.64194      1310.5532      1791.1952      6.3185935      293.3045       0.17584883   
   1875000   469.5808       1323.4509      1793.0317      33.135823      296.19103      0.17684191   
   1876000   482.96579      1322.6849      1805.6507      55.239765      296.01959      0.17686631   
   1877000   503.61353      1327.3185      1830.932       153.40223      297.05661      0.17491573   
   1878000   494.46562      1333.9287      1828.3943      206.45975      298.53597      0.16830926   
   1879000   509.851        1364.6447      1874.4958      225.22517      305.4103       0.16572313   
   1880000   510.06765      1352.8523      1862.92        290.77009      302.77112      0.16636      
   1881000   464.34795      1353.0927      1817.4406      262.06202      302.82492      0.16884183   
   1882000   502.01979      1370.7809      1872.8007      218.30865      306.78358      0.17377874   
   1883000   496.74285      1398.4434      1895.1863      112.82264      312.97451      0.17486224   
   1884000   493.78768      1356.9183      1850.706       1.8500992      303.6811       0.17401857   
   1885000   475.31795      1369.4196      1844.7376     -17.057705      306.47892      0.17239556   
   1886000   465.45345      1382.3814      1847.8349      43.44921       309.3798       0.17125686   
   1887000   505.0962       1351.9042      1857.0004      111.33979      302.55894      0.1724221    
   1888000   480.93471      1288.8749      1769.8097      163.88458      288.45286      0.17892163   
   1889000   458.48621      1313.0986      1771.5848      262.01378      293.87416      0.18487798   
   1890000   457.49277      1316.7908      1774.2836      168.51207      294.70049      0.18725373   
   1891000   483.75038      1290.5843      1774.3347      115.26085      288.83541      0.1850706    
   1892000   471.12288      1342.4053      1813.5282      99.854535      300.43307      0.1790097    
   1893000   478.15874      1339.0161      1817.1748      87.847012      299.67455      0.17428987   
   1894000   481.75616      1312.8168      1794.573       60.656602      293.8111       0.17244411   
   1895000   454.523        1331.9627      1786.4857      123.71178      298.09598      0.1747611    
   1896000   454.99417      1347.8854      1802.8796      130.01168      301.65952      0.17599327   
   1897000   450.45586      1319.0112      1769.467       160.98438      295.19741      0.17795001   
   1898000   477.26209      1292.0335      1769.2956      130.72842      289.15974      0.17913641   
   1899000   456.79111      1289.5072      1746.2983      122.37001      288.59435      0.17973366   
   1900000   478.7955       1295.867       1774.6625      99.123105      290.01769      0.17965984   
   1901000   471.37997      1331.0437      1802.4236      83.499679      297.8903       0.17846322   
   1902000   497.55992      1329.2224      1826.7824      71.584363      297.48271      0.1735683    
   1903000   491.72434      1310.1727      1801.8971      102.6974       293.21935      0.17224413   
   1904000   477.71179      1326.4465      1804.1583      139.08962      296.86145      0.17454155   
   1905000   476.01201      1335.7677      1811.7797      237.92861      298.94756      0.18043051   
   1906000   474.10697      1337.2987      1811.4057      295.90626      299.2902       0.18447994   
   1907000   493.14823      1369.7369      1862.8851      245.49682      306.54993      0.18422763   
   1908000   453.91922      1347.3193      1801.2385      139.04517      301.53282      0.17875735   
   1909000   480.02909      1342.7966      1822.8257      55.59938       300.52064      0.17414799   
   1910000   481.10453      1322.0592      1803.1638      54.394799      295.87957      0.17388587   
   1911000   488.97432      1335.0398      1824.0141      71.722817      298.78465      0.17557328   
   1912000   478.30878      1350.1521      1828.4609      203.2303       302.16681      0.17846918   
   1913000   456.04319      1284.4473      1740.4904      331.61385      287.46193      0.18540348   
   1914000   451.80996      1331.1146      1782.9246      409.28516      297.90618      0.19121381   
   1915000   436.37336      1347.7938      1784.1671      367.69267      301.63901      0.18882323   
   1916000   486.23031      1331.5755      1817.8058      246.56825      298.00933      0.18133798   
   1917000   445.38655      1338.6387      1784.0252      150.59039      299.59008      0.17672824   
   1918000   468.41157      1351.7891      1820.2007      84.601596      302.53318      0.1751781    
   1919000   485.80202      1341.7152      1827.5172      20.509077      300.27861      0.17262303   
   1920000   475.1639       1332.8956      1808.0595      78.360296      298.30477      0.17100646   
   1921000   450.44005      1355.9611      1806.4012      166.30917      303.46688      0.16954177   
   1922000   483.90085      1335.12        1819.0208      206.45712      298.80259      0.16904068   
   1923000   481.6261       1315.7909      1797.417       232.19498      294.4767       0.16986338   
   1924000   466.61448      1352.5138      1819.1283      303.83076      302.69537      0.17627971   
   1925000   482.54045      1351.1778      1833.7183      264.92487      302.39637      0.1809175    
   1926000   485.30919      1353.8726      1839.1818      211.89348      302.99947      0.18144404   
   1927000   479.81439      1340.8357      1820.6501      144.65204      300.08179      0.17932992   
   1928000   472.06417      1357.4834      1829.5476      90.599946      303.80758      0.17576992   
   1929000   489.09649      1371.8518      1860.9482      37.957165      307.02324      0.17076582   
   1930000   529.34219      1403.8821      1933.2243      76.245353      314.19171      0.16846715   
   1931000   494.66465      1386.5156      1881.1803      70.962714      310.30504      0.16814285   
   1932000   480.06571      1375.0398      1855.1055      151.34727      307.73674      0.17547257   
   1933000   499.1519       1324.5873      1823.7392      225.60028      296.44535      0.18443395   
   1934000   467.03553      1346.9129      1813.9484      258.24303      301.44186      0.1865415    
   1935000   464.52734      1366.3958      1830.9231      236.88405      305.80218      0.1823518    
   1936000   473.80697      1345.4456      1819.2525      148.83056      301.11348      0.17650645   
   1937000   496.07818      1356.3         1852.3781      111.32414      303.54272      0.17118689   
   1938000   473.78372      1350.3716      1824.1553      85.383812      302.21594      0.16695219   
   1939000   526.23663      1318.4083      1844.6449      150.09696      295.06249      0.16793315   
   1940000   497.24609      1310.4607      1807.7067      179.74726      293.28379      0.1690876    
   1941000   488.34218      1305.2608      1793.6029      165.00575      292.12004      0.17162451   
   1942000   469.38349      1313.2224      1782.6059      192.96559      293.90187      0.17485664   
   1943000   441.14952      1304.5386      1745.6882      203.04697      291.95843      0.17761039   
   1944000   485.41734      1298.179       1783.5963      170.96218      290.53512      0.17869289   
   1945000   474.02423      1327.7324      1801.7566      178.63945      297.14924      0.183222     
   1946000   444.92724      1373.5748      1818.502       206.47237      307.40886      0.18628387   
   1947000   478.17701      1378.2265      1856.4035      170.02198      308.44992      0.18365555   
   1948000   476.09109      1358.0424      1834.1335      125.74083      303.93269      0.17481525   
   1949000   503.33361      1375.6245      1878.9581      54.09137       307.8676       0.1694443    
   1950000   478.55023      1348.0213      1826.5715      7.4059591      301.68993      0.17034066   
   1951000   486.26166      1362.7307      1848.9924      73.504444      304.98194      0.17349868   
   1952000   479.59907      1385.4156      1865.0147      175.3452       310.05886      0.17860264   
   1953000   462.5899       1365.2363      1827.8262      273.52721      305.54268      0.18194621   
   1954000   480.3727       1313.0668      1793.4395      251.05355      293.86704      0.18084357   
   1955000   466.18244      1336.8247      1803.0072      221.29423      299.18412      0.18016637   
   1956000   453.3534       1332.7031      1786.0565      190.07063      298.26168      0.18055916   
   1957000   477.88522      1332.1393      1810.0245      79.937364      298.13551      0.17886039   
   1958000   474.40222      1295.6545      1770.0568      18.915269      289.97015      0.17296509   
   1959000   468.37782      1270.6834      1739.0612      50.672769      284.38155      0.16896095   
   1960000   458.87862      1338.4713      1797.3499      117.86331      299.55261      0.17067955   
   1961000   467.6291       1340.3421      1807.9712      176.14299      299.97132      0.17531159   
   1962000   464.61288      1315.1774      1779.7903      219.71315      294.33941      0.17925327   
   1963000   471.35905      1339.7274      1811.0865      196.59651      299.83375      0.1809683    
   1964000   468.28412      1316.3564      1784.6405      174.55302      294.60327      0.17932234   
   1965000   459.83809      1348.0022      1807.8403      118.93626      301.68565      0.17197271   
   1966000   472.03064      1337.2517      1809.2823      82.42497       299.27967      0.16647416   
   1967000   502.56809      1309.093       1811.6611      36.716218      292.9777       0.16453466   
   1968000   488.32771      1311.4975      1799.8252      75.220478      293.51583      0.16816068   
   1969000   461.19198      1336.7983      1797.9903      120.50799      299.17821      0.1751951    
   1970000   478.57114      1365.2603      1843.8315      239.6595       305.54806      0.18282898   
   1971000   447.22814      1381.4105      1828.6387      263.88804      309.16251      0.18503984   
   1972000   486.00961      1335.3554      1821.365       200.19441      298.85527      0.18420426   
   1973000   495.7452       1366.9194      1862.6646      129.59633      305.91937      0.17992241   
   1974000   507.43539      1355.9024      1863.3378      150.51167      303.45375      0.1747006    
   1975000   497.00696      1349.9415      1846.9485      180.62787      302.11969      0.17100359   
   1976000   485.25701      1326.9608      1812.2179      197.48023      296.97656      0.16994069   
   1977000   484.46773      1323.392       1807.8598      188.98734      296.17785      0.17284119   
   1978000   448.3754       1318.2374      1766.6128      116.84136      295.02423      0.17572039   
   1979000   456.96725      1309.6324      1766.5997      17.451888      293.09842      0.176948     
   1980000   453.68338      1327.838       1781.5213     -36.585625      297.17286      0.17602276   
   1981000   469.23785      1350.934       1820.1719      24.28585       302.3418       0.17576142   
   1982000   487.48925      1309.0867      1796.576       117.54173      292.9763       0.17338568   
   1983000   470.16701      1332.8588      1803.0258      209.95784      298.29654      0.17493532   
   1984000   449.82973      1277.344       1727.1737      290.11459      285.8722       0.18096629   
   1985000   450.37255      1322.9407      1773.3132      248.7763       296.07684      0.18731164   
   1986000   449.83105      1344.709       1794.54        186.13025      300.94863      0.18726192   
   1987000   454.69959      1326.1644      1780.864       88.271425      296.79831      0.1812657    
   1988000   457.60793      1282.2093      1739.8172      66.075753      286.96107      0.17867545   
   1989000   490.19148      1267.5286      1757.7201      99.984934      283.6755       0.17723069   
   1990000   469.48481      1329.0679      1798.5527      193.92825      297.44812      0.17438151   
   1991000   499.37597      1330.9563      1830.3323      230.24908      297.87075      0.16916365   
   1992000   495.67099      1329.0392      1824.7102      206.75079      297.4417       0.1641898    
   1993000   491.0627       1301.6938      1792.7565      158.4936       291.32175      0.16284937   
   1994000   504.01541      1323.5429      1827.5584      129.51805      296.21163      0.16599663   
   1995000   472.53849      1337.6893      1810.2278      124.76974      299.37761      0.17137931   
   1996000   460.669        1369.8963      1830.5653      95.465773      306.5856       0.17661441   
   1997000   498.33142      1323.9553      1822.2868      52.88523       296.30392      0.17803391   
   1998000   494.44365      1327.4596      1821.9033      54.10944       297.08818      0.17774255   
   1999000   463.17252      1363.411       1826.5836      102.37065      305.13419      0.17751884   
   2000000   473.7748       1397.3331      1871.1079      164.63103      312.72602      0.17612437   
Loop time of 10075.8 on 8 procs for 2000000 steps with 1500 atoms

Performance: 8.575 ns/day, 2.799 hours/ns, 198.496 timesteps/s, 297.745 katom-step/s
99.3% CPU use with 8 MPI tasks x 1 OpenMP threads

MPI task timing breakdown:
Section |  min time  |  avg time  |  max time  |%varavg| %total
---------------------------------------------------------------
Pair    | 384.55     | 399.06     | 411.75     |  46.6 |  3.96
Bond    | 22.79      | 23.766     | 24.417     |  12.6 |  0.24
Kspace  | 4704.5     | 4717.2     | 4735.1     |  14.4 | 46.82
Neigh   | 6.9359     | 6.9635     | 6.9906     |   0.7 |  0.07
Comm    | 215.63     | 217.87     | 220.51     |   9.9 |  2.16
Output  | 0.50297    | 0.62719    | 1.4943     |  41.4 |  0.01
Modify  | 4415.2     | 4512.3     | 4597.4     |  82.9 | 44.78
Other   |            | 198        |            |       |  1.97

Nlocal:          187.5 ave         216 max         156 min
Histogram: 2 0 0 0 0 2 2 0 1 1
Nghost:        1728.75 ave        1769 max        1704 min
Histogram: 2 1 2 0 1 0 0 0 0 2
Neighs:        15237.4 ave       18288 max       11723 min
Histogram: 2 0 0 1 0 1 1 1 1 1

Total # of neighbors = 121899
Ave neighs/atom = 81.266
Ave special neighs/atom = 2
Neighbor list builds = 12464
Dangerous builds = 0
System init for write_data ...
PPPM initialization ...
  using 12-bit tables for long-range coulomb (src/kspace.cpp:342)
  G vector (1/distance) = 0.26961832
  grid = 48 48 48
  stencil order = 5
  estimated absolute RMS force accuracy = 0.00037847762
  estimated relative force accuracy = 1.1397741e-06
  using single precision FFTW3
  3d grid and FFT values/proc = 29791 13824
Generated 1 of 1 mixed pair_coeff terms from arithmetic mixing rule
Last active /omp style is kspace_style pppm/omp
