LAMMPS (19 Nov 2024)
OMP_NUM_THREADS environment is not set. Defaulting to 1 thread. (src/comm.cpp:99)
  using 1 OpenMP thread(s) per MPI task
using multi-threaded neighbor list subroutines
Reading data file ...
  orthogonal box = (0 0 0) to (51.724067 51.724067 51.724067)
  2 by 2 by 2 MPI processor grid
  reading atoms ...
  1500 atoms
  scanning bonds ...
  1 = max bonds/atom
  scanning angles ...
  1 = max angles/atom
  orthogonal box = (0 0 0) to (51.724067 51.724067 51.724067)
  2 by 2 by 2 MPI processor grid
  reading bonds ...
  1000 bonds
  reading angles ...
  500 angles
Finding 1-2 1-3 1-4 neighbors ...
  special bond factors lj:    0        0        0       
  special bond factors coul:  0        0        0       
     2 = max # of 1-2 neighbors
     1 = max # of 1-3 neighbors
     1 = max # of 1-4 neighbors
     2 = max # of special neighbors
  special bonds CPU = 0.000 seconds
  read_data CPU = 0.071 seconds
Setting atom values ...
  1000 settings made for charge
Setting atom values ...
  500 settings made for charge
1000 atoms in group oxy
500 atoms in group carb
PPPM initialization ...
  using 12-bit tables for long-range coulomb (src/kspace.cpp:342)
  G vector (1/distance) = 0.26873989
  grid = 48 48 48
  stencil order = 5
  estimated absolute RMS force accuracy = 0.00039673335
  estimated relative force accuracy = 1.1947507e-06
  using single precision FFTW3
  3d grid and FFT values/proc = 29791 13824
Generated 1 of 1 mixed pair_coeff terms from arithmetic mixing rule
Last active /omp style is kspace_style pppm/omp
Neighbor list info ...
  update: every = 1 steps, delay = 0 steps, check = yes
  max neighbors/atom: 2000, page size: 100000
  master list distance cutoff = 15
  ghost atom cutoff = 15
  binsize = 7.5, bins = 7 7 7
  1 neighbor lists, perpetual/occasional/extra = 1 0 0
  (1) pair lj/cut/coul/long/omp, perpetual
      attributes: half, newton on, omp
      pair build: half/bin/newton/omp
      stencil: half/bin/3d
      bin: standard
Setting up cg style minimization ...
  Unit style    : real
  Current step  : 0
Per MPI rank memory allocation (min/avg/max) = 9.589 | 9.598 | 9.606 Mbytes
   Step          Temp          E_pair         E_mol          TotEng         Press     
         0   0              28.434711      1.5236362e-05  28.434727      388.82384    
      9001   0             -543.99967      0.32216215    -543.6775      -14.66071     
Loop time of 50.4204 on 8 procs for 9001 steps with 1500 atoms

99.3% CPU use with 8 MPI tasks x 1 OpenMP threads

Minimization stats:
  Stopping criterion = energy tolerance
  Energy initial, next-to-last, final = 
      28.4347266566101  -543.677392908831  -543.677503133579
  Force two-norm initial, final = 108.91174 0.53436756
  Force max component initial, final = 14.210619 0.10736041
  Final line search alpha, max atom move = 0.5812229 0.06240033
  Iterations, force evaluations = 9001 17999

MPI task timing breakdown:
Section |  min time  |  avg time  |  max time  |%varavg| %total
---------------------------------------------------------------
Pair    | 4.3131     | 7.8368     | 10.72      |  85.8 | 15.54
Bond    | 0.1446     | 0.16917    | 0.21352    |   6.1 |  0.34
Kspace  | 37.064     | 39.992     | 43.555     |  38.4 | 79.32
Neigh   | 0.042606   | 0.042821   | 0.043043   |   0.1 |  0.08
Comm    | 1.815      | 1.8531     | 1.8847     |   1.6 |  3.68
Output  | 0          | 0          | 0          |   0.0 |  0.00
Modify  | 0.047597   | 0.049982   | 0.053803   |   0.8 |  0.10
Other   |            | 0.4763     |            |       |  0.94

Nlocal:          187.5 ave         269 max         117 min
Histogram: 2 0 2 0 0 1 1 0 0 2
Nghost:           1910 ave        1978 max        1790 min
Histogram: 1 0 1 0 0 0 1 3 1 1
Neighs:        21072.8 ave       35939 max        6855 min
Histogram: 1 1 1 0 1 1 0 2 0 1

Total # of neighbors = 168582
Ave neighs/atom = 112.388
Ave special neighs/atom = 2
Neighbor list builds = 38
Dangerous builds = 0
PPPM initialization ...
  using 12-bit tables for long-range coulomb (src/kspace.cpp:342)
  G vector (1/distance) = 0.26873989
  grid = 48 48 48
  stencil order = 5
  estimated absolute RMS force accuracy = 0.00039673335
  estimated relative force accuracy = 1.1947507e-06
  using single precision FFTW3
  3d grid and FFT values/proc = 29791 13824
Generated 1 of 1 mixed pair_coeff terms from arithmetic mixing rule
Last active /omp style is kspace_style pppm/omp
Setting up Verlet run ...
  Unit style    : real
  Current step  : 9001
  Time step     : 0.1
Per MPI rank memory allocation (min/avg/max) = 8.482 | 8.483 | 8.485 Mbytes
   Step         PotEng         KinEng         TotEng         Press           Temp        v_Density   
      9001  -543.6775       1340.4703      796.79278      428.14381      300            0.16747647   
     10000   240.3033       1158.7045      1399.0078      239.68614      259.32045      0.1391591    
     11000   66.245689      1429.1587      1495.4043      228.55517      319.84864      0.1223108    
     12000   220.14969      1301.6397      1521.7894      125.02829      291.30963      0.11790381   
     13000   192.75658      1327.3062      1520.0628      143.33569      297.05385      0.12178706   
     14000   160.34232      1386.2938      1546.6361      170.6965       310.25539      0.12637672   
     15000   249.02621      1284.7025      1533.7287      121.774        287.51906      0.13337352   
     16000   162.18314      1387.2973      1549.4805      190.10892      310.47999      0.13698393   
     17000   259.07614      1278.0393      1537.1154      124.37218      286.02781      0.14437608   
     18000   192.69692      1374.7964      1567.4933      188.64689      307.68225      0.1485545    
     19000   249.06626      1318.6784      1567.7447      153.84986      295.12293      0.151578     
     20000   219.38911      1355.9606      1575.3497      178.29801      303.46676      0.16075749   
     21000   244.86069      1300.6199      1545.4806      140.68178      291.0814       0.16178167   
     22000   262.75728      1341.0787      1603.836       143.19693      300.13617      0.15669029   
     23000   276.41214      1341.8144      1618.2266      199.27777      300.30083      0.15731693   
     24000   264.38355      1317.1779      1581.5615      128.99189      294.78712      0.1603905    
     25000   237.36785      1312.1515      1549.5194      115.31545      293.66221      0.16842163   
     26000   252.94539      1337.2437      1590.1891      221.01439      299.27788      0.17061049   
     27000   265.27813      1293.3658      1558.6439      194.90392      289.45791      0.16475458   
     28000   283.25745      1305.0061      1588.2636      74.162196      292.06305      0.16958606   
     29000   271.1311       1364.7218      1635.8529      106.38348      305.42753      0.16495419   
     30000   300.55691      1376.1552      1676.7122      227.1867       307.98637      0.1538018    
     31000   286.16797      1369.7871      1655.9551      204.21786      306.56116      0.15864002   
     32000   317.3467       1352.9016      1670.2483      94.158713      302.78216      0.16169323   
     33000   312.07287      1349.7292      1661.802       117.09983      302.07216      0.15216004   
     34000   324.75565      1352.6973      1677.4529      248.50464      302.73643      0.15813719   
     35000   310.36543      1347.9426      1658.308       192.21671      301.67232      0.15857652   
     36000   335.24943      1316.2246      1651.4741      40.415302      294.57378      0.15044633   
     37000   340.77416      1317.1571      1657.9313      143.22151      294.78247      0.14814448   
     38000   311.03364      1345.2004      1656.234       219.32698      301.05861      0.15216689   
     39000   309.62731      1333.0553      1642.6826      133.72593      298.34052      0.15854008   
     40000   313.90654      1334.6059      1648.5124      104.57126      298.68753      0.15706824   
     41000   322.17477      1347.5964      1669.7712      174.59211      301.59484      0.14932243   
     42000   346.57746      1387.9793      1734.5568      198.03912      310.63262      0.14841304   
     43000   348.25015      1359.8171      1708.0673      97.758097      304.32987      0.14871213   
     44000   322.26801      1355.6777      1677.9457      121.28505      303.40345      0.15630373   
     45000   316.53898      1354.8157      1671.3547      207.76322      303.21053      0.16178472   
     46000   315.60972      1323.4072      1639.0169      169.48342      296.18125      0.16022742   
     47000   313.38829      1316.5271      1629.9154      123.91883      294.64146      0.15069439   
     48000   320.94397      1312.2049      1633.1488      158.93127      293.67414      0.14832564   
     49000   304.60894      1286.7304      1591.3393      166.25575      287.97291      0.15786348   
     50000   309.15996      1323.8439      1633.0038      198.04251      296.27898      0.16486139   
     51000   301.3266       1312.5349      1613.8615      151.81628      293.748        0.15854508   
     52000   317.20882      1325.157       1642.3658      147.36576      296.57286      0.15596296   
     53000   321.18934      1304.0493      1625.2386      135.07191      291.84891      0.15387693   
     54000   322.32977      1331.612       1653.9418      183.75421      298.01751      0.15035795   
     55000   331.92747      1292.1223      1624.0498      160.09674      289.17963      0.15197273   
     56000   325.22354      1321.5388      1646.7623      123.24524      295.7631       0.14908393   
     57000   339.48468      1324.4263      1663.911       139.51424      296.40933      0.14519843   
     58000   313.46554      1282.5709      1596.0364      182.76055      287.04199      0.1563999    
     59000   322.22986      1341.8302      1664.06        169.11739      300.30435      0.15717507   
     59001   322.36845      1342.0995      1664.468       168.35716      300.36462      0.15716722   
Loop time of 254.177 on 8 procs for 50000 steps with 1500 atoms

Performance: 1.700 ns/day, 14.121 hours/ns, 196.713 timesteps/s, 295.070 katom-step/s
99.4% CPU use with 8 MPI tasks x 1 OpenMP threads

MPI task timing breakdown:
Section |  min time  |  avg time  |  max time  |%varavg| %total
---------------------------------------------------------------
Pair    | 7.2507     | 10.541     | 13.851     |  68.3 |  4.15
Bond    | 0.50102    | 0.56116    | 0.67689    |   7.9 |  0.22
Kspace  | 116.21     | 119.59     | 122.87     |  20.7 | 47.05
Neigh   | 0.05414    | 0.054302   | 0.054481   |   0.0 |  0.02
Comm    | 5.1403     | 5.2453     | 5.3365     |   2.7 |  2.06
Output  | 0.0025953  | 0.0028689  | 0.0046882  |   1.3 |  0.00
Modify  | 109.02     | 113.03     | 116.5      |  24.9 | 44.47
Other   |            | 5.148      |            |       |  2.03

Nlocal:          187.5 ave         225 max         140 min
Histogram: 1 0 1 0 1 1 2 0 1 1
Nghost:        1634.25 ave        1732 max        1555 min
Histogram: 1 1 1 1 1 1 0 1 0 1
Neighs:        13836.2 ave       18024 max        8305 min
Histogram: 1 0 0 1 1 1 1 1 1 1

Total # of neighbors = 110690
Ave neighs/atom = 73.793333
Ave special neighs/atom = 2
Neighbor list builds = 93
Dangerous builds = 0
PPPM initialization ...
  using 12-bit tables for long-range coulomb (src/kspace.cpp:342)
  G vector (1/distance) = 0.26759533
  grid = 48 48 48
  stencil order = 5
  estimated absolute RMS force accuracy = 0.00042144835
  estimated relative force accuracy = 1.2691792e-06
  using single precision FFTW3
  3d grid and FFT values/proc = 29791 13824
Generated 1 of 1 mixed pair_coeff terms from arithmetic mixing rule
Last active /omp style is kspace_style pppm/omp
Setting up Verlet run ...
  Unit style    : real
  Current step  : 59001
  Time step     : 0.25
Per MPI rank memory allocation (min/avg/max) = 8.483 | 8.484 | 8.486 Mbytes
   Step         PotEng         KinEng         TotEng         Press           Temp        v_Density   
     59001   322.36893      1342.0995      1664.4684      168.3574       300.36462      0.15716722   
     60000   337.4728       1310.3254      1647.7982      123.7994       293.25351      0.15632818   
     61000   326.29391      1339.14        1665.4339      128.59842      299.70228      0.15823818   
     62000   329.96232      1327.2137      1657.176       158.00853      297.03315      0.15528941   
     63000   373.04407      1331.253       1704.297       191.97742      297.93715      0.14540986   
     64000   367.90033      1336.9109      1704.8113      202.61763      299.20341      0.14573165   
     65000   365.82705      1340.5267      1706.3538      167.01407      300.01263      0.14514886   
     66000   384.68842      1334.1198      1718.8083      116.61224      298.57876      0.1446339    
     67000   374.8752       1302.6999      1677.5751      89.861597      291.54691      0.14510608   
     68000   371.67817      1315.005       1686.6832      87.240043      294.30082      0.14441928   
     69000   383.17299      1360.3062      1743.4792      121.11476      304.43932      0.14188952   
     70000   345.21251      1321.1889      1666.4014      190.94269      295.68478      0.15426227   
     71000   365.5872       1366.97        1732.5572      224.45004      305.93069      0.15857542   
     72000   368.31834      1361.4252      1729.7436      230.6471       304.68976      0.15258568   
     73000   368.23999      1371.0749      1739.3149      144.61269      306.84938      0.14747095   
     74000   347.85351      1282.2022      1630.0558      75.662871      286.9595       0.14447875   
     75000   361.30964      1343.7537      1705.0634      67.25679       300.73484      0.14951843   
     76000   374.65449      1382.2293      1756.8838      114.20393      309.34575      0.13712298   
     77000   342.74195      1379.3493      1722.0913      255.08923      308.70121      0.15423899   
     78000   363.87326      1350.3798      1714.253       228.59652      302.21776      0.1519908    
     79000   368.69721      1347.5593      1716.2565      185.84287      301.58653      0.1446529    
     80000   359.14758      1324.9857      1684.1333      144.23528      296.53452      0.15080569   
     81000   359.46434      1326.7407      1686.205       87.611655      296.92729      0.15148824   
     82000   352.21705      1323.7874      1676.0044      129.18252      296.26633      0.15572892   
     83000   344.5679       1334.5832      1679.1511      146.90196      298.68247      0.15323648   
     84000   346.35045      1304.0413      1650.3917      170.13908      291.84712      0.15485612   
     85000   342.60107      1271.1927      1613.7938      156.78316      284.49554      0.15232612   
     86000   353.20508      1330.2371      1683.4422      153.08684      297.70979      0.14855434   
     87000   390.48809      1375.4665      1765.9546      122.42426      307.83222      0.14151833   
     88000   381.90404      1336.9886      1718.8926      128.32096      299.22079      0.14608776   
     89000   384.48059      1341.891       1726.3716      97.991999      300.31796      0.14264437   
     90000   362.96126      1363.1505      1726.1118      179.00046      305.07589      0.15449801   
     91000   354.27217      1335.4533      1689.7255      228.11131      298.8772       0.15264072   
     92000   346.55257      1321.9692      1668.5217      206.88923      295.85941      0.14112977   
     93000   362.00777      1324.7329      1686.7407      153.22499      296.47795      0.15306148   
     94000   362.20756      1311.9098      1674.1173      130.9104       293.6081       0.14195775   
     95000   345.90524      1372.2109      1718.1162      147.64938      307.10363      0.14950114   
     96000   356.77584      1347.8826      1704.6584      146.00046      301.65889      0.14486323   
     97000   334.66568      1344.1015      1678.7672      190.84308      300.81267      0.15406648   
     98000   336.66102      1332.3014      1668.9624      203.70082      298.17178      0.15337244   
     99000   358.38236      1320.5483      1678.9306      170.81593      295.54141      0.14807133   
    100000   371.38019      1362.3026      1733.6828      124.80592      304.88612      0.15281391   
    101000   354.4737       1300.7319      1655.2056      91.971846      291.10647      0.15719256   
    102000   359.83026      1358.8474      1718.6776      147.40013      304.11283      0.14270343   
    103000   359.38461      1390.2161      1749.6007      266.16323      311.13322      0.15106228   
    104000   378.79432      1342.5161      1721.3104      244.24438      300.45786      0.14362799   
    105000   362.63017      1326.7764      1689.4066      206.32388      296.93529      0.14641104   
    106000   366.98426      1287.7657      1654.75        91.549405      288.2046       0.14046412   
    107000   342.31222      1327.2424      1669.5546      61.349879      297.03958      0.14925894   
    108000   329.62322      1389.6431      1719.2664      116.07372      311.00499      0.14505374   
    109000   346.11767      1352.6617      1698.7794      243.97315      302.72847      0.14670149   
    109001   345.48076      1353.2415      1698.7222      249.665        302.85822      0.14667938   
Loop time of 250.881 on 8 procs for 50000 steps with 1500 atoms

Performance: 4.305 ns/day, 5.575 hours/ns, 199.297 timesteps/s, 298.946 katom-step/s
99.4% CPU use with 8 MPI tasks x 1 OpenMP threads

MPI task timing breakdown:
Section |  min time  |  avg time  |  max time  |%varavg| %total
---------------------------------------------------------------
Pair    | 7.7558     | 8.9263     | 10.142     |  24.5 |  3.56
Bond    | 0.5551     | 0.56607    | 0.60367    |   2.1 |  0.23
Kspace  | 115.81     | 117.06     | 118.16     |   6.6 | 46.66
Neigh   | 0.10191    | 0.10255    | 0.10308    |   0.1 |  0.04
Comm    | 4.9884     | 5.0818     | 5.1713     |   2.7 |  2.03
Output  | 0.0027065  | 0.002967   | 0.0046112  |   1.1 |  0.00
Modify  | 108.83     | 113.54     | 117.71     |  30.7 | 45.26
Other   |            | 5.602      |            |       |  2.23

Nlocal:          187.5 ave         212 max         168 min
Histogram: 2 0 1 1 0 1 2 0 0 1
Nghost:        1626.88 ave        1672 max        1593 min
Histogram: 1 0 2 2 0 1 1 0 0 1
Neighs:        13026.2 ave       15370 max       11187 min
Histogram: 1 1 1 2 0 0 1 1 0 1

Total # of neighbors = 104210
Ave neighs/atom = 69.473333
Ave special neighs/atom = 2
Neighbor list builds = 206
Dangerous builds = 0
PPPM initialization ...
  using 12-bit tables for long-range coulomb (src/kspace.cpp:342)
  G vector (1/distance) = 0.26845753
  grid = 50 50 50
  stencil order = 5
  estimated absolute RMS force accuracy = 0.00037782859
  estimated relative force accuracy = 1.1378196e-06
  using single precision FFTW3
  3d grid and FFT values/proc = 32768 16250
Generated 1 of 1 mixed pair_coeff terms from arithmetic mixing rule
Last active /omp style is kspace_style pppm/omp
Setting up Verlet run ...
  Unit style    : real
  Current step  : 109001
  Time step     : 0.5
Per MPI rank memory allocation (min/avg/max) = 8.667 | 8.689 | 8.711 Mbytes
   Step         PotEng         KinEng         TotEng         Press           Temp        v_Density   
    109001   345.47936      1353.2415      1698.7208      249.66625      302.85822      0.14667938   
    110000   398.79208      1281.1198      1679.9119      255.67302      286.71724      0.17037245   
    111000   425.59394      1393.9564      1819.5504      134.24984      311.97031      0.16251438   
    112000   454.36046      1328.268       1782.6284      114.69926      297.26909      0.16759202   
    113000   465.54673      1350.163       1815.7097      205.67095      302.16924      0.16374714   
    114000   466.45859      1338.988       1805.4466      157.16978      299.66827      0.16429178   
    115000   464.18267      1377.1578      1841.3405      154.2896       308.21074      0.16574054   
    116000   434.05038      1351.3508      1785.4012      183.42984      302.43508      0.17288792   
    117000   461.93628      1326.2779      1788.2142      132.70806      296.82371      0.15918453   
    118000   455.48692      1384.0065      1839.4934      133.97381      309.7435       0.16215343   
    119000   436.39874      1332.0689      1768.4676      154.18401      298.11975      0.16235786   
    120000   451.28536      1382.9477      1834.2331      186.59869      309.50654      0.16172473   
    121000   415.27869      1339.3649      1754.6436      124.24758      299.75261      0.1736206    
    122000   458.357        1337.7139      1796.0709      201.72238      299.38313      0.16777017   
    123000   436.3758       1300.2403      1736.6161      139.53551      290.99646      0.16537596   
    124000   450.60849      1375.8148      1826.4233      123.99644      307.91018      0.17276897   
    125000   429.30839      1314.4006      1743.709       176.24077      294.16556      0.16120315   
    126000   427.00339      1323.1005      1750.1039      220.81944      296.11261      0.16989174   
    127000   416.93134      1348.6095      1765.5408      128.54896      301.82157      0.17411303   
    128000   480.63265      1314.417       1795.0497      135.96514      294.16923      0.16239236   
    129000   432.79265      1332.0077      1764.8004      179.33378      298.10606      0.1743101    
    130000   418.2152       1339.4904      1757.7056      142.73146      299.7807       0.17644223   
    131000   434.02003      1340.9639      1774.9839      155.70719      300.11047      0.16637896   
    132000   460.61138      1399.5339      1860.1452      201.30168      313.21855      0.17833661   
    133000   456.9416       1341.8793      1798.821       39.201217      300.31535      0.16811056   
    134000   473.87854      1393.414       1867.2925      144.6082       311.84891      0.16924594   
    135000   422.90344      1413.9515      1836.8549      297.39551      316.44525      0.17471922   
    136000   451.6392       1337.5787      1789.2179      36.733178      299.35286      0.16784823   
    137000   452.82176      1384.9303      1837.7521      116.36503      309.95025      0.16731918   
    138000   402.05321      1324.5008      1726.554       284.30235      296.426        0.17984798   
    139000   453.98779      1364.6195      1818.6073      112.08584      305.40465      0.17079216   
    140000   432.99358      1321.4453      1754.4389      82.711716      295.74217      0.16887486   
    141000   424.36122      1352.1912      1776.5525      233.0639       302.62317      0.18163355   
    142000   436.29634      1331.7655      1768.0618      91.700138      298.05184      0.16810605   
    143000   465.52902      1343.7673      1809.2963      96.739998      300.73787      0.17048044   
    144000   434.66263      1315.0518      1749.7144      197.49659      294.31128      0.17424626   
    145000   437.60107      1351.8582      1789.4593      169.89407      302.54864      0.17180551   
    146000   448.32558      1287.0277      1735.3533      112.91602      288.03943      0.1671971    
    147000   452.287        1336.9358      1789.2228      98.431296      299.20898      0.17782961   
    148000   419.84389      1399.3808      1819.2247      271.05046      313.1843       0.19100061   
    149000   434.31395      1387.1261      1821.44        148.29785      310.44167      0.17655727   
    150000   429.50219      1339.1426      1768.6448      156.43202      299.70287      0.17810345   
    151000   455.581        1374.8162      1830.3972      166.6474       307.6867       0.1714993    
    152000   434.62351      1321.9261      1756.5496      144.63699      295.84977      0.1621961    
    153000   425.63678      1361.992       1787.6288      135.34819      304.81661      0.17193562   
    154000   422.55736      1364.6928      1787.2502      191.95294      305.42105      0.17168862   
    155000   466.12146      1391.7684      1857.8899      83.221235      311.48063      0.17451619   
    156000   432.96042      1337.9683      1770.9288      174.79394      299.44006      0.16864009   
    157000   457.28838      1328.9252      1786.2136      182.46669      297.41619      0.16989413   
    158000   450.83704      1307.4832      1758.3203      105.21405      292.61743      0.16571211   
    159000   410.03274      1376.7982      1786.831       240.96509      308.13027      0.17987545   
    159001   431.5325       1366.2099      1797.7424      236.10736      305.76058      0.17994461   
Loop time of 301.774 on 8 procs for 50000 steps with 1500 atoms

Performance: 7.158 ns/day, 3.353 hours/ns, 165.687 timesteps/s, 248.531 katom-step/s
99.4% CPU use with 8 MPI tasks x 1 OpenMP threads

MPI task timing breakdown:
Section |  min time  |  avg time  |  max time  |%varavg| %total
---------------------------------------------------------------
Pair    | 9.6478     | 10.202     | 10.804     |  11.6 |  3.38
Bond    | 0.56135    | 0.57993    | 0.60177    |   1.6 |  0.19
Kspace  | 146.03     | 146.55     | 147.05     |   2.8 | 48.56
Neigh   | 0.23563    | 0.23669    | 0.23774    |   0.1 |  0.08
Comm    | 5.4616     | 5.558      | 5.6731     |   2.7 |  1.84
Output  | 0.0028195  | 0.0030724  | 0.0045038  |   1.0 |  0.00
Modify  | 116.99     | 127.58     | 137.7      |  59.1 | 42.28
Other   |            | 11.06      |            |       |  3.67

Nlocal:          187.5 ave         207 max         160 min
Histogram: 2 0 0 0 1 0 1 1 2 1
Nghost:        1760.12 ave        1795 max        1733 min
Histogram: 1 1 1 1 1 1 1 0 0 1
Neighs:        15399.8 ave       18279 max       12303 min
Histogram: 1 0 1 0 1 2 1 1 0 1

Total # of neighbors = 123198
Ave neighs/atom = 82.132
Ave special neighs/atom = 2
Neighbor list builds = 403
Dangerous builds = 0
PPPM initialization ...
  using 12-bit tables for long-range coulomb (src/kspace.cpp:342)
  G vector (1/distance) = 0.26998511
  grid = 48 48 48
  stencil order = 5
  estimated absolute RMS force accuracy = 0.00037103572
  estimated relative force accuracy = 1.1173631e-06
  using single precision FFTW3
  3d grid and FFT values/proc = 29791 13824
Generated 1 of 1 mixed pair_coeff terms from arithmetic mixing rule
Last active /omp style is kspace_style pppm/omp
Setting up Verlet run ...
  Unit style    : real
  Current step  : 0
  Time step     : 0.5
Per MPI rank memory allocation (min/avg/max) = 8.483 | 8.484 | 8.486 Mbytes
   Step         PotEng         KinEng         TotEng         Press           Temp        v_Density   
         0   431.53228      1366.2099      1797.7422      236.10686      305.76058      0.17994461   
      1000   425.17388      1355.9478      1781.1216      200.88129      303.46389      0.17606299   
      2000   448.63386      1325.716       1774.3498      125.81815      296.69796      0.16973397   
      3000   444.90726      1326.0618      1770.9691      124.46912      296.77536      0.16781615   
      4000   443.87732      1299.3385      1743.2158      93.565603      290.79461      0.16749527   
      5000   441.34672      1319.4503      1760.797       113.68186      295.29568      0.16842066   
      6000   425.22687      1332.8702      1758.0971      133.29405      298.29909      0.17086493   
      7000   440.30968      1313.7288      1754.0385      102.42732      294.0152       0.1730228    
      8000   441.43032      1325.9535      1767.3838      115.80372      296.75111      0.17434485   
      9000   446.0547       1323.0094      1769.0641      107.47473      296.09222      0.17412553   
     10000   420.45192      1328.9535      1749.4054      177.47416      297.42252      0.17368515   
     11000   427.53933      1334.6181      1762.1574      175.04512      298.69026      0.17213457   
     12000   450.53836      1331.0309      1781.5693      184.75938      297.88745      0.1712127    
     13000   468.00369      1341.8693      1809.873       177.25381      300.31311      0.16705635   
     14000   469.64397      1388.0368      1857.6808      170.56072      310.64548      0.16215282   
     15000   489.98025      1354.1705      1844.1508      199.22747      303.06615      0.15993026   
     16000   472.37139      1358.2474      1830.6188      173.40384      303.97856      0.15926251   
     17000   465.93996      1375.2813      1841.2212      147.77985      307.79077      0.16413026   
     18000   436.22105      1344.93        1781.151       151.46565      300.99809      0.17236033   
     19000   442.29733      1341.4469      1783.7442      135.94967      300.21857      0.17564879   
     20000   432.56383      1345.1991      1777.763       87.540946      301.05833      0.17327398   
     21000   440.46354      1354.7648      1795.2283      111.48469      303.19913      0.1681664    
     22000   457.68445      1320.7596      1778.444       171.8649       295.5887       0.16290554   
     23000   461.64172      1350.6058      1812.2475      206.17362      302.26835      0.15947171   
     24000   444.80913      1357.028       1801.8371      232.54635      303.70565      0.15991253   
     25000   458.04027      1342.3143      1800.3546      220.80091      300.4127       0.16308607   
     26000   444.10418      1387.9823      1832.0865      141.81345      310.63329      0.16783122   
     27000   445.71077      1359.8         1805.5107      73.325839      304.32602      0.17068522   
     28000   463.00467      1340.5481      1803.5528      41.851091      300.01742      0.16998855   
     29000   444.84662      1379.2055      1824.0522      75.482782      308.66903      0.16691551   
     30000   462.99025      1337.4684      1800.4586      112.60135      299.32817      0.15937132   
     31000   466.10852      1296.0422      1762.1507      142.37834      290.05691      0.15191914   
     32000   455.91799      1296.0284      1751.9464      187.40536      290.05382      0.15158877   
     33000   465.28394      1315.5988      1780.8828      211.75044      294.43372      0.15398355   
     34000   479.0861       1304.2098      1783.2959      197.62982      291.88484      0.15832675   
     35000   446.97252      1315.6285      1762.6011      194.35125      294.44037      0.16272384   
     36000   445.43831      1344.4499      1789.8882      181.21285      300.89065      0.16557134   
     37000   462.94771      1335.5771      1798.5248      168.72454      298.9049       0.16675185   
     38000   458.48698      1350.184       1808.671       156.54163      302.17395      0.16715485   
     39000   454.88217      1349.4723      1804.3545      239.49287      302.01467      0.16843976   
     40000   482.95085      1330.2812      1813.2321      212.11502      297.71967      0.16513343   
     41000   459.84129      1340.0628      1799.9041      178.95779      299.90881      0.15936083   
     42000   459.85524      1301.429       1761.2842      177.97102      291.26247      0.15682998   
     43000   453.10309      1339.9623      1793.0653      165.43378      299.8863       0.15792161   
     44000   452.94259      1306.9214      1759.864       165.33112      292.4917       0.16227399   
     45000   457.34059      1326.5982      1783.9388      134.07194      296.8954       0.17024414   
     46000   450.55468      1314.1532      1764.7078      69.137752      294.11017      0.17532837   
     47000   424.47535      1301.0301      1725.5055      52.24227       291.17321      0.17458383   
     48000   431.17964      1329.8101      1760.9898      93.035666      297.61424      0.17213576   
     49000   455.46896      1332.7709      1788.2398      139.27824      298.27686      0.16830372   
     50000   462.45076      1330.4521      1792.9029      180.90386      297.75791      0.16462826   
     51000   459.10099      1258.5262      1717.6272      253.44716      281.66075      0.16398772   
     52000   448.5728       1331.469       1780.0418      250.0377       297.98549      0.16614981   
     53000   452.36485      1346.6683      1799.0332      234.75971      301.38713      0.1712861    
     54000   429.42095      1363.3632      1792.7842      230.69493      305.12349      0.17792422   
     55000   443.6019       1335.0763      1778.6782      162.47878      298.79282      0.18328393   
     56000   430.69957      1333.091       1763.7906      91.852413      298.34851      0.18347473   
     57000   429.67537      1336.6529      1766.3283      51.431449      299.14566      0.17832021   
     58000   435.85545      1328.9998      1764.8552      133.1906       297.43287      0.17361738   
     59000   439.52498      1323.9133      1763.4382      197.56757      296.29451      0.17181543   
     60000   442.63357      1323.4796      1766.1132      228.59291      296.19745      0.16993654   
     61000   436.29907      1293.011       1729.3101      253.16696      289.37853      0.16790861   
     62000   420.92746      1281.3853      1702.3128      200.75339      286.77667      0.16498246   
     63000   435.68668      1321.5754      1757.262       168.89599      295.77128      0.16478379   
     64000   439.20486      1340.3722      1779.5771      140.13127      299.97805      0.16664186   
     65000   423.19107      1326.6133      1749.8044      133.10724      296.89878      0.16904243   
     66000   437.27402      1341.2372      1778.5112      124.44511      300.17164      0.16977132   
     67000   422.16171      1346.5948      1768.7565      122.34387      301.37068      0.17000715   
     68000   451.45627      1369.2732      1820.7294      96.677644      306.44615      0.17015824   
     69000   465.37408      1345.8222      1811.1963      116.40013      301.19777      0.16914458   
     70000   440.33191      1375.4418      1815.7738      160.36353      307.82671      0.16612568   
     71000   439.50716      1401.2638      1840.771       194.35135      313.60571      0.16470036   
     72000   437.75684      1352.7458      1790.5026      139.22463      302.74728      0.16148993   
     73000   441.59543      1356.0243      1797.6197      118.87785      303.48101      0.1605863    
     74000   445.60993      1358.4453      1804.0552      176.57428      304.02285      0.16237471   
     75000   468.48688      1343.4256      1811.9125      225.4619       300.66141      0.16473651   
     76000   434.55313      1355.0331      1789.5862      227.24243      303.25918      0.16635248   
     77000   453.94588      1322.8246      1776.7705      209.78291      296.05087      0.16796776   
     78000   458.17299      1300.4869      1758.6598      168.07634      291.05163      0.16748273   
     79000   444.19155      1342.7714      1786.9629      106.93599      300.51499      0.16016907   
     80000   438.36123      1309.3119      1747.6732      97.980189      293.0267       0.15290831   
     81000   459.70343      1329.0705      1788.7739      126.53133      297.4487       0.15412465   
     82000   459.05175      1344.6328      1803.6845      141.53434      300.93158      0.15893435   
     83000   468.75645      1333.8329      1802.5893      130.59883      298.51454      0.1628963    
     84000   489.45525      1328.5433      1817.9985      127.94735      297.33071      0.16647469   
     85000   437.79648      1379.3708      1817.1673      79.385916      308.70601      0.16688311   
     86000   480.38174      1406.5675      1886.9492      94.688142      314.79269      0.16562102   
     87000   479.66039      1380.7255      1860.3859      137.89623      309.0092       0.16106486   
     88000   484.30999      1352.4238      1836.7338      222.25472      302.67522      0.15740459   
     89000   456.90974      1370.4611      1827.3709      264.58654      306.71202      0.15501997   
     90000   459.10334      1373.1692      1832.2726      309.68598      307.31809      0.15642877   
     91000   471.0779       1382.459       1853.5369      295.67016      309.39715      0.15769206   
     92000   459.14403      1316.1338      1775.2778      215.09024      294.55344      0.16392792   
     93000   429.88803      1335.9269      1765.8149      136.90093      298.98318      0.1709135    
     94000   458.06284      1349.1552      1807.2181      138.32236      301.94371      0.17251351   
     95000   443.46979      1332.2632      1775.733       153.27759      298.16325      0.16886058   
     96000   454.63941      1328.0482      1782.6876      123.04344      297.2199       0.16319723   
     97000   444.3399       1332.5784      1776.9183      136.25904      298.23378      0.15998283   
     98000   430.60317      1310.1782      1740.7814      107.51051      293.22057      0.15952735   
     99000   451.28116      1325.6522      1776.9334      147.83025      296.68368      0.16272225   
    100000   449.09746      1324.2093      1773.3067      146.36256      296.36076      0.16550369   
    101000   446.90391      1319.9724      1766.8763      189.67882      295.41254      0.16802904   
    102000   426.98288      1330.1467      1757.1296      196.32932      297.68956      0.16911332   
    103000   442.27618      1325.1105      1767.3867      217.10398      296.56245      0.16854819   
    104000   460.68949      1384.681       1845.3705      206.3087       309.89445      0.16640854   
    105000   433.80244      1365.4112      1799.2137      229.31004      305.58184      0.16478852   
    106000   463.93999      1326.1921      1790.1321      187.31495      296.80452      0.16254347   
    107000   466.95071      1336.2475      1803.1982      145.02565      299.05493      0.1601484    
    108000   464.30848      1306.2669      1770.5754      62.567932      292.34522      0.15968281   
    109000   447.91833      1353.0262      1800.9445      46.544196      302.81004      0.16109631   
    110000   477.5461       1359.4014      1836.9475      113.42827      304.23683      0.16366635   
    111000   459.55628      1409.1873      1868.7436      195.48747      315.37902      0.1661899    
    112000   437.06328      1356.4064      1793.4697      304.84855      303.56654      0.16806292   
    113000   459.58345      1353.7639      1813.3473      325.86018      302.97513      0.16835399   
    114000   458.11829      1386.8653      1844.9836      302.26049      310.38329      0.16670193   
    115000   445.19605      1369.3339      1814.5299      224.15389      306.45973      0.16446953   
    116000   472.05396      1332.1526      1804.2066      164.37213      298.13849      0.16527617   
    117000   455.7231       1343.9121      1799.6352      114.29855      300.77028      0.1689086    
    118000   453.43095      1349.6435      1803.0744      97.833216      302.05298      0.17300467   
    119000   436.49456      1375.7414      1812.2359      90.989656      307.89375      0.17224435   
    120000   424.06854      1355.9629      1780.0315      114.37822      303.46728      0.1691532    
    121000   457.70352      1355.6674      1813.3709      160.91976      303.40114      0.166828     
    122000   449.77471      1334.5122      1784.2869      156.39508      298.66656      0.16401365   
    123000   461.48526      1330.2676      1791.7529      75.625609      297.71663      0.16136127   
    124000   457.0516       1292.3909      1749.4425      19.896922      289.23973      0.16140763   
    125000   466.05582      1314.1067      1780.1625      30.628259      294.09978      0.16580314   
    126000   468.19343      1308.4053      1776.5987      45.240721      292.8238       0.17098848   
    127000   445.76584      1309.4503      1755.2162      168.22783      293.05767      0.17500612   
    128000   455.85332      1319.7238      1775.5771      255.90763      295.3569       0.17387698   
    129000   457.668        1310.9116      1768.5796      282.14172      293.3847       0.1688183    
    130000   466.99996      1358.7749      1825.7749      279.22506      304.09662      0.16412034   
    131000   452.35158      1381.2904      1833.6419      178.14277      309.13562      0.16104926   
    132000   449.8093       1375.4024      1825.2117      139.0276       307.81787      0.16137857   
    133000   445.83361      1357.3903      1803.2239      81.658975      303.78674      0.16444525   
    134000   448.85786      1340.2646      1789.1224      81.283542      299.95396      0.16844957   
    135000   446.97995      1285.6241      1732.604       110.07902      287.72531      0.17219749   
    136000   455.11555      1305.3849      1760.5004      145.81715      292.14781      0.17324517   
    137000   447.83855      1312.1858      1760.0244      240.66524      293.66988      0.17197277   
    138000   454.59403      1334.5554      1789.1495      255.01475      298.67624      0.16792297   
    139000   447.12614      1320.9053      1768.0314      239.92108      295.62132      0.1645766    
    140000   480.48029      1357.1381      1837.6184      127.23359      303.73029      0.16105362   
    141000   477.50331      1359.2028      1836.7061      35.088068      304.19237      0.15845621   
    142000   451.1498       1364.9418      1816.0916      27.597365      305.47679      0.15979681   
    143000   467.07055      1377.502       1844.5726      122.30381      308.28778      0.16922304   
    144000   465.1196       1381.0753      1846.1949      260.16561      309.08749      0.17781933   
    145000   463.9756       1360.3886      1824.3642      267.26412      304.45777      0.17459268   
    146000   447.03129      1365.1912      1812.2225      259.36144      305.53259      0.17083694   
    147000   443.75899      1367.5621      1811.3211      195.86201      306.06322      0.16706186   
    148000   447.23821      1349.2915      1796.5297      147.21783      301.9742       0.16366539   
    149000   454.88181      1340.4567      1795.3385      133.03137      299.99695      0.16270392   
    150000   448.45173      1325.692       1774.1437      96.731337      296.69259      0.16265147   
    151000   453.28691      1328.1164      1781.4033      75.209859      297.23517      0.16448062   
    152000   438.09562      1335.1924      1773.288       115.30719      298.81879      0.17106239   
    153000   451.37236      1291.4781      1742.8504      166.70994      289.03544      0.17800697   
    154000   427.26726      1329.0086      1756.2759      161.14305      297.43485      0.17981993   
    155000   425.07663      1314.2469      1739.3235      155.1282       294.13116      0.1797232    
    156000   459.78865      1354.6451      1814.4338      188.77265      303.17236      0.17862031   
    157000   432.13849      1361.6436      1793.7821      200.00543      304.73863      0.17305292   
    158000   428.59238      1361.9295      1790.5219      158.82325      304.80263      0.16552483   
    159000   446.4984       1354.2282      1800.7267      149.29682      303.07906      0.16446572   
    160000   453.43833      1343.3063      1796.7446      169.05105      300.6347       0.16670746   
    161000   451.77462      1396.6854      1848.46        155.0798       312.58105      0.17045266   
    162000   448.75382      1364.776       1813.5299      179.7793       305.43968      0.17310804   
    163000   451.09082      1375.8919      1826.9827      181.75909      307.92744      0.17158811   
    164000   476.51892      1395.8979      1872.4168      175.90641      312.40482      0.16924362   
    165000   449.97174      1382.9279      1832.8996      134.28318      309.5021       0.16735683   
    166000   453.35297      1370.1492      1823.5022      139.80575      306.6422       0.16788966   
    167000   475.53886      1345.9588      1821.4977      204.57267      301.22834      0.1732433    
    168000   417.08608      1384.9327      1802.0188      219.02175      309.95078      0.18106435   
    169000   415.54817      1316.6073      1732.1555      207.10536      294.65942      0.18257757   
    170000   441.60438      1290.8859      1732.4902      182.37473      288.90291      0.17905263   
    171000   440.94544      1343.1023      1784.0478      168.88147      300.58906      0.17398462   
    172000   430.7548       1344.7087      1775.4635      103.21841      300.94858      0.16973954   
    173000   445.16758      1344.1539      1789.3214      79.620245      300.82439      0.16857723   
    174000   447.01113      1336.8985      1783.9096      49.365018      299.20062      0.16996699   
    175000   443.90128      1339.5696      1783.4709      88.021721      299.79844      0.17180428   
    176000   464.48886      1334.4159      1798.9047      101.11956      298.64501      0.17143932   
    177000   464.73446      1338.9224      1803.6568      203.8768       299.65358      0.170887     
    178000   434.56044      1340.7824      1775.3429      198.96213      300.06986      0.16745667   
    179000   440.82201      1320.5645      1761.3865      198.58269      295.54504      0.16181753   
    180000   463.03975      1318.0771      1781.1169      162.85103      294.98836      0.15653896   
    181000   448.24343      1273.9756      1722.2191      121.88745      285.11836      0.14911339   
    182000   482.8077       1297.4608      1780.2685      96.412733      290.3744       0.14768774   
    183000   469.49958      1321.624       1791.1236      121.44948      295.78216      0.15422186   
    184000   449.00036      1313.7231      1762.7235      121.65121      294.01393      0.16241018   
    185000   439.87224      1344.9489      1784.8211      143.97224      301.00233      0.16658212   
    186000   440.1809       1352.9217      1793.1026      175.17177      302.78665      0.16924525   
    187000   466.9563       1372.96        1839.9163      234.31026      307.27126      0.16761634   
    188000   446.376        1359.0075      1805.3835      216.50429      304.14868      0.16316922   
    189000   464.55478      1353.3093      1817.8641      245.0436       302.87341      0.16054889   
    190000   450.02044      1305.4806      1755.501       230.52576      292.16924      0.16025954   
    191000   459.23424      1304.3083      1763.5426      161.71852      291.90688      0.1649426    
    192000   428.21294      1315.9522      1744.1651      58.649658      294.5128       0.17072767   
    193000   470.99895      1297.1608      1768.1598     -19.395722      290.30725      0.17428479   
    194000   433.59084      1296.8659      1730.4567      33.277929      290.24124      0.17403307   
    195000   446.99201      1338.415       1785.407       92.594459      299.54003      0.16985011   
    196000   445.71081      1367.3872      1813.098       132.96671      306.02406      0.16573103   
    197000   464.79107      1306.2084      1770.9995      176.21711      292.33212      0.16474392   
    198000   445.85959      1340.9716      1786.8312      158.15689      300.1122       0.16472696   
    199000   437.48351      1335.852       1773.3355      140.5705       298.96641      0.16464809   
    200000   478.51556      1330.0325      1808.548       152.76479      297.664        0.1645998    
    201000   449.07395      1340.3579      1789.4318      213.27573      299.97484      0.16483164   
    202000   468.84373      1322.2429      1791.0866      229.28777      295.92068      0.16448131   
    203000   450.73134      1340.0724      1790.8037      216.54922      299.91095      0.16078062   
    204000   462.18624      1302.4951      1764.6813      202.99263      291.50107      0.1574152    
    205000   477.79806      1336.4954      1814.2935      134.05048      299.11041      0.1567059    
    206000   473.14529      1341.5062      1814.6515      58.78367       300.23184      0.1606505    
    207000   440.87317      1387.6151      1828.4882      17.097109      310.5511       0.168497     
    208000   447.96706      1362.6434      1810.6104      28.903097      304.96238      0.17253941   
    209000   474.28853      1317.0851      1791.3736      103.29892      294.76635      0.17429245   
    210000   452.737        1287.6824      1740.4194      130.71911      288.18596      0.17236258   
    211000   437.50567      1282.4216      1719.9273      178.27286      287.00859      0.17090831   
    212000   422.54742      1335.6421      1758.1895      221.49539      298.91943      0.16817214   
    213000   472.07323      1326.3547      1798.428       156.56254      296.84091      0.16308526   
    214000   437.83381      1321.8696      1759.7034      132.62338      295.83714      0.16114361   
    215000   435.77464      1338.8958      1774.6704      100.05123      299.64762      0.16169777   
    216000   437.9898       1329.9568      1767.9466      99.172144      297.64707      0.16734153   
    217000   437.89416      1314.4779      1752.3721      153.2987       294.18285      0.17410259   
    218000   432.26603      1340.4306      1772.6967      155.14362      299.99113      0.17750147   
    219000   436.00637      1314.4605      1750.4669      167.50821      294.17896      0.17455343   
    220000   460.86832      1296.7722      1757.6405      114.14876      290.22029      0.16457433   
    221000   467.70939      1319.1732      1786.8826      88.138091      295.23366      0.16177602   
    222000   464.36099      1340.5829      1804.9439      65.842099      300.02521      0.1631328    
    223000   452.92651      1358.8254      1811.752       105.05865      304.10792      0.16590838   
    224000   455.1258       1388.979       1844.1048      149.76932      310.85635      0.16963974   
    225000   464.55957      1359.746       1824.3056      155.40462      304.31394      0.17191486   
    226000   449.13344      1358.5709      1807.7043      190.77692      304.05095      0.1725167    
    227000   451.97758      1347.2235      1799.2011      191.93356      301.51139      0.17132952   
    228000   463.63883      1365.4734      1829.1122      199.11311      305.59575      0.16825339   
    229000   451.47925      1348.2687      1799.7479      236.80329      301.7453       0.16304688   
    230000   458.01916      1373.405       1831.4241      232.88819      307.37085      0.1584396    
    231000   458.69982      1403.9779      1862.6777      175.05757      314.21313      0.15627142   
    232000   460.83146      1356.1689      1817.0004      96.282552      303.51339      0.15924622   
    233000   457.4337       1337.9368      1795.3705      64.773444      299.43299      0.16700884   
    234000   429.77882      1348.4401      1778.2189      65.487021      301.78366      0.17115277   
    235000   446.83486      1337.1778      1784.0127      94.045186      299.26314      0.17334055   
    236000   466.66314      1324.9821      1791.6453      154.02441      296.53372      0.17481827   
    237000   438.24572      1330.1892      1768.4349      200.84124      297.69907      0.17278508   
    238000   444.48023      1298.0641      1742.5444      230.45223      290.50942      0.16857415   
    239000   447.20505      1302.5193      1749.7243      215.8802       291.50649      0.16477511   
    240000   467.34722      1312.0722      1779.4195      172.97643      293.64446      0.16315846   
    241000   455.44296      1323.8977      1779.3407      143.94136      296.29103      0.16482026   
    242000   434.13902      1321.9952      1756.1342      133.92811      295.86524      0.17022227   
    243000   416.55318      1316.6997      1733.2529      84.926665      294.6801       0.17643544   
    244000   418.10999      1280.4018      1698.5118      54.795666      286.55655      0.17871063   
    245000   436.7367       1327.1762      1763.9129      92.481997      297.02475      0.17568792   
    246000   427.81836      1311.6248      1739.4432      154.66192      293.54433      0.1703662    
    247000   466.7488       1337.1182      1803.867       186.31448      299.2498       0.16557435   
    248000   481.46258      1284.6712      1766.1337      159.43738      287.51204      0.16157199   
    249000   466.95005      1326.4019      1793.352       201.12992      296.85147      0.16156574   
    250000   438.53686      1331.9658      1770.5027      209.96568      298.09668      0.16124345   
    251000   440.64094      1296.5941      1737.2351      240.81831      290.18043      0.16128197   
    252000   445.45578      1273.0858      1718.5416      233.96584      284.91923      0.16163927   
    253000   442.88926      1325.2935      1768.1827      145.07567      296.60339      0.1647748    
    254000   454.21002      1344.4408      1798.6508      103.69224      300.88861      0.17005573   
    255000   476.43459      1324.5103      1800.9449     -2.5445647      296.42813      0.17209684   
    256000   484.06439      1331.9799      1816.0443      18.983504      298.09983      0.17237564   
    257000   450.56016      1392.8401      1843.4002      21.355633      311.72047      0.17111695   
    258000   457.67046      1373.8455      1831.516       69.6846        307.46945      0.16576877   
    259000   470.64896      1341.534       1812.183       161.66247      300.23806      0.15823878   
    260000   464.19052      1360.8933      1825.0838      236.14457      304.57072      0.15418296   
    261000   477.46797      1374.8204      1852.2884      282.33984      307.68763      0.15630594   
    262000   464.30723      1343.7543      1808.0615      240.65717      300.73497      0.16191884   
    263000   458.71849      1336.4891      1795.2075      194.86597      299.10899      0.16677677   
    264000   445.93694      1378.5531      1824.49        192.90307      308.52301      0.16763074   
    265000   459.29808      1360.8612      1820.1593      162.66376      304.56353      0.16554219   
    266000   447.75366      1344.5531      1792.3068      156.08983      300.91374      0.16467517   
    267000   473.33333      1286.175       1759.5084      166.98976      287.84861      0.16796619   
    268000   442.56245      1323.3738      1765.9363      179.52798      296.17378      0.1724901    
    269000   426.16928      1325.4463      1751.6156      155.36494      296.63761      0.17629321   
    270000   432.15047      1317.4832      1749.6337      172.30063      294.85544      0.17628107   
    271000   449.6882       1302.0321      1751.7203      162.03976      291.39745      0.1701297    
    272000   459.07329      1305.6837      1764.757       176.65064      292.21468      0.15957114   
    273000   472.2003       1337.4412      1809.6415      224.69773      299.32208      0.15664935   
    274000   493.25728      1345.6749      1838.9322      179.26401      301.16481      0.15602748   
    275000   447.99007      1361.7911      1809.7812      187.70164      304.77164      0.15966557   
    276000   463.86674      1358.1321      1821.9989      196.61576      303.95276      0.16506055   
    277000   459.59379      1351.1707      1810.7645      190.18826      302.39478      0.16791979   
    278000   484.48867      1342.9723      1827.461       171.92387      300.55996      0.16983867   
    279000   431.67089      1393.3366      1825.0075      170.14798      311.83159      0.16897077   
    280000   467.12662      1401.1576      1868.2842      150.30406      313.58195      0.16527437   
    281000   478.07495      1332.8526      1810.9275      136.4601       298.29515      0.15909422   
    282000   460.87911      1338.3719      1799.2511      174.51123      299.53039      0.15820399   
    283000   443.20562      1329.3592      1772.5648      201.58907      297.51331      0.16339613   
    284000   451.07265      1334.3182      1785.3909      260.23415      298.62316      0.17082386   
    285000   458.17475      1328.4679      1786.6427      284.39155      297.31385      0.17258436   
    286000   460.37029      1345.3273      1805.6976      208.28167      301.08702      0.17208319   
    287000   489.95866      1366.8279      1856.7865      205.19375      305.89888      0.17082906   
    288000   465.06511      1366.4789      1831.544       158.28239      305.82079      0.16753377   
    289000   456.39754      1371.8686      1828.2661      147.82787      307.027        0.16340548   
    290000   471.22634      1366.7642      1837.9905      136.33214      305.88463      0.16145221   
    291000   452.61544      1340.9197      1793.5351      137.87258      300.10057      0.16353188   
    292000   452.83615      1316.9597      1769.7959      110.50638      294.73828      0.16667181   
    293000   441.49873      1351.9104      1793.4092      190.88296      302.56033      0.17237189   
    294000   470.95237      1361.6005      1832.5528      138.25052      304.72898      0.17439678   
    295000   455.67183      1355.9807      1811.6526      146.68503      303.47127      0.17479387   
    296000   473.35904      1316.9181      1790.2771      120.81056      294.72897      0.1751382    
    297000   447.9735       1332.4785      1780.452       134.168        298.21143      0.17507418   
    298000   443.05332      1333.7983      1776.8516      148.49248      298.50679      0.1707945    
    299000   459.98292      1328.5242      1788.5072      144.7873       297.32645      0.16281821   
    300000   441.72223      1323.6682      1765.3905      98.055715      296.23967      0.15908714   
    301000   472.85236      1341.8787      1814.731       80.410348      300.3152       0.16003875   
    302000   448.21773      1345.1069      1793.3246      119.75052      301.03769      0.16257729   
    303000   469.9961       1314.2844      1784.2805      135.30282      294.13955      0.16667191   
    304000   442.88086      1304.1326      1747.0135      116.85622      291.86756      0.16946759   
    305000   423.43845      1344.106       1767.5445      141.9856       300.81368      0.17261621   
    306000   463.01833      1294.1849      1757.2033      102.94196      289.64124      0.17449719   
    307000   455.17816      1335.1031      1790.2813      92.657184      298.79882      0.17482899   
    308000   431.43247      1318.8082      1750.2406      78.517835      295.15198      0.17147223   
    309000   478.99274      1341.8589      1820.8517      58.079322      300.31078      0.16248666   
    310000   490.10863      1368.1409      1858.2495      86.861879      306.19274      0.15628378   
    311000   466.41157      1366.0059      1832.4175      114.94664      305.71493      0.15457039   
    312000   480.52953      1355.4553      1835.9848      168.17976      303.35367      0.15738245   
    313000   505.55817      1324.6054      1830.1636      168.44668      296.4494       0.16164578   
    314000   445.46221      1355.7347      1801.1969      222.69918      303.41621      0.16669327   
    315000   446.37463      1336.1767      1782.5514      192.66937      299.0391       0.16772909   
    316000   461.91588      1333.0163      1794.9321      182.95435      298.33178      0.16585853   
    317000   453.37983      1347.9943      1801.3741      155.53278      301.68388      0.16379851   
    318000   460.56272      1323.4885      1784.0513      153.97187      296.19945      0.16310193   
    319000   462.77517      1288.8552      1751.6304      148.59708      288.44844      0.16282927   
    320000   463.4011       1309.3752      1772.7763      137.00259      293.04086      0.16540837   
    321000   432.10101      1297.8823      1729.9833      85.261743      290.46872      0.16910761   
    322000   460.15869      1311.8601      1772.0188      104.14911      293.59699      0.1743379    
    323000   449.69495      1325.8006      1775.4956      166.17547      296.7169       0.17727331   
    324000   435.29963      1352.8177      1788.1174      160.64807      302.76339      0.17479047   
    325000   446.68026      1348.4844      1795.1646      199.85305      301.79357      0.17239638   
    326000   456.82577      1391.8237      1848.6495      169.54912      311.493        0.16949981   
    327000   447.92702      1349.6992      1797.6262      112.26472      302.06545      0.16540471   
    328000   458.56336      1312.8216      1771.385       99.687206      293.81217      0.1641649    
    329000   460.57159      1339.6162      1800.1878      121.06676      299.80885      0.16516582   
    330000   452.24845      1326.1506      1778.399       146.97154      296.79522      0.1668058    
    331000   463.1018       1328.1111      1791.2129      216.95932      297.234        0.16870744   
    332000   443.50773      1335.7799      1779.2876      210.32088      298.95028      0.16948837   
    333000   430.26524      1341.2679      1771.5332      231.51024      300.17852      0.17109111   
    334000   462.57777      1384.1781      1846.7559      228.16958      309.7819       0.17291434   
    335000   441.55215      1369.5529      1811.105       261.52527      306.50875      0.170339     
    336000   452.36006      1365.5736      1817.9336      255.13786      305.61817      0.16452236   
    337000   457.66088      1337.4352      1795.0961      229.54998      299.32075      0.16037224   
    338000   454.66444      1380.1054      1834.7698      220.58695      308.87041      0.16115937   
    339000   483.06612      1378.9302      1861.9964      177.46723      308.60742      0.16517515   
    340000   457.89669      1375.5035      1833.4002      116.63828      307.84051      0.1701522    
    341000   439.36987      1365.4059      1804.7758      66.235677      305.58064      0.17211395   
    342000   488.70819      1325.7335      1814.4417      80.579449      296.70188      0.17401351   
    343000   453.98513      1383.2408      1837.226       114.81857      309.57214      0.17631063   
    344000   464.34969      1397.596       1861.9457      213.99118      312.78486      0.176741     
    345000   473.41254      1354.6734      1828.086       255.17149      303.1787       0.16849942   
    346000   448.77394      1358.2236      1806.9975      245.77561      303.97322      0.16278399   
    347000   452.18481      1383.0168      1835.2016      229.42244      309.52201      0.16294224   
    348000   461.38019      1433.9258      1895.306       222.40657      320.91554      0.16612411   
    349000   458.55002      1379.3706      1837.9207      177.85758      308.70598      0.1680941    
    350000   469.13268      1354.3555      1823.4881      101.66744      303.10753      0.16940159   
    351000   450.52396      1334.8793      1785.4033      97.072475      298.74873      0.16999107   
    352000   437.30839      1348.2246      1785.5329      60.146359      301.73542      0.17110138   
    353000   442.23981      1291.6882      1733.928       90.68112       289.08248      0.17945086   
    354000   430.31713      1331.9854      1762.3025      165.06802      298.10106      0.18688043   
    355000   407.06857      1338.7173      1745.7858      241.36302      299.60767      0.18440164   
    356000   439.0121       1325.0081      1764.0202      198.89304      296.53954      0.17897279   
    357000   432.73299      1322.9306      1755.6636      186.92782      296.07459      0.17526038   
    358000   455.58007      1331.9462      1787.5262      132.3679       298.09229      0.17135929   
    359000   435.78758      1347.0045      1782.7921      99.55947       301.46238      0.16943345   
    360000   469.43402      1315.5679      1785.0019      101.35843      294.4268       0.16908382   
    361000   441.32262      1306.1339      1747.4566      83.890387      292.31546      0.17128097   
    362000   433.79387      1291.4733      1725.2672      116.3361       289.03438      0.17926891   
    363000   419.36876      1323.1369      1742.5056      118.56624      296.12075      0.18888828   
    364000   421.28839      1308.0961      1729.3844      86.364765      292.75458      0.18946054   
    365000   439.6069       1371.0146      1810.6215      142.72358      306.83589      0.18425115   
    366000   444.31654      1350.3083      1794.6249      160.23398      302.20177      0.17701148   
    367000   462.14395      1361.9454      1824.0894      238.53849      304.80619      0.17279498   
    368000   455.71784      1338.4819      1794.1998      231.71442      299.555        0.16804379   
    369000   445.92324      1328.8003      1774.7236      203.21014      297.38824      0.16515838   
    370000   434.04979      1336.1679      1770.2177      191.19773      299.03711      0.16379951   
    371000   441.69403      1308.226       1749.92        180.55123      292.78365      0.16525687   
    372000   448.82531      1277.5305      1726.3558      143.02223      285.91394      0.16969623   
    373000   422.72253      1334.583       1757.3056      207.03084      298.68242      0.17383472   
    374000   413.07546      1356.6635      1769.739       234.87277      303.62409      0.17246558   
    375000   457.86932      1340.3217      1798.191       186.19481      299.96675      0.16238405   
    376000   450.14268      1337.5948      1787.7375      181.66349      299.35646      0.15640423   
    377000   443.31315      1363.8041      1807.1172      177.86219      305.22216      0.15760206   
    378000   478.9955       1340.4698      1819.4653      143.88242      299.99989      0.16220056   
    379000   476.5326       1352.3273      1828.8599      140.20294      302.65363      0.16518649   
    380000   477.22672      1354.7618      1831.9886      106.15262      303.19848      0.16774801   
    381000   491.21712      1375.6002      1866.8173      144.01853      307.86215      0.17274883   
    382000   465.75231      1385.4471      1851.1994      192.72304      310.0659       0.177052     
    383000   424.5093       1329.6109      1754.1202      257.18665      297.56966      0.180039     
    384000   433.61267      1327.6063      1761.219       200.25103      297.12102      0.18076658   
    385000   429.45224      1338.3733      1767.8256      171.64048      299.5307       0.1789817    
    386000   434.46874      1298.9647      1733.4334      97.305981      290.71097      0.17395064   
    387000   472.4043       1270.0821      1742.4864      85.075418      284.24699      0.17207189   
    388000   471.81685      1300.6342      1772.451       115.21962      291.0846       0.1720035    
    389000   471.37569      1313.197       1784.5727      109.85608      293.89618      0.1702741    
    390000   470.35756      1294.5981      1764.9556      94.906096      289.7337       0.17098371   
    391000   436.85369      1343.8418      1780.6955      186.73426      300.75455      0.17447359   
    392000   441.08884      1353.2072      1794.296       240.23145      302.85054      0.17718262   
    393000   486.991        1362.4821      1849.4731      164.67395      304.9263       0.17424227   
    394000   454.9096       1355.5447      1810.4543      194.87625      303.37368      0.17170133   
    395000   475.64607      1336.1766      1811.8227      169.00948      299.03907      0.16879265   
    396000   469.55598      1364.7627      1834.3187      176.7683       305.43669      0.17014449   
    397000   463.4723       1340.6402      1804.1125      184.3083       300.03803      0.1752837    
    398000   451.96278      1377.0682      1829.031       168.32873      308.1907       0.18005182   
    399000   453.42408      1338.0613      1791.4854      186.18597      299.46086      0.18276208   
    400000   444.42282      1335.9314      1780.3542      233.37005      298.98419      0.17973674   
Loop time of 1975.57 on 8 procs for 400000 steps with 1500 atoms

Performance: 8.747 ns/day, 2.744 hours/ns, 202.473 timesteps/s, 303.709 katom-step/s
99.4% CPU use with 8 MPI tasks x 1 OpenMP threads

MPI task timing breakdown:
Section |  min time  |  avg time  |  max time  |%varavg| %total
---------------------------------------------------------------
Pair    | 73.795     | 76.894     | 79.583     |  23.2 |  3.89
Bond    | 4.1304     | 4.4202     | 4.6149     |   8.0 |  0.22
Kspace  | 927.43     | 930.6      | 934.41     |   8.0 | 47.11
Neigh   | 1.3738     | 1.3788     | 1.3829     |   0.3 |  0.07
Comm    | 41.861     | 42.378     | 43.059     |   5.9 |  2.15
Output  | 0.020413   | 0.022273   | 0.03467    |   3.1 |  0.00
Modify  | 870.74     | 884.45     | 893.63     |  29.7 | 44.77
Other   |            | 35.43      |            |       |  1.79

Nlocal:          187.5 ave         213 max         157 min
Histogram: 1 0 1 2 0 0 1 1 0 2
Nghost:        1793.25 ave        1837 max        1760 min
Histogram: 1 0 1 2 2 0 0 1 0 1
Neighs:        15522.1 ave       18112 max       11724 min
Histogram: 1 0 1 0 2 0 1 0 1 2

Total # of neighbors = 124177
Ave neighs/atom = 82.784667
Ave special neighs/atom = 2
Neighbor list builds = 2530
Dangerous builds = 0
PPPM initialization ...
  using 12-bit tables for long-range coulomb (src/kspace.cpp:342)
  G vector (1/distance) = 0.26996547
  grid = 48 48 48
  stencil order = 5
  estimated absolute RMS force accuracy = 0.00037143155
  estimated relative force accuracy = 1.1185551e-06
  using single precision FFTW3
  3d grid and FFT values/proc = 29791 13824
Generated 1 of 1 mixed pair_coeff terms from arithmetic mixing rule
Last active /omp style is kspace_style pppm/omp
Setting up Verlet run ...
  Unit style    : real
  Current step  : 0
  Time step     : 0.5
Per MPI rank memory allocation (min/avg/max) = 8.483 | 8.484 | 8.486 Mbytes
   Step         PotEng         KinEng         TotEng         Press           Temp        v_Density   
         0   444.42283      1335.9314      1780.3542      233.37004      298.98419      0.17973674   
      1000   441.37967      1300.9744      1742.3541      202.12169      291.16074      0.17620038   
      2000   468.46163      1320.2143      1788.6759      163.41002      295.46666      0.17225913   
      3000   429.54911      1318.4077      1747.9568      199.59617      295.06235      0.17072614   
      4000   439.28207      1278.8431      1718.1251      158.96936      286.2077       0.16743158   
      5000   469.48226      1326.8688      1796.351       181.89268      296.95595      0.16486954   
      6000   482.73179      1320.4065      1803.1383      160.44524      295.50969      0.16716349   
      7000   444.35945      1335.2217      1779.5811      182.99725      298.82535      0.17367942   
      8000   426.3542       1338.2806      1764.6348      188.98771      299.50995      0.18011713   
      9000   454.13673      1332.4307      1786.5675      181.03618      298.20073      0.18079354   
     10000   461.88045      1338.2817      1800.1621      163.81662      299.51019      0.17809519   
     11000   466.22503      1290.3772      1756.6022      170.8424       288.78907      0.1740945    
     12000   456.62526      1310.7546      1767.3799      147.30396      293.34958      0.17238219   
     13000   446.86028      1318.8446      1765.7049      135.73444      295.16013      0.17254843   
     14000   439.65511      1324.2432      1763.8983      150.59775      296.36835      0.17199252   
     15000   488.63197      1276.9169      1765.5489      144.33126      285.77662      0.16555131   
     16000   471.01547      1337.5487      1808.5642      153.10592      299.34614      0.15821664   
     17000   467.63985      1352.5057      1820.1456      153.69709      302.69356      0.15688822   
     18000   474.4636       1351.1647      1825.6283      160.73708      302.39343      0.16009099   
     19000   466.92862      1367.6331      1834.5617      109.90965      306.0791       0.16502179   
     20000   468.88277      1343.1868      1812.0696      104.18941      300.60796      0.16940392   
     21000   471.38288      1366.9639      1838.3468      104.47261      305.92933      0.17320824   
     22000   456.11015      1341.8915      1798.0017      78.811594      300.31807      0.17539084   
     23000   450.16797      1377.2624      1827.4304      82.79628       308.23416      0.176435     
     24000   447.92444      1358.836       1806.7604      86.396051      304.11028      0.17740533   
     25000   471.46849      1343.3459      1814.8144      95.788007      300.64356      0.17991896   
     26000   427.43028      1326.7464      1754.1767      188.06613      296.92856      0.1822928    
     27000   420.61617      1306.3436      1726.9598      167.63277      292.36238      0.18056075   
     28000   429.4722       1343.4339      1772.9061      151.86648      300.66327      0.17566258   
     29000   454.44477      1324.0052      1778.45        151.76591      296.31508      0.17029192   
     30000   451.90401      1312.161       1764.065       163.26877      293.66433      0.16538421   
     31000   470.58353      1312.9056      1783.4891      174.96425      293.83096      0.16293882   
     32000   451.68268      1345.7288      1797.4115      222.93652      301.17686      0.166241     
     33000   467.67399      1337.3829      1805.0569      249.49363      299.30904      0.17136747   
     34000   475.34317      1326.942       1802.2852      139.93176      296.97235      0.17267453   
     35000   445.37056      1362.7941      1808.1647      111.19893      304.99613      0.1743638    
     36000   458.80797      1376.0447      1834.8527      48.302228      307.96163      0.17614377   
     37000   452.41863      1413.5714      1865.9901      102.38752      316.36019      0.17885149   
     38000   459.72808      1322.081       1781.8091      172.1967       295.88444      0.18144881   
     39000   445.35763      1340.6429      1786.0005      174.59783      300.03864      0.1834756    
     40000   473.07029      1355.0153      1828.0856      184.75771      303.2552       0.18350104   
     41000   465.31892      1335.9779      1801.2968      94.534459      298.9946       0.17661193   
     42000   517.05193      1297.0324      1814.0843      73.855819      290.27851      0.16670634   
     43000   486.10105      1360.0841      1846.1851      93.064188      304.3896       0.16373246   
     44000   485.08184      1371.0263      1856.1081      176.13638      306.8385       0.16648953   
     45000   448.46002      1346.3393      1794.7993      201.22867      301.3135       0.16860049   
     46000   451.02628      1346.3835      1797.4098      200.66264      301.32339      0.17044788   
     47000   466.23258      1362.4344      1828.667       162.01767      304.91561      0.16811917   
     48000   479.98683      1337.4631      1817.45        126.77994      299.327        0.16408606   
     49000   471.2046       1348.5328      1819.7374      128.30294      301.80441      0.15978862   
     50000   465.57338      1351.3014      1816.8747      93.586882      302.42402      0.15542929   
     51000   449.36244      1326.2085      1775.5709      106.64771      296.80818      0.15708375   
     52000   476.66392      1330.3097      1806.9736      155.57822      297.72604      0.1677745    
     53000   463.66643      1350.4834      1814.1499      123.13247      302.24096      0.17263453   
     54000   425.87433      1309.9667      1735.841       117.49539      293.17324      0.17301713   
     55000   442.93726      1322.9029      1765.8402      116.50934      296.06838      0.17158951   
     56000   458.08383      1300.0958      1758.1797      99.018889      290.96411      0.16762428   
     57000   460.57321      1326.6018      1787.175       120.95543      296.8962       0.16416247   
     58000   471.85738      1307.0486      1778.906       156.47449      292.52016      0.16013798   
     59000   434.53327      1316.0072      1750.5405      223.43906      294.52512      0.15681843   
     60000   445.8114       1369.6589      1815.4703      231.9177       306.53246      0.15957321   
     61000   478.4742       1378.9794      1857.4536      263.48128      308.61842      0.16818249   
     62000   454.30243      1357.7008      1812.0032      192.61541      303.85623      0.1722846    
     63000   445.61892      1348.1252      1793.7441      109.42716      301.71319      0.17385532   
     64000   449.38448      1308.7932      1758.1777      90.000016      292.9106       0.17398259   
     65000   422.26127      1256.8019      1679.0631      63.496567      281.27484      0.17210741   
     66000   441.34266      1324.0434      1765.3861      162.7572       296.32364      0.17196486   
     67000   486.56592      1308.5286      1795.0945      156.73995      292.85139      0.16987575   
     68000   472.57908      1329.6467      1802.2257      148.17996      297.57765      0.16515882   
     69000   452.51314      1314.2805      1766.7936      128.87268      294.13867      0.15782467   
     70000   472.0689       1315.5409      1787.6098      88.168872      294.42075      0.15213381   
     71000   468.982        1330.7378      1799.7198      79.635682      297.82184      0.15615197   
     72000   466.87331      1352.7616      1819.6349      133.58299      302.75082      0.16387611   
     73000   477.17268      1339.363       1816.5356      241.45849      299.75218      0.1695904    
     74000   471.83673      1327.4486      1799.2854      275.0607       297.08573      0.17303687   
     75000   465.80999      1376.0114      1841.8214      232.13141      307.95417      0.17367739   
     76000   461.45488      1334.7948      1796.2497      187.59866      298.72982      0.17339503   
     77000   430.69919      1327.7847      1758.4839      103.81012      297.16094      0.17181187   
     78000   451.15787      1335.4739      1786.6317      57.411646      298.88179      0.16998624   
     79000   440.15455      1333.6818      1773.8364      166.44114      298.48073      0.1730934    
     80000   455.6547       1328.4384      1784.0931      254.85694      297.30724      0.17704599   
     81000   443.74346      1347.3897      1791.1332      357.4979       301.54858      0.18333323   
     82000   424.9699       1370.8048      1795.7747      337.68906      306.78892      0.18947396   
     83000   439.41647      1350.0453      1789.4618      250.48516      302.14291      0.19113614   
     84000   455.46413      1360.6197      1816.0838      98.97726       304.50949      0.18794758   
     85000   457.45705      1358.5689      1816.0259      43.343498      304.0505       0.17957798   
     86000   447.1047       1371.1404      1818.2451      95.236398      306.86404      0.17318437   
     87000   461.24043      1367.9522      1829.1926      89.473343      306.15051      0.16822333   
     88000   458.4087       1352.1643      1810.573       148.4913       302.61715      0.16672936   
     89000   446.97755      1370.305       1817.2825      244.31387      306.67706      0.16850918   
     90000   453.37102      1366.6395      1820.0105      238.10215      305.85673      0.17048464   
     91000   434.69451      1376.4151      1811.1096      190.74737      308.04453      0.17168371   
     92000   494.32061      1386.6304      1880.951       154.91089      310.33072      0.17092408   
     93000   471.25179      1373.9698      1845.2216      103.74557      307.49726      0.16734296   
     94000   475.22384      1339.67        1814.8938      144.10323      299.82089      0.16422813   
     95000   468.72393      1343.943       1812.667       135.85284      300.77721      0.16291211   
     96000   468.25302      1352.9969      1821.2499      120.14007      302.80349      0.16663001   
     97000   462.82629      1303.9976      1766.8239      146.62565      291.83734      0.17323184   
     98000   454.76624      1318.5883      1773.3546      100.07703      295.10278      0.1748165    
     99000   452.99519      1313.6679      1766.6631      56.170379      294.00158      0.17266393   
    100000   438.03577      1316.6649      1754.7007      18.449775      294.67231      0.16695562   
    101000   451.68205      1301.4112      1753.0932      56.303936      291.25849      0.16328866   
    102000   443.7712       1318.3963      1762.1675      156.31581      295.0598       0.16305056   
    103000   463.67181      1329.8183      1793.4901      217.1451       297.61606      0.16303874   
    104000   475.12378      1311.578       1786.7018      296.80925      293.53384      0.16529789   
    105000   459.72865      1295.75        1755.4787      258.64568      289.99152      0.16922304   
    106000   431.56009      1314.5036      1746.0637      233.11303      294.18861      0.17499894   
    107000   452.06813      1276.6762      1728.7444      188.16426      285.72277      0.1777261    
    108000   444.48397      1321.5919      1766.0758      135.42311      295.77497      0.17763626   
    109000   431.23303      1326.8656      1758.0986      125.37153      296.95524      0.17584209   
    110000   442.22598      1280.1891      1722.415       179.24471      286.50894      0.17496375   
    111000   451.87799      1301.6329      1753.5109      222.82016      291.30811      0.17572146   
    112000   436.95926      1311.804       1748.7633      305.19937      293.58443      0.17774815   
    113000   435.32769      1323.7321      1759.0598      219.7093       296.25396      0.17658762   
    114000   447.34292      1306.6054      1753.9483      116.23127      292.42096      0.17323929   
    115000   434.87991      1313.6984      1748.5783      61.683767      294.0084       0.17111342   
    116000   437.93567      1289.7449      1727.6806      35.7339        288.64755      0.17122972   
    117000   440.62684      1326.367       1766.9938      116.29182      296.84365      0.17355153   
    118000   423.08547      1352.0611      1775.1465      215.44304      302.59404      0.17485199   
    119000   422.96471      1318.9042      1741.8689      222.35186      295.17346      0.17319692   
    120000   468.69757      1323.7147      1792.4123      175.09641      296.25008      0.17189546   
    121000   446.27169      1347.8335      1794.1052      136.34406      301.6479       0.17075288   
    122000   476.65515      1338.4239      1815.079       90.524489      299.54201      0.16849706   
    123000   466.41799      1353.0671      1819.4851      79.977859      302.8192       0.16611826   
    124000   473.95011      1371.5564      1845.5065      146.17684      306.95713      0.16520762   
    125000   465.84699      1360.8413      1826.6883      202.32485      304.55908      0.16509888   
    126000   453.27542      1365.3932      1818.6686      178.72031      305.57779      0.16670507   
    127000   470.82798      1353.7529      1824.5809      197.62092      302.97269      0.1740548    
    128000   448.38939      1369.5659      1817.9553      176.1452       306.51166      0.17881698   
    129000   443.90747      1380.4689      1824.3763      206.04144      308.95176      0.17948602   
    130000   457.92835      1344.2263      1802.1546      172.0369       300.8406       0.17730539   
    131000   456.47734      1353.8587      1810.3361      171.4634       302.99636      0.17339723   
    132000   453.43662      1377.7778      1831.2144      147.09031      308.3495       0.17002887   
    133000   463.30586      1355.9951      1819.301       207.39437      303.47449      0.16873363   
    134000   478.57752      1339.8051      1818.3826      170.86413      299.85113      0.1707769    
    135000   432.40819      1290.5581      1722.9663      153.0398       288.82956      0.17544654   
    136000   435.23653      1311.8481      1747.0846      142.05099      293.59429      0.17946929   
    137000   435.73312      1314.2835      1750.0166      137.8548       294.13934      0.17845248   
    138000   458.75512      1323.3678      1782.1229      94.133013      296.17242      0.17391138   
    139000   463.8499       1326.0676      1789.9175      114.73147      296.77664      0.17046838   
    140000   444.24408      1342.5701      1786.8142      135.49531      300.46995      0.1687637    
    141000   497.56754      1358.4686      1856.0362      125.39476      304.02806      0.16742988   
    142000   499.92097      1331.7203      1831.6412      153.38042      298.04173      0.16690003   
    143000   464.79819      1352.135       1816.9332      140.88782      302.61059      0.16757348   
    144000   443.72087      1404.8642      1848.5851      162.16907      314.4115       0.16936492   
    145000   470.44249      1406.054       1876.4965      195.68641      314.67777      0.17090454   
    146000   479.6271       1378.8507      1858.4778      228.97089      308.58962      0.17161211   
    147000   462.36961      1363.2497      1825.6193      248.51398      305.09808      0.16920225   
    148000   456.59309      1363.5074      1820.1005      215.5932       305.15575      0.16440137   
    149000   478.37891      1341.0946      1819.4735      183.57831      300.13972      0.16097906   
    150000   446.13631      1360.9043      1807.0406      159.01876      304.57318      0.15984264   
    151000   478.6288       1293.4114      1772.0402      129.83116      289.46813      0.16535452   
    152000   474.58046      1326.9634      1801.5439      57.719011      296.97714      0.17189829   
    153000   430.57603      1369.9184      1800.4944      70.129519      306.59054      0.1767886    
    154000   438.52401      1344.2182      1782.7422      126.71232      300.8388       0.17960313   
    155000   461.31064      1330.9805      1792.2911      130.18204      297.87616      0.17795938   
    156000   463.12291      1368.4085      1831.5314      188.96881      306.25264      0.17483275   
    157000   453.88088      1349.8221      1803.703       188.12386      302.09295      0.17137379   
    158000   455.10981      1353.3563      1808.4661      167.73817      302.88392      0.16902182   
    159000   449.47983      1353.4723      1802.9521      147.80409      302.90988      0.16976828   
    160000   468.96824      1319.0343      1788.0026      97.238057      295.20259      0.17147878   
    161000   459.37177      1343.3771      1802.7489      85.014206      300.65055      0.17615924   
    162000   442.79177      1350.3461      1793.1378      150.28875      302.21022      0.17886015   
    163000   464.61975      1380.8603      1845.4801      251.24781      309.03937      0.17999514   
    164000   443.46492      1368.1252      1811.5901      351.67235      306.18922      0.18090926   
    165000   455.81072      1337.824       1793.6347      426.03091      299.40776      0.18098877   
    166000   442.15859      1379.1531      1821.3117      332.72308      308.6573       0.17472569   
    167000   459.52444      1362.5918      1822.1163      213.64041      304.95085      0.16732458   
    168000   468.68252      1372.7116      1841.3941      93.318454      307.21568      0.16375374   
    169000   488.03866      1331.1226      1819.1612      34.481174      297.90797      0.16475      
    170000   471.23507      1338.3716      1809.6067      25.910589      299.53031      0.1677096    
    171000   459.84179      1331.2361      1791.0779      59.646371      297.93338      0.16957789   
    172000   463.69662      1363.7564      1827.453       164.71277      305.21148      0.16833934   
    173000   449.59537      1321.116       1770.7113      260.42863      295.66846      0.16429203   
    174000   452.01444      1352.3832      1804.3977      287.54483      302.66614      0.15780225   
    175000   480.71434      1325.5802      1806.2945      255.54791      296.66757      0.15658357   
    176000   479.8913       1336.2957      1816.187       210.92664      299.06573      0.16266233   
    177000   466.07558      1310.4417      1776.5172      160.32555      293.27953      0.16796258   
    178000   446.11224      1308.7513      1754.8635      105.00586      292.90123      0.17095752   
    179000   475.69547      1311.5652      1787.2607      62.656922      293.53098      0.17088647   
    180000   475.78625      1284.3457      1760.132       49.937205      287.4392       0.16974124   
    181000   452.22365      1344.2421      1796.4657      109.99799      300.84414      0.16838436   
    182000   475.96991      1355.7386      1831.7085      144.18993      303.41708      0.167241     
    183000   436.62089      1337.1559      1773.7768      178.89618      299.25825      0.16481444   
    184000   456.30367      1341.9495      1798.2531      188.13818      300.33104      0.16393354   
    185000   455.0038       1363.459       1818.4628      178.99785      305.14492      0.16874827   
    186000   470.76238      1382.8361      1853.5984      157.00155      309.48155      0.17637302   
    187000   484.03722      1340.5005      1824.5378      128.55735      300.00677      0.1811658    
    188000   467.13541      1332.0346      1799.17        132.79502      298.11208      0.18071994   
    189000   483.84539      1345.3046      1829.15        133.05679      301.08194      0.17486723   
    190000   453.41196      1325.0102      1778.4222      201.14246      296.54001      0.16937623   
    191000   466.14218      1318.2028      1784.345       248.7198       295.0165       0.16813438   
    192000   435.28141      1311.3128      1746.5942      258.929        293.47449      0.16945882   
    193000   450.39127      1347.6108      1798.0021      232.34876      301.59807      0.17131551   
    194000   441.74878      1334.376       1776.1248      208.87373      298.63609      0.16891286   
    195000   483.97416      1306.1309      1790.1051      142.68873      292.31477      0.16385851   
    196000   477.6814       1304.2549      1781.9363      55.81791       291.89493      0.16134395   
    197000   479.51846      1365.9654      1845.4839      42.004598      305.70586      0.16283157   
    198000   453.50751      1362.1273      1815.6348      125.44392      304.84687      0.17073637   
    199000   455.74942      1383.0488      1838.7982      150.10111      309.52916      0.1771026    
    200000   456.73396      1328.8247      1785.5586      204.3804       297.39368      0.17759326   
    201000   428.03275      1304.7334      1732.7662      196.83412      292.00202      0.17542851   
    202000   433.50772      1332.0862      1765.5939      185.99638      298.12361      0.17334707   
    203000   471.67663      1322.5215      1794.1982      139.33158      295.98304      0.17251336   
    204000   481.77542      1335.1834      1816.9589      148.835        298.8168       0.1726512    
    205000   457.63003      1355.5915      1813.2215      85.75468       303.38416      0.16994273   
    206000   468.97004      1376.5925      1845.5625      89.077537      308.08422      0.16902753   
    207000   478.17253      1343.1469      1821.3194      89.938577      300.59902      0.16870389   
    208000   472.68253      1368.2176      1840.9001      122.00117      306.20991      0.16829536   
    209000   481.3037       1380.5093      1861.813       198.27257      308.96082      0.1710144    
    210000   449.37547      1371.9106      1821.286       277.70071      307.0364       0.1720482    
    211000   434.90559      1377.8684      1812.774       246.99359      308.36977      0.17352444   
    212000   474.54453      1350.14        1824.6845      179.01077      302.16411      0.17207579   
    213000   458.41979      1349.9516      1808.3714      120.82192      302.12194      0.16808819   
    214000   455.42815      1371.8963      1827.3245      136.85763      307.03322      0.16470755   
    215000   481.35527      1374.4842      1855.8394      146.80022      307.61238      0.16087842   
    216000   504.76586      1367.8807      1872.6466      243.29173      306.13451      0.16242555   
    217000   455.60197      1388.0291      1843.6311      321.36132      310.64377      0.16735074   
    218000   471.93178      1378.7378      1850.6696      316.39544      308.56435      0.17033148   
    219000   480.06633      1377.63        1857.6963      224.30918      308.31642      0.17246589   
    220000   433.8122       1377.3411      1811.1533      180.05805      308.25176      0.17712116   
    221000   444.09569      1348.7573      1792.853       155.2194       301.85466      0.18490891   
    222000   446.96582      1334.6216      1781.5874      133.80551      298.69105      0.18939483   
    223000   418.50189      1355.6575      1774.1594      185.83347      303.39892      0.18644082   
    224000   446.58581      1316.8943      1763.4801      169.07695      294.72365      0.17655798   
    225000   480.74051      1279.4809      1760.2214      181.28907      286.35045      0.16992654   
    226000   441.92462      1329.8978      1771.8224      216.75887      297.63385      0.1671957    
    227000   440.28063      1342.4139      1782.6945      215.24851      300.43499      0.16519716   
    228000   469.87323      1300.5236      1770.3968      180.96079      291.05985      0.16304429   
    229000   468.39936      1330.3375      1798.7368      140.08611      297.73226      0.16261401   
    230000   431.60352      1324.8438      1756.4473      135.50613      296.50276      0.16629478   
    231000   457.03907      1322.6044      1779.6435      135.33957      296.00159      0.17376957   
    232000   474.39312      1294.7191      1769.1122      136.97298      289.7608       0.1770848    
    233000   425.70254      1312.397       1738.0995      137.92001      293.71713      0.17471532   
    234000   429.7148       1292.0579      1721.7727      115.42329      289.16521      0.17183236   
    235000   469.39247      1300.779       1770.1714      140.79237      291.117        0.17039091   
    236000   489.99402      1320.006       1810           103.66934      295.42005      0.16934288   
    237000   447.51709      1368.9802      1816.4973      118.61437      306.38057      0.16729352   
    238000   479.54658      1380.0957      1859.6423      186.70175      308.86826      0.16748945   
    239000   466.82753      1356.5227      1823.3502      218.74964      303.59255      0.16813895   
    240000   464.49294      1391.5456      1856.0385      201.51769      311.43076      0.16612389   
    241000   507.94842      1326.8724      1834.8208      137.85554      296.95676      0.1606369    
    242000   499.77991      1348.2381      1848.018       62.788803      301.73845      0.15362443   
    243000   507.43809      1339.6096      1847.0477      37.129062      299.80737      0.15350468   
    244000   490.50689      1366.5734      1857.0803      37.294333      305.84193      0.15722905   
    245000   470.42499      1331.2289      1801.6539      93.584018      297.93176      0.16256316   
    246000   474.09027      1330.3885      1804.4787      151.44315      297.74367      0.16541514   
    247000   452.84776      1356.8418      1809.6895      156.57194      303.66397      0.16360178   
    248000   461.43545      1302.965       1764.4005      170.69346      291.60625      0.16107753   
    249000   456.94533      1347.2835      1804.2288      172.2363       301.52481      0.16029277   
    250000   462.39212      1320.3712      1782.7633      191.74724      295.50178      0.16130592   
    251000   473.03822      1333.9506      1806.9888      223.63596      298.54088      0.16514135   
    252000   461.64779      1383.3171      1844.9649      187.763        309.58921      0.1671597    
    253000   483.13619      1366.7069      1849.8431      198.68937      305.87181      0.16652665   
    254000   502.58801      1377.3946      1879.9826      111.54153      308.26373      0.16255372   
    255000   478.2283       1355.2198      1833.4481      189.311        303.30098      0.15832483   
    256000   456.83279      1362.9522      1819.785       215.17186      305.03149      0.15574339   
    257000   458.65093      1333.3074      1791.9584      262.85614      298.39694      0.15800146   
    258000   481.17711      1310.9059      1792.083       240.49595      293.38343      0.16427785   
    259000   455.94285      1291.815       1747.7579      192.15584      289.11086      0.17064228   
    260000   435.82456      1273.7592      1709.5838      125.73105      285.06993      0.17219889   
    261000   435.97683      1326.2712      1762.248       71.55004       296.82221      0.16910748   
    262000   465.73865      1299.6052      1765.3438      57.871872      290.8543       0.16441174   
    263000   474.47888      1277.6084      1752.0873      51.580734      285.93139      0.16134459   
    264000   462.32111      1311.6258      1773.9469      123.41489      293.54454      0.16196683   
    265000   469.40858      1329.7307      1799.1393      208.32377      297.59646      0.16551601   
    266000   451.57815      1328.6255      1780.2037      264.22124      297.34912      0.16643198   
    267000   475.99413      1326.2908      1802.285       249.06034      296.82661      0.16541142   
    268000   445.64248      1358.0158      1803.6583      190.09365      303.92672      0.16358096   
    269000   486.67361      1396.3125      1882.9861      103.37361      312.4976       0.1597257    
    270000   475.28478      1387.8881      1863.1729      73.552852      310.61221      0.15367698   
    271000   466.26362      1390.7503      1857.0139      110.71081      311.25277      0.14985192   
    272000   495.24719      1346.8108      1842.058       111.729        301.41903      0.15129146   
    273000   463.48525      1324.8745      1788.3598      187.10547      296.50964      0.15846636   
    274000   474.4131       1345.673       1820.0861      182.75665      301.16437      0.16349182   
    275000   445.82825      1314.5371      1760.3653      189.4168       294.19609      0.16498354   
    276000   443.48624      1342.5403      1786.0266      232.23093      300.46328      0.16870498   
    277000   458.34168      1299.0368      1757.3785      231.73105      290.72711      0.17228429   
    278000   431.19282      1339.2099      1770.4028      173.80412      299.71793      0.17245258   
    279000   459.92731      1292.7122      1752.6395      143.37916      289.31164      0.16934965   
    280000   466.49032      1314.4821      1780.9724      121.02443      294.18379      0.16501697   
    281000   478.54307      1337.1158      1815.6589      128.39643      299.24926      0.16186126   
    282000   472.45416      1359.2019      1831.6561      147.2877       304.19218      0.16074093   
    283000   482.30956      1353.7649      1836.0744      132.16274      302.97535      0.16081085   
    284000   446.54154      1368.2179      1814.7595      188.87599      306.20998      0.16880175   
    285000   455.03165      1337.6441      1792.6758      222.70223      299.3675       0.17533474   
    286000   468.6893       1370.4164      1839.1057      209.21575      306.702        0.17756472   
    287000   452.3191       1358.0702      1810.3893      172.30159      303.93889      0.17682216   
    288000   457.70205      1360.3685      1818.0706      123.45697      304.45327      0.17391881   
    289000   476.38194      1359.44        1835.822       108.7698       304.24546      0.17171803   
    290000   456.53403      1356.5127      1813.0468      164.62829      303.59033      0.16826415   
    291000   480.31951      1352.3807      1832.7002      171.66269      302.66557      0.16222965   
    292000   509.16784      1405.5089      1914.6767      188.97929      314.55577      0.15795456   
    293000   483.01697      1387.5071      1870.524       170.77473      310.52693      0.15787028   
    294000   490.13958      1373.0218      1863.1614      159.52555      307.28511      0.16088339   
    295000   448.79479      1379.8805      1828.6753      113.59327      308.82009      0.16430745   
    296000   464.82529      1357.8661      1822.6913      107.8866       303.89321      0.16855765   
    297000   476.34381      1330.2088      1806.5526      132.72949      297.70346      0.17356476   
    298000   471.67019      1337.5032      1809.1734      194.04393      299.33596      0.17704695   
    299000   422.17462      1358.5456      1780.7203      221.16934      304.0453       0.17813557   
    300000   437.748        1336.8237      1774.5717      225.2113       299.18389      0.17723411   
    301000   460.90865      1314.7914      1775.7001      153.54867      294.25302      0.17252328   
    302000   444.95683      1319.3224      1764.2793      118.15583      295.26707      0.16798727   
    303000   446.30016      1307.8504      1754.1505      102.93051      292.6996       0.16694698   
    304000   450.73661      1295.1866      1745.9232      147.4969       289.86542      0.16813365   
    305000   433.52761      1367.2625      1800.7901      265.167        305.99616      0.16900114   
    306000   452.38624      1380.1081      1832.4944      287.19167      308.87104      0.16848446   
    307000   476.38137      1375.0214      1851.4027      246.56065      307.7326       0.16996171   
    308000   448.09553      1378.9018      1826.9973      184.8611       308.60106      0.17133333   
    309000   458.10536      1305.4389      1763.5443      115.55926      292.15992      0.17072064   
    310000   432.46054      1368.5352      1800.9957      122.30199      306.28099      0.17047135   
    311000   470.60141      1351.0148      1821.6162      113.11419      302.35989      0.17043613   
    312000   469.80757      1340.0142      1809.8218      121.61757      299.89794      0.17057116   
    313000   450.98979      1389.2687      1840.2585      164.04171      310.92118      0.1744883    
    314000   448.91548      1349.3829      1798.2984      128.96847      301.99467      0.17780941   
    315000   459.12638      1327.2517      1786.3781      82.803361      297.04165      0.17827553   
    316000   441.28904      1337.8306      1779.1196      61.866448      299.40923      0.17527685   
    317000   469.13376      1344.1224      1813.2561      57.212114      300.81735      0.16879099   
    318000   494.48359      1356.5999      1851.0835      51.508998      303.60983      0.16471364   
    319000   451.41744      1367.1149      1818.5324      104.3659       305.96312      0.16495715   
    320000   461.08917      1383.0762      1844.1654      124.82311      309.5353       0.16805733   
    321000   464.06217      1345.4991      1809.5612      121.74267      301.12545      0.17544594   
    322000   457.57465      1334.8155      1792.3901      145.59379      298.73444      0.17915827   
    323000   446.83792      1310.8211      1757.659       170.05819      293.36445      0.17818951   
    324000   456.12457      1286.5832      1742.7077      202.02158      287.93995      0.17355129   
    325000   457.11929      1324.5037      1781.623       227.91716      296.42665      0.16877882   
    326000   471.53749      1323.8944      1795.4319      260.08122      296.29028      0.16227812   
    327000   471.89127      1312.731       1784.6222      186.55065      293.79188      0.1593085    
    328000   457.2954       1317.8997      1775.1951      145.05214      294.94866      0.16034287   
    329000   425.38683      1333.4763      1758.8632      106.2578       298.43474      0.16474899   
    330000   423.37789      1275.0275      1698.4054      115.86975      285.35376      0.17156982   
    331000   456.77337      1330.5394      1787.3128      151.25821      297.77745      0.17506062   
    332000   453.37701      1354.2425      1807.6195      185.04672      303.08225      0.17321109   
    333000   449.04152      1350.4664      1799.5079      200.0655       302.23714      0.17078421   
    334000   462.56697      1360.1005      1822.6674      230.95986      304.39327      0.17070924   
    335000   475.03704      1311.5169      1786.554       230.02113      293.52018      0.17236593   
    336000   454.57863      1339.5706      1794.1493      139.31492      299.79866      0.17611785   
    337000   449.02606      1327.1648      1776.1908      148.68057      297.0222       0.18482542   
    338000   457.48445      1329.6226      1787.1071      167.41923      297.57228      0.18557064   
    339000   459.08434      1372.8313      1831.9156      179.89032      307.24246      0.17787709   
    340000   464.11873      1338.9492      1803.0679      177.70935      299.65957      0.1707252    
    341000   431.51369      1358.9156      1790.4293      210.96888      304.1281       0.16806198   
    342000   467.19565      1302.8171      1770.0128      199.42806      291.57315      0.16712023   
    343000   456.49617      1324.7458      1781.2419      198.97943      296.48082      0.16927952   
    344000   443.14868      1336.2413      1779.39        220.2453       299.05354      0.17362607   
    345000   442.88505      1320.1421      1763.0272      216.35833      295.45052      0.17731016   
    346000   443.74988      1350.1238      1793.8737      170.9483       302.16049      0.17774305   
    347000   457.60758      1339.3339      1796.9415      206.8052       299.74568      0.17245815   
    348000   463.62799      1361.3786      1825.0066      183.79018      304.67933      0.16559862   
    349000   466.01701      1356.9729      1822.9899      162.58891      303.69333      0.1639477    
    350000   463.8459       1380.1633      1844.0092      153.065        308.88337      0.16702779   
    351000   480.62128      1347.3365      1827.9577      132.47843      301.53667      0.17034577   
    352000   446.64643      1362.3802      1809.0266      154.58094      304.90348      0.1714047    
    353000   473.35408      1356.4619      1829.8159      115.62633      303.57895      0.16978981   
    354000   495.04011      1337.6967      1832.7368      123.45533      299.37927      0.16908696   
    355000   471.17109      1380.6354      1851.8065      171.10632      308.98903      0.16613615   
    356000   484.47566      1386.4879      1870.9635      211.70985      310.29883      0.16480614   
    357000   463.96475      1351.6724      1815.6372      201.65159      302.50706      0.16536902   
    358000   454.5956       1326.4049      1781.0005      159.8573       296.85215      0.17063342   
    359000   431.87603      1332.659       1764.5351      181.70095      298.25183      0.18229895   
    360000   458.91865      1290.5372      1749.4558      117.44835      288.82487      0.1860935    
    361000   458.00237      1286.5246      1744.527       40.954037      287.92685      0.18293474   
    362000   462.26963      1359.4459      1821.7155      40.058861      304.24678      0.17736065   
    363000   473.24891      1365.8484      1839.0973      21.8703        305.67967      0.17242153   
    364000   460.0323       1362.2365      1822.2688      44.822447      304.87133      0.1691462    
    365000   471.10996      1366.1187      1837.2286      98.154354      305.74016      0.16929322   
    366000   476.55107      1380.6882      1857.2392      167.42322      309.00084      0.17006881   
    367000   469.15084      1370.3473      1839.4981      226.61543      306.68654      0.17195555   
    368000   475.84643      1341.2211      1817.0675      222.09335      300.16804      0.17399609   
    369000   444.69903      1332.2688      1776.9679      220.73562      298.1645       0.18005724   
    370000   424.96577      1316.2711      1741.2369      183.17244      294.58418      0.18766532   
    371000   445.78967      1277.0227      1722.8124      118.51789      285.80031      0.1867296    
    372000   437.9517       1305.0442      1742.9959      33.459974      292.07158      0.1790567    
    373000   463.70778      1308.2818      1771.9896     -8.3096728      292.79615      0.17216351   
    374000   464.12741      1326.9044      1791.0318      45.877492      296.96393      0.16897003   
    375000   457.81588      1346.8483      1804.6642      121.49291      301.42742      0.16615023   
    376000   478.34125      1305.9996      1784.3409      161.82535      292.2854       0.16337471   
    377000   470.35218      1330.4106      1800.7628      223.73297      297.74863      0.1646878    
    378000   456.91451      1345.816       1802.7305      203.18186      301.19638      0.16838782   
    379000   466.3563       1322.9208      1789.2771      216.40875      296.07239      0.17235892   
    380000   451.11165      1315.3677      1766.4794      151.71289      294.38199      0.17498057   
    381000   471.55388      1330.7334      1802.2873      114.45214      297.82088      0.17624453   
    382000   500.49267      1315.1521      1815.6448      119.5111       294.33374      0.17264968   
    383000   456.76165      1343.5154      1800.2771      152.31256      300.6815       0.16692701   
    384000   457.12979      1301.8035      1758.9332      166.61791      291.34628      0.16427912   
    385000   455.34637      1368.2092      1823.5556      232.1575       306.20804      0.16766646   
    386000   470.41915      1328.5549      1798.974       239.07938      297.33331      0.173057     
    387000   475.45144      1330.7284      1806.1798      202.25268      297.81974      0.17504947   
    388000   456.11903      1374.1807      1830.2997      225.90488      307.54445      0.1747901    
    389000   468.48248      1332.1023      1800.5848      191.80528      298.12723      0.17129457   
    390000   442.45325      1344.9641      1787.4173      201.70454      301.00572      0.16780266   
    391000   445.91272      1347.9005      1793.8132      131.50055      301.66289      0.16371266   
    392000   476.44862      1308.6228      1785.0715      117.86044      292.87248      0.16391642   
    393000   471.19557      1323.8378      1795.0334      138.25585      296.27762      0.16838528   
    394000   488.95411      1326.2462      1815.2003      213.48948      296.81662      0.17161389   
    395000   493.3646       1389.5244      1882.889       213.21342      310.97842      0.16927983   
    396000   478.52984      1358.3944      1836.9243      236.64255      304.01146      0.1645365    
    397000   468.27778      1350.6705      1818.9482      237.02135      302.28282      0.16429037   
    398000   448.82797      1349.2254      1798.0534      241.2137       301.95942      0.16744914   
    399000   483.07353      1343.362       1826.4356      204.72152      300.64718      0.16911364   
    400000   456.55654      1341.768       1798.3245      144.69577      300.29043      0.16804655   
    401000   474.95588      1353.5036      1828.4595      125.71503      302.91688      0.16952184   
    402000   459.70947      1313.9845      1773.694       117.7344       294.07242      0.17370482   
    403000   446.00341      1312.7795      1758.7829      104.87679      293.80274      0.17595536   
    404000   463.49914      1305.6232      1769.1223      138.15097      292.20114      0.17580381   
    405000   494.47546      1312.1478      1806.6233      117.07237      293.66137      0.17226065   
    406000   496.08843      1291.6548      1787.7433      132.29405      289.075        0.16850623   
    407000   461.94975      1339.3872      1801.337       123.6696       299.75761      0.16487797   
    408000   471.3602       1365.7411      1837.1013      167.06922      305.65566      0.16412937   
    409000   459.67534      1376.1342      1835.8096      192.75987      307.98167      0.16353453   
    410000   480.43785      1345.0487      1825.4865      162.628        301.02466      0.1663443    
    411000   478.60152      1373.8902      1852.4917      181.99826      307.47945      0.17709024   
    412000   470.60258      1361.395       1831.9976      99.265105      304.683        0.18238692   
    413000   433.11432      1367.3308      1800.4451      147.2214       306.01144      0.18280145   
    414000   462.92668      1324.9189      1787.8455      162.86468      296.51956      0.18054121   
    415000   451.11943      1290.1796      1741.2991      150.11187      288.74485      0.17425311   
    416000   457.02612      1333.0241      1790.0502      150.60239      298.33353      0.16831142   
    417000   431.24746      1332.5318      1763.7793      145.90572      298.22335      0.16530694   
    418000   461.75303      1288.4389      1750.1919      158.34599      288.35526      0.16801625   
    419000   435.55147      1318.7048      1754.2563      189.617        295.12884      0.17395515   
    420000   438.83741      1338.7339      1777.5713      188.16512      299.6114       0.1777329    
    421000   441.26804      1321.4419      1762.7099      178.80601      295.74141      0.17690658   
    422000   463.32775      1297.7119      1761.0396      149.77988      290.43059      0.17190938   
    423000   454.85301      1286.9471      1741.8001      114.82827      288.02139      0.16656979   
    424000   454.66727      1367.2816      1821.9489      88.998288      306.00044      0.16372781   
    425000   482.94361      1360.4324      1843.376       58.716135      304.46756      0.16209264   
    426000   480.97866      1349.266       1830.2446      121.31144      301.96849      0.16360995   
    427000   477.31286      1366.1116      1843.4245      174.45681      305.73859      0.16735915   
    428000   473.26012      1387.9811      1861.2412      181.19046      310.63301      0.16925375   
    429000   445.80801      1340.732       1786.54        161.61593      300.05858      0.16994294   
    430000   484.94083      1308.7051      1793.6459      142.55133      292.89088      0.16726256   
    431000   459.99339      1303.2996      1763.293       121.27181      291.68113      0.16100298   
    432000   443.66145      1281.0876      1724.7491      126.07365      286.71004      0.15618295   
    433000   509.43178      1291.8393      1801.2711      102.24087      289.11628      0.15581666   
    434000   474.06029      1335.7526      1809.8129      134.55893      298.94418      0.15954735   
    435000   492.79893      1312.4445      1805.2434      129.81903      293.72778      0.16319161   
    436000   466.64639      1330.6603      1797.3067      167.17302      297.80451      0.1658003    
    437000   466.08973      1330.9511      1797.0408      155.97694      297.86958      0.166802     
    438000   468.75742      1309.0472      1777.8046      221.8925       292.96745      0.17318426   
    439000   437.06622      1350.5446      1787.6108      243.0936       302.25465      0.18092468   
    440000   423.45119      1364.1394      1787.5905      276.50315      305.29719      0.18176516   
    441000   452.65968      1334.1242      1786.7838      265.3679       298.57972      0.17821763   
    442000   479.56896      1299.6437      1779.2126      259.31231      290.86292      0.17249345   
    443000   485.0091       1309.0389      1794.048       191.28378      292.96559      0.16847523   
    444000   474.63884      1385.5318      1860.1706      179.43217      310.08485      0.1674143    
    445000   488.10396      1363.8958      1851.9998      132.92672      305.24268      0.16769968   
    446000   485.35059      1363.2368      1848.5874      98.671743      305.09519      0.1652694    
    447000   481.70636      1374.5946      1856.301       89.065236      307.63709      0.1630677    
    448000   489.04005      1360.7174      1849.7575      80.957988      304.53135      0.16344493   
    449000   455.08701      1326.1877      1781.2747      123.07222      296.80353      0.1707114    
    450000   451.87379      1298.2686      1750.1424      211.12325      290.55518      0.18056597   
    451000   452.82538      1308.5481      1761.3735      249.51877      292.85575      0.18146452   
    452000   455.45122      1328.0721      1783.5234      291.18112      297.22527      0.17745835   
    453000   456.25467      1327.0047      1783.2594      243.66578      296.98638      0.17191324   
    454000   451.81784      1324.901       1776.7188      218.83411      296.51556      0.16910401   
    455000   440.23598      1319.8242      1760.0602      148.36642      295.37937      0.16860391   
    456000   501.6908       1312.622       1814.3128      67.845199      293.76749      0.16862256   
    457000   454.39502      1360.3734      1814.7684      67.94619       304.45436      0.17063689   
    458000   449.09564      1364.6321      1813.7278      113.89608      305.40747      0.1732006    
    459000   459.16611      1361.2519      1820.418       175.5771       304.65097      0.17885028   
    460000   461.54122      1368.342       1829.8833      201.16783      306.23776      0.18651038   
    461000   463.30762      1374.9937      1838.3013      230.90467      307.72642      0.18702674   
    462000   462.77355      1363.7433      1826.5168      148.66589      305.20854      0.18186447   
    463000   466.52001      1337.6759      1804.196       89.899812      299.37462      0.17754212   
    464000   435.71249      1364.5892      1800.3017      28.716833      305.39786      0.1730143    
    465000   448.03571      1338.235       1786.2707      35.450189      299.49975      0.17117624   
    466000   429.31612      1334.8692      1764.1853      123.27562      298.74646      0.17390374   
    467000   440.3275       1290.9691      1731.2966      171.70903      288.92154      0.17931122   
    468000   462.71363      1309.8191      1772.5327      245.40087      293.1402       0.185096     
    469000   454.26063      1308.4459      1762.7066      218.3691       292.83289      0.18574223   
    470000   440.72303      1316.133       1756.8561      204.46446      294.55327      0.18382387   
    471000   451.94344      1282.2263      1734.1698      119.62688      286.96489      0.18123439   
    472000   439.89225      1324.6935      1764.5857      123.47053      296.46912      0.1794691    
    473000   465.42397      1302.5028      1767.9268      104.77201      291.5028       0.17685708   
    474000   443.27632      1323.4369      1766.7132      130.53133      296.18789      0.17324007   
    475000   460.13019      1328.5477      1788.6779      158.5027       297.3317       0.17196848   
    476000   477.11183      1304.9275      1782.0394      143.63636      292.04546      0.17056264   
    477000   465.21258      1271.5684      1736.781       144.3463       284.57963      0.16933136   
    478000   475.85908      1343.1155      1818.9746      165.43836      300.59201      0.17162289   
    479000   475.47715      1330.6519      1806.1291      160.3329       297.80263      0.17504239   
    480000   456.79932      1344.1728      1800.9721      160.72318      300.82864      0.18028144   
    481000   442.33115      1358.7239      1801.055       168.0909       304.0852       0.1843239    
    482000   445.30187      1361.1038      1806.4057      135.77374      304.61782      0.18296975   
    483000   459.78544      1330.8065      1790.592       142.89064      297.83723      0.17685094   
    484000   487.69752      1301.6767      1789.3742      176.54404      291.31792      0.17043154   
    485000   458.80541      1332.662       1791.4674      151.74396      298.25248      0.16815272   
    486000   471.92328      1358.5338      1830.4571      217.85571      304.04266      0.17125112   
    487000   457.19782      1360.9224      1818.1202      254.79702      304.57722      0.17465541   
    488000   461.12299      1373.0369      1834.1599      228.75965      307.28848      0.17345573   
    489000   474.15018      1333.2439      1807.394       223.06923      298.38271      0.17164071   
    490000   461.84633      1335.4941      1797.3404      227.79722      298.88632      0.17259275   
    491000   465.10446      1341.5394      1806.6438      148.14824      300.23927      0.17416718   
    492000   454.0408       1363.8723      1817.9131      141.50489      305.23743      0.17673664   
    493000   468.95644      1391.5701      1860.5266      124.88608      311.43625      0.18221583   
    494000   462.42504      1371.7875      1834.2125      105.21148      307.00886      0.18321899   
    495000   482.88462      1348.8484      1831.733       110.42527      301.87505      0.17713768   
    496000   466.77733      1355.3231      1822.1004      133.81787      303.32409      0.17015464   
    497000   471.96466      1362.2327      1834.1974      118.7636       304.87048      0.16799978   
    498000   466.10642      1327.3061      1793.4125      140.42119      297.05383      0.16853851   
    499000   483.91447      1376.1677      1860.0822      169.41677      307.98916      0.1704201    
    500000   468.45877      1385.0093      1853.4681      254.57791      309.96793      0.17088824   
    501000   459.92552      1327.054       1786.9795      254.42017      296.99741      0.16918272   
    502000   462.09417      1348.5986      1810.6928      231.80928      301.81913      0.16593862   
    503000   452.48013      1336.6272      1789.1074      206.99571      299.13992      0.16392164   
    504000   470.81277      1335.996       1806.8087      155.51592      298.99864      0.16459938   
    505000   478.21014      1342.3655      1820.5756      129.96346      300.42416      0.16947263   
    506000   447.80381      1328.2879      1776.0917      96.50995       297.27355      0.17612826   
    507000   423.04233      1320.7119      1743.7542      101.51335      295.57804      0.17839717   
    508000   470.75337      1324.1269      1794.8803      156.29544      296.34232      0.17681083   
    509000   432.77353      1350.1607      1782.9342      227.23891      302.16873      0.17153976   
    510000   453.45076      1321.1164      1774.5671      247.27413      295.66855      0.16780446   
    511000   473.75554      1302.285       1776.0405      250.81483      291.45405      0.16676408   
    512000   465.62639      1305.0828      1770.7092      180.55863      292.08021      0.1673894    
    513000   472.83599      1386.6006      1859.4365      105.60076      310.32405      0.16728338   
    514000   475.64391      1365.1738      1840.8177      106.78063      305.5287       0.16765508   
    515000   469.25589      1348.7171      1817.973       122.21017      301.84566      0.16862278   
    516000   473.2442       1367.738       1840.9822      210.00826      306.10258      0.171447     
    517000   447.0874       1352.908       1799.9954      296.38183      302.78359      0.17419488   
    518000   473.41712      1374.293       1847.7101      353.84393      307.56959      0.17761606   
    519000   435.70154      1365.6512      1801.3527      347.27867      305.63554      0.18115009   
    520000   435.79919      1353.6261      1789.4253      268.49066      302.94431      0.18080418   
    521000   443.62615      1325.7796      1769.4058      137.52037      296.7122       0.17796078   
    522000   467.48798      1328.5909      1796.0789      59.673127      297.34138      0.17333615   
    523000   469.08479      1353.3882      1822.473       30.018363      302.89105      0.16800729   
    524000   479.85478      1365.4054      1845.2602      84.944092      305.58053      0.16450571   
    525000   461.42934      1360.5431      1821.9725      182.03808      304.49235      0.16380154   
    526000   469.85499      1363.4607      1833.3157      230.70596      305.14531      0.16678845   
    527000   455.71594      1386.0467      1841.7626      251.94994      310.20009      0.17323911   
    528000   470.29717      1332.918       1803.2151      235.40704      298.30978      0.17586341   
    529000   446.53508      1345.4643      1791.9993      174.20858      301.11766      0.17625144   
    530000   452.18936      1339.2709      1791.4603      117.60804      299.73158      0.174537     
    531000   486.36545      1336.5183      1822.8838      87.39716       299.11554      0.17148298   
    532000   458.13414      1337.0539      1795.188       94.997759      299.2354       0.16761546   
    533000   460.23732      1350.9625      1811.1999      150.44019      302.34819      0.16809591   
    534000   472.36959      1350.7002      1823.0698      188.2378       302.28948      0.16995354   
    535000   473.34069      1372.3504      1845.6911      182.36046      307.13484      0.17125821   
    536000   486.33869      1385.6912      1872.0299      140.98728      310.12053      0.16989566   
    537000   488.42703      1377.323       1865.7501      109.39594      308.24772      0.16563914   
    538000   491.91123      1342.7905      1834.7017      62.881822      300.51927      0.16125695   
    539000   496.80938      1330.9339      1827.7433      117.36923      297.86574      0.15679529   
    540000   468.19683      1337.1095      1805.3064      151.84245      299.24786      0.1539223    
    541000   532.00794      1332.0628      1864.0708      210.37787      298.1184       0.15670804   
    542000   502.61694      1381.5922      1884.2092      229.72754      309.20318      0.16389769   
    543000   439.20763      1379.3818      1818.5894      252.68341      308.70847      0.17146542   
    544000   452.02493      1356.2063      1808.2312      197.94345      303.52175      0.17336169   
    545000   486.30763      1361.9211      1848.2288      134.63015      304.80074      0.17104125   
    546000   511.84479      1354.0544      1865.8992      101.94324      303.04016      0.16884968   
    547000   481.90061      1389.7937      1871.6943      93.156425      311.03868      0.16655159   
    548000   506.2715       1379.7971      1886.0686      118.58056      308.80141      0.16525951   
    549000   470.02049      1374.3599      1844.3804      131.22003      307.58456      0.16404232   
    550000   460.58754      1369.2966      1829.8842      181.4996       306.4514       0.16771145   
    551000   461.59221      1344.9978      1806.59        155.42556      301.01327      0.17378609   
    552000   485.19973      1326.5502      1811.7499      149.4691       296.88466      0.17772278   
    553000   420.1406       1309.4198      1729.5604      170.061        293.05083      0.17694477   
    554000   469.95526      1307.4223      1777.3776      152.76409      292.60379      0.17383299   
    555000   482.40411      1326.0391      1808.4432      94.391         296.77028      0.16783801   
    556000   466.96282      1302.1332      1769.096       117.76965      291.42009      0.16617762   
    557000   479.89399      1321.5202      1801.4142      128.84355      295.75893      0.16822923   
    558000   477.36108      1341.7554      1819.1165      201.41873      300.28761      0.17300267   
    559000   470.06878      1326.321       1796.3898      202.29938      296.83336      0.17637114   
    560000   464.6034       1350.3029      1814.9063      177.22166      302.20056      0.17724774   
    561000   447.96175      1349.6564      1797.6182      139.12534      302.05588      0.17444199   
    562000   457.35707      1363.3216      1820.6787      109.03311      305.11417      0.16754258   
    563000   474.27686      1379.1192      1853.396       113.50353      308.6497       0.16066968   
    564000   482.62417      1351.1067      1833.7309      109.56534      302.38045      0.16091456   
    565000   480.87912      1331.2777      1812.1568      143.05882      297.94269      0.1664735    
    566000   456.90542      1372.3609      1829.2663      166.46509      307.13718      0.17189229   
    567000   463.73848      1352.1521      1815.8906      109.87132      302.61441      0.17378485   
    568000   503.7549       1346.2625      1850.0174      100.06358      301.29631      0.17494969   
    569000   462.90184      1361.1068      1824.0086      107.34653      304.61849      0.17516937   
    570000   455.58672      1361.408       1816.9947      166.13756      304.6859       0.17570697   
    571000   478.62565      1371.8493      1850.475       224.5328       307.0227       0.17453404   
    572000   466.64942      1346.5592      1813.2086      214.80089      301.3627       0.17039974   
    573000   473.25344      1380.0536      1853.3071      211.04154      308.85883      0.16667656   
    574000   478.23094      1343.447       1821.678       141.81858      300.6662       0.16387778   
    575000   452.64526      1328.0729      1780.7182      128.80881      297.22544      0.16312913   
    576000   456.48239      1324.8294      1781.3118      141.42727      296.49954      0.16646494   
    577000   478.6644       1297.6563      1776.3207      149.86215      290.41814      0.17181109   
    578000   430.37031      1323.3163      1753.6866      146.05438      296.1609       0.17732563   
    579000   443.5945       1325.7906      1769.3851      185.53705      296.71466      0.18147959   
    580000   458.04697      1300.0857      1758.1326      220.25737      290.96184      0.18190013   
    581000   450.13814      1288.5643      1738.7024      226.194        288.38334      0.18022086   
    582000   447.77105      1297.7613      1745.5323      153.31335      290.44163      0.17846157   
    583000   454.36393      1310.6069      1764.9708      104.84416      293.31651      0.17618299   
    584000   444.35523      1335.0469      1779.4021      130.35689      298.78623      0.17043444   
    585000   457.97844      1323.7088      1781.6872      138.33533      296.24874      0.16494063   
    586000   451.88789      1318.8088      1770.6967      165.28223      295.15211      0.1631946    
    587000   452.69409      1317.7551      1770.4492      196.42422      294.9163       0.16865955   
    588000   452.86674      1308.236       1761.1027      157.34514      292.7859       0.17660484   
    589000   422.95708      1305.1562      1728.1133      144.22759      292.09664      0.17926682   
    590000   458.20047      1315.792       1773.9925      205.4993       294.47695      0.17895586   
    591000   463.87644      1327.6519      1791.5284      199.73173      297.13123      0.17555983   
    592000   469.78255      1299.9382      1769.7208      189.85929      290.92885      0.1707321    
    593000   473.54928      1293.4795      1767.0288      171.09135      289.48336      0.16828673   
    594000   437.50611      1335.3215      1772.8277      135.62729      298.8477       0.16674606   
    595000   431.04501      1367.9298      1798.9749      127.08567      306.14551      0.16561801   
    596000   493.52411      1353.0466      1846.5707      110.45632      302.81461      0.16618894   
    597000   497.36158      1381.5613      1878.9229      177.17067      309.19625      0.16920405   
    598000   447.93398      1392.2936      1840.2276      213.59504      311.59817      0.16860206   
    599000   461.43628      1366.2663      1827.7026      219.73882      305.77321      0.1649695    
    600000   476.99587      1364.3578      1841.3537      173.36891      305.34607      0.16253822   
    601000   489.58721      1357.9133      1847.5005      99.748736      303.90379      0.16074637   
    602000   478.53315      1316.4355      1794.9687      43.261948      294.62097      0.16007574   
    603000   476.2385       1308.3306      1784.5691      5.731802       292.80706      0.16569742   
    604000   458.65624      1311.2701      1769.9264      48.029973      293.46495      0.17434798   
    605000   474.67145      1307.7869      1782.4583      74.446523      292.68539      0.17789687   
    606000   431.16975      1311.3664      1742.5361      74.14557       293.48648      0.17605336   
    607000   482.37292      1313.0454      1795.4183      92.015832      293.86226      0.17101486   
    608000   480.83006      1376.1814      1857.0114      96.399482      307.99222      0.16550476   
    609000   502.58108      1349.4446      1852.0257      158.69086      302.00848      0.16330109   
    610000   466.50064      1360.5907      1827.0913      180.60027      304.50299      0.16232894   
    611000   497.72977      1362.2025      1859.9323      130.20601      304.86371      0.16316114   
    612000   496.11416      1336.6428      1832.7569      159.4068       299.1434       0.16898707   
    613000   485.69361      1353.751       1839.4447      193.1824       302.97226      0.17222763   
    614000   456.49382      1377.9644      1834.4583      196.3025       308.39127      0.17146712   
    615000   469.55503      1404.6634      1874.2184      210.86445      314.36655      0.17013068   
    616000   464.2984       1370.4789      1834.7773      171.37146      306.71599      0.16933263   
    617000   490.20813      1358.5391      1848.7472      193.6175       304.04383      0.16736848   
    618000   446.49264      1361.7739      1808.2666      257.58373      304.7678       0.16369885   
    619000   459.08491      1309.1023      1768.1873      337.6001       292.97979      0.15773339   
    620000   456.78351      1330.2897      1787.0732      303.49894      297.72157      0.15336198   
    621000   467.59283      1330.472       1798.0649      259.42474      297.76237      0.15685566   
    622000   480.8209       1311.1643      1791.9852      128.58383      293.44126      0.16264386   
    623000   479.02908      1339.0945      1818.1236      52.668997      299.69211      0.16662318   
    624000   447.68822      1313.2181      1760.9064      45.883403      293.90091      0.16818406   
    625000   472.34127      1290.6003      1762.9415      77.973362      288.83899      0.17132387   
    626000   445.27458      1330.7665      1776.0411      146.2785       297.82827      0.17454149   
    627000   436.28045      1342.7256      1779.006       181.60677      300.50475      0.17697412   
    628000   470.69673      1321.2613      1791.958       237.50978      295.70099      0.18089697   
    629000   452.62476      1329.9166      1782.5414      254.16389      297.63807      0.18294655   
    630000   450.2022       1329.0942      1779.2964      210.45104      297.45401      0.18080732   
    631000   463.53397      1292.8365      1756.3705      195.07997      289.33947      0.17362573   
    632000   469.7538       1266.1259      1735.8797      145.42484      283.36157      0.16636491   
    633000   455.54442      1345.2969      1800.8414      106.84559      301.08022      0.16485286   
    634000   502.60367      1306.8292      1809.4328      94.333433      292.47105      0.16800369   
    635000   460.52653      1318.703       1779.2295      78.120956      295.12843      0.17244407   
    636000   446.98952      1308.3845      1755.374       132.78593      292.81914      0.17543068   
    637000   442.04168      1301.4068      1743.4485      116.76427      291.25751      0.17477904   
    638000   441.42768      1335.4638      1776.8915      136.8464       298.87955      0.17318514   
    639000   430.14994      1332.9292      1763.0791      124.75538      298.31229      0.16964854   
    640000   480.80711      1313.2958      1794.1029      112.04106      293.91829      0.16506105   
    641000   465.02092      1333.4919      1798.5128      123.47345      298.43822      0.16055294   
    642000   492.068        1325.7322      1817.8002      114.47894      296.70158      0.16080833   
    643000   472.79513      1350.9223      1823.7174      137.3645       302.33918      0.16636656   
    644000   478.15556      1354.7063      1832.8618      191.95015      303.18605      0.17141574   
    645000   474.48324      1344.8089      1819.2922      194.10585      300.971        0.17353719   
    646000   478.89992      1381.9666      1860.8665      253.82107      309.28696      0.17581275   
    647000   472.34052      1396.3382      1868.6787      271.48665      312.50336      0.17739891   
    648000   465.48563      1384.3616      1849.8473      231.68165      309.82298      0.17606741   
    649000   485.30598      1353.7754      1839.0814      175.53244      302.97772      0.169936     
    650000   493.31362      1343.6754      1836.989       144.49315      300.71731      0.16625221   
    651000   485.28656      1370.8589      1856.1455      163.40818      306.80104      0.1661206    
    652000   492.46372      1333.3506      1825.8143      150.50635      298.40661      0.16772296   
    653000   436.87272      1349.2864      1786.1591      212.137        301.97307      0.1704243    
    654000   477.35628      1315.0481      1792.4044      218.8694       294.31046      0.17521795   
    655000   454.5657       1312.3092      1766.8749      169.67599      293.6975       0.1827558    
    656000   449.14141      1332.1396      1781.281       147.37574      298.13559      0.18832284   
    657000   440.02951      1308.0546      1748.0841      141.67892      292.7453       0.18732696   
    658000   469.0994       1320.544       1789.6434      152.64899      295.54046      0.18365298   
    659000   460.75754      1303.5532      1764.3108      218.9475       291.73789      0.1790154    
    660000   456.22392      1323.6939      1779.9179      221.52269      296.24542      0.17479971   
    661000   445.33877      1335.4515      1780.7903      214.63934      298.87678      0.1745383    
    662000   454.82743      1319.2942      1774.1216      174.63986      295.26075      0.17603071   
    663000   423.92056      1324.5015      1748.422       145.82356      296.42615      0.17548927   
    664000   463.58592      1285.3478      1748.9337      122.64512      287.66347      0.17568231   
    665000   478.41698      1340.2758      1818.6928      137.39635      299.95647      0.17682246   
    666000   473.52346      1341.8988      1815.4223      112.86106      300.31971      0.17596692   
    667000   465.29908      1359.9249      1825.224       71.645022      304.35399      0.17032303   
    668000   502.0681       1341.7687      1843.8368      86.782495      300.29058      0.16254814   
    669000   503.48337      1368.6926      1872.176       124.78317      306.31622      0.15888275   
    670000   510.27966      1355.846       1866.1256      173.59753      303.44111      0.15871744   
    671000   479.06541      1378.6637      1857.7292      219.73903      308.54778      0.16152959   
    672000   472.71464      1331.5707      1804.2853      224.89893      298.00825      0.16249305   
    673000   451.4677       1349.9732      1801.4409      221.12303      302.12677      0.16510994   
    674000   477.22518      1320.0108      1797.236       239.53757      295.42113      0.17133953   
    675000   483.59901      1329.0254      1812.6244      201.21494      297.43861      0.17492456   
    676000   433.97671      1334.3572      1768.3339      269.36955      298.63188      0.17719835   
    677000   433.94868      1285.0931      1719.0418      224.58574      287.60647      0.17634001   
    678000   457.1243       1317.0054      1774.1297      217.66089      294.74851      0.17482014   
    679000   456.52752      1315.9643      1772.4919      202.99934      294.51552      0.17290898   
    680000   454.20846      1296.0586      1750.2671      158.67079      290.06059      0.17166153   
    681000   444.6793       1328.9061      1773.5854      153.61709      297.41192      0.17472598   
    682000   439.19196      1338.4874      1777.6793      158.06313      299.55622      0.17815378   
    683000   449.38565      1315.5462      1764.9319      189.03749      294.42194      0.17945105   
    684000   417.4037       1291.5211      1708.9248      225.70994      289.04508      0.17582161   
    685000   486.71218      1288.7129      1775.425       198.14783      288.41658      0.17063549   
    686000   466.89269      1311.4438      1778.3365      184.28573      293.50381      0.16652698   
    687000   450.5027       1341.5541      1792.0568      195.39289      300.24255      0.16473968   
    688000   485.18014      1348.4501      1833.6302      187.38082      301.78589      0.16656505   
    689000   489.06735      1329.1847      1818.2521      107.03326      297.47427      0.17176848   
    690000   460.40999      1350.7061      1811.1161      136.61659      302.2908       0.18305635   
    691000   441.46356      1374.4736      1815.9372      127.17925      307.61002      0.18418644   
    692000   484.3671       1373.374       1857.7411      107.03945      307.36393      0.18009707   
    693000   490.02271      1389.7108      1879.7335      93.407661      311.02013      0.1730296    
    694000   480.88777      1364.573       1845.4607      122.64221      305.39423      0.16938769   
    695000   483.7894       1353.7493      1837.5387      182.25685      302.97188      0.16915718   
    696000   486.94278      1346.642       1833.5848      219.29402      301.38124      0.17001414   
    697000   487.05822      1391.3352      1878.3935      247.43032      311.38368      0.17045239   
    698000   480.82962      1341.7123      1822.5419      243.63272      300.27797      0.17176455   
    699000   462.93962      1329.9149      1792.8545      233.68532      297.63768      0.17647128   
    700000   477.57534      1341.9927      1819.568       183.65282      300.34072      0.18269329   
    701000   433.81956      1365.8694      1799.6889      179.79431      305.68437      0.18848028   
    702000   444.13596      1379.613       1823.749       161.57929      308.76022      0.18580773   
    703000   460.20911      1315.5811      1775.7902      173.64379      294.42975      0.17849813   
    704000   479.59556      1334.2653      1813.8608      184.20131      298.6113       0.17212344   
    705000   453.25799      1345.4501      1798.7081      213.65965      301.1145       0.17092924   
    706000   456.86757      1334.8515      1791.7191      208.24269      298.74251      0.17063547   
    707000   452.25864      1351.8194      1804.078       187.01661      302.53995      0.17002559   
    708000   457.07241      1332.4516      1789.524       172.37995      298.20539      0.16932174   
    709000   461.27796      1358.8387      1820.1166      175.35254      304.11089      0.16856122   
    710000   469.66537      1354.1412      1823.8065      149.42457      303.05957      0.17025708   
    711000   449.76044      1350.689       1800.4494      134.50645      302.28697      0.17322996   
    712000   475.01789      1335.2083      1810.2262      106.57548      298.82235      0.17494874   
    713000   477.4231       1320.2158      1797.6389      134.96897      295.46701      0.17368982   
    714000   453.79229      1326.3517      1780.144       194.86645      296.84023      0.16921378   
    715000   474.5833       1283.0477      1757.631       243.89875      287.1487       0.16421963   
    716000   485.86559      1322.7909      1808.6565      189.64067      296.04333      0.16121407   
    717000   487.33818      1354.1083      1841.4465      141.46461      303.05222      0.16365374   
    718000   450.39021      1366.4137      1816.8039      116.52504      305.80618      0.17150773   
    719000   475.83642      1362.9236      1838.76        99.96256       305.0251       0.17534125   
    720000   480.39208      1392.8703      1873.2624      115.89851      311.72724      0.17369439   
    721000   476.42613      1373.2062      1849.6323      156.48437      307.32637      0.17185653   
    722000   438.77282      1354.9346      1793.7074      279.62874      303.23715      0.17241067   
    723000   467.04212      1358.676       1825.7181      267.09466      304.07448      0.17138084   
    724000   476.29772      1323.199       1799.4967      243.47221      296.13466      0.16854803   
    725000   464.86443      1313.1865      1778.0509      184.7976       293.89383      0.16482582   
    726000   459.67243      1349.786       1809.4585      130.76432      302.08489      0.15808428   
    727000   507.07056      1310.8434      1817.9139      83.013006      293.36943      0.15329971   
    728000   501.68917      1308.9725      1810.6616      40.681838      292.95073      0.15657294   
    729000   476.50543      1341.4826      1817.988       62.720565      300.22656      0.16628732   
    730000   465.45328      1341.0584      1806.5117      121.91348      300.13163      0.17091202   
    731000   472.33606      1316.947       1789.2831      89.886791      294.73544      0.17175078   
    732000   458.24491      1324.8105      1783.0555      116.80736      296.49532      0.17308884   
    733000   486.53443      1315.0487      1801.5831      150.3232       294.3106       0.17467733   
    734000   476.29638      1296.7837      1773.0801      198.14128      290.22286      0.17389338   
    735000   466.63351      1357.0667      1823.7002      166.00372      303.71431      0.16949986   
    736000   481.81054      1354.5537      1836.3642      175.62869      303.15189      0.16493187   
    737000   474.87391      1362.4507      1837.3246      155.62404      304.91926      0.16113077   
    738000   455.966        1360.4326      1816.3986      121.30678      304.46761      0.16168182   
    739000   464.40591      1352.4096      1816.8155      137.28597      302.67204      0.17007709   
    740000   472.56137      1351.882       1824.4434      137.98596      302.55396      0.17679095   
    741000   467.66526      1348.5698      1816.2351      199.80908      301.81269      0.17891701   
    742000   486.30461      1359.3242      1845.6288      172.97912      304.21955      0.1761391    
    743000   475.26434      1352.3553      1827.6196      149.46993      302.65988      0.17021079   
    744000   487.25147      1345.2944      1832.5459      120.9949       301.07965      0.1663399    
    745000   505.01461      1353.0218      1858.0364      105.80642      302.80905      0.16492142   
    746000   490.61324      1345.1006      1835.7139      111.84535      301.03628      0.16488927   
    747000   485.01994      1361.8037      1846.8237      132.18039      304.77447      0.1670511    
    748000   465.09504      1371.7241      1836.8191      163.56927      306.99467      0.16762415   
    749000   485.12733      1342.4936      1827.6209      150.04264      300.45282      0.16736082   
    750000   516.54294      1334.5301      1851.073       200.92672      298.67057      0.16431346   
    751000   509.52219      1314.6898      1824.212       85.005223      294.23027      0.15860238   
    752000   499.05213      1324.9215      1823.9736      60.079274      296.52014      0.15865096   
    753000   472.71475      1342.0145      1814.7293      35.904277      300.34561      0.1639375    
    754000   451.08813      1338.8642      1789.9523      58.507261      299.64055      0.17040036   
    755000   439.95634      1295.8457      1735.8021      144.77938      290.01293      0.17292624   
    756000   440.66146      1321.1709      1761.8324      200.51448      295.68076      0.17358705   
    757000   461.65095      1314.4549      1776.1058      236.75849      294.17771      0.17571399   
    758000   458.02583      1308.2027      1766.2285      213.10849      292.77844      0.17766593   
    759000   445.531        1319.902       1765.433       197.23788      295.39677      0.17966741   
    760000   481.90987      1310.7759      1792.6857      138.64806      293.35433      0.1805071    
    761000   472.20014      1304.7991      1776.9992      107.37889      292.01672      0.17944403   
    762000   460.67732      1302.5442      1763.2215      77.771041      291.51207      0.17214079   
    763000   484.4931       1326.7488      1811.2419      86.627253      296.9291       0.16556054   
    764000   487.68875      1316.8399      1804.5287      50.349708      294.71148      0.16275378   
    765000   478.60461      1343.7697      1822.3743      50.862357      300.73842      0.16572905   
    766000   484.50214      1326.8599      1811.3621      67.467124      296.95398      0.16994549   
    767000   477.17417      1312.4834      1789.6576      99.1996        293.73648      0.17309905   
    768000   499.12546      1317.812       1816.9374      184.5839       294.92902      0.17493819   
    769000   461.93552      1344.8256      1806.7611      235.91096      300.97474      0.17275727   
    770000   464.96526      1343.3722      1808.3375      190.25645      300.64946      0.17043472   
    771000   502.47003      1341.4489      1843.9189      60.912246      300.21902      0.16985545   
    772000   490.3844       1328.9711      1819.3555      18.554361      297.42646      0.17191394   
    773000   471.63863      1306.4504      1778.0891     -7.9327736      292.38629      0.17216104   
    774000   468.62866      1329.1248      1797.7534      88.538264      297.46085      0.17340988   
    775000   444.06393      1322.3828      1766.4468      194.70522      295.952        0.17389453   
    776000   450.95595      1344.1421      1795.098       262.99954      300.82176      0.1743911    
    777000   463.44017      1302.4236      1765.8638      224.86582      291.48508      0.17348795   
    778000   462.43619      1321.506       1783.9422      220.78931      295.75576      0.1731177    
    779000   466.04586      1332.604       1798.6499      160.38814      298.23952      0.17199715   
    780000   492.8748       1311.4118      1804.2866      119.20334      293.49666      0.17042026   
    781000   482.3159       1337.5042      1819.8201      67.443682      299.33618      0.16635348   
    782000   455.51956      1347.7994      1803.3189      56.604708      301.64026      0.16468955   
    783000   463.99847      1343.9061      1807.9046      121.13603      300.76895      0.17048473   
    784000   462.59292      1334.422       1797.0149      243.91125      298.64638      0.17875072   
    785000   457.52656      1338.5945      1796.1211      299.09964      299.5802       0.18036661   
    786000   450.8652       1301.3502      1752.2154      265.44188      291.24485      0.17811024   
    787000   460.84609      1329.6819      1790.528       268.92476      297.58554      0.17600946   
    788000   466.99604      1342.6219      1809.618       199.65879      300.48155      0.17435617   
    789000   472.34594      1317.895       1790.2409      125.61108      294.9476       0.17407702   
    790000   465.63434      1337.9739      1803.6083      43.287871      299.44131      0.17302338   
    791000   466.09722      1374.7468      1840.844       28.240254      307.67115      0.1706326    
    792000   467.79803      1398.8889      1866.687       74.737193      313.07421      0.17121735   
    793000   464.83177      1348.209       1813.0408      106.07706      301.73194      0.17198309   
    794000   465.42577      1344.6907      1810.1165      138.25946      300.94455      0.17442652   
    795000   453.16549      1295.645       1748.8104      201.21844      289.968        0.18014033   
    796000   465.67462      1318.0521      1783.7267      241.61346      294.98276      0.18278789   
    797000   488.01212      1296.6557      1784.6679      248.43438      290.19422      0.17887644   
    798000   485.07918      1312.7672      1797.8464      169.02631      293.8          0.17147009   
    799000   451.92609      1320.2867      1772.2128      118.11071      295.48287      0.16937919   
    800000   472.24609      1353.0843      1825.3304      37.605523      302.82305      0.17058985   
    801000   460.75245      1362.2457      1822.9982      0.17089003     304.87339      0.17316587   
    802000   480.84459      1337.5429      1818.3875     -8.3742606      299.34485      0.17684697   
    803000   473.33864      1372.621       1845.9597      37.542218      307.19541      0.17843679   
    804000   451.53379      1351.5447      1803.0785      47.196759      302.47849      0.17752315   
    805000   481.71268      1360.631       1842.3437      115.36701      304.51202      0.17667168   
    806000   450.56198      1379.0516      1829.6136      184.46891      308.63457      0.17527994   
    807000   495.38752      1363.5019      1858.8894      160.10182      305.15453      0.17216164   
    808000   457.42874      1344.9453      1802.374       170.22078      301.00151      0.16911017   
    809000   460.04109      1349.133       1809.1741      128.06492      301.93874      0.16940463   
    810000   490.36128      1306.3376      1796.6989      127.41929      292.36104      0.1775102    
    811000   455.04382      1295.163       1750.2068      228.14218      289.86013      0.18402844   
    812000   447.94371      1337.5824      1785.5261      216.4249       299.35369      0.18281492   
    813000   452.24867      1302.6014      1754.8501      193.78215      291.52487      0.17837612   
    814000   460.10049      1332.4386      1792.5391      177.76277      298.20249      0.17280708   
    815000   472.69557      1355.9997      1828.6953      131.14392      303.47552      0.16867129   
    816000   474.13741      1370.0484      1844.1858      101.77477      306.61964      0.16574829   
    817000   500.27078      1381.4359      1881.7067      26.143312      309.16818      0.16451655   
    818000   490.39519      1336.9028      1827.298       43.395721      299.20159      0.16455535   
    819000   470.30761      1326.6573      1796.9649      141.67357      296.90862      0.16785247   
    820000   484.25921      1344.3088      1828.568       160.20376      300.85908      0.17394618   
    821000   444.04108      1297.0599      1741.101       217.83504      290.28467      0.17978149   
    822000   442.89027      1303.1191      1746.0094      234.7113       291.64073      0.17995145   
    823000   450.17917      1307.491       1757.6702      226.65495      292.61917      0.17792593   
    824000   453.95932      1321.107       1775.0664      171.71893      295.66647      0.17404771   
    825000   486.92045      1311.857       1798.7775      105.14964      293.5963       0.17019192   
    826000   464.93872      1308.1239      1773.0626      81.095997      292.76082      0.16768531   
    827000   466.81676      1300.8946      1767.7114      49.457596      291.14289      0.16667941   
    828000   460.58068      1320.8696      1781.4503      74.687643      295.61333      0.1664286    
    829000   476.89464      1333.2434      1810.138       159.34861      298.3826       0.16870478   
    830000   470.73321      1359.3254      1830.0586      206.17251      304.21981      0.17488878   
    831000   447.41606      1367.7796      1815.1957      223.70007      306.11189      0.18177686   
    832000   445.58467      1373.2183      1818.8029      214.306        307.32907      0.18694918   
    833000   465.33398      1359.2674      1824.6014      88.351511      304.20684      0.18241633   
    834000   482.16808      1330.5506      1812.7187      45.07791       297.77996      0.17590289   
    835000   466.64215      1336.6543      1803.2964      142.59664      299.14597      0.17466678   
    836000   448.26624      1308.9787      1757.2449      192.66015      292.95212      0.17556633   
    837000   453.1149       1301.4737      1754.5886      253.51862      291.27249      0.17905567   
    838000   447.4988       1326.4272      1773.926       264.55101      296.85714      0.18333805   
    839000   453.34429      1333.6751      1787.0194      252.71778      298.47922      0.18272426   
    840000   461.09356      1363.2446      1824.3382      153.17996      305.09694      0.17783302   
    841000   469.98568      1389.3753      1859.361       125.35262      310.94505      0.17349251   
    842000   491.9837       1350.9699      1842.9536      123.26898      302.34983      0.17198241   
    843000   479.25777      1359.4961      1838.7539      135.5349       304.25802      0.17366621   
    844000   485.58075      1337.3015      1822.8823      173.05547      299.29083      0.17700424   
    845000   487.67939      1383.7125      1871.3918      180.88368      309.67769      0.17866758   
    846000   444.53909      1409.5001      1854.0392      265.18551      315.44901      0.17801712   
    847000   440.27385      1376.125       1816.3988      194.30254      307.97959      0.17473059   
    848000   465.46773      1324.5931      1790.0608      83.775428      296.44665      0.17069302   
    849000   486.98067      1322.1882      1809.1689      35.765911      295.90844      0.1692474    
    850000   444.81496      1330.7784      1775.5934      84.473084      297.83095      0.17382264   
    851000   471.9803       1299.8313      1771.8116      97.730947      290.90491      0.18082019   
    852000   450.29448      1295.8316      1746.1261      137.03279      290.00978      0.18564706   
    853000   468.85098      1306.262       1775.113       166.19731      292.34412      0.18716017   
    854000   462.40187      1340.9126      1803.3144      116.78607      300.09899      0.18332898   
    855000   486.91777      1337.0513      1823.9691      72.274504      299.23482      0.17955567   
    856000   495.08568      1338.0718      1833.1574      67.566149      299.46321      0.17553071   
    857000   479.37718      1372.1218      1851.4989      145.37823      307.08367      0.17676849   
    858000   463.04271      1346.5566      1809.5993      224.75403      301.36214      0.178736     
    859000   480.25455      1353.8344      1834.089       255.06646      302.99092      0.17881987   
    860000   471.24822      1367.6684      1838.9166      246.15053      306.08699      0.17784447   
    861000   461.19507      1400.0087      1861.2037      232.34284      313.32481      0.17805042   
    862000   456.15017      1326.6334      1782.7836      183.4467       296.90328      0.1787997    
    863000   465.91639      1324.5094      1790.4258      104.95296      296.42793      0.17860112   
    864000   473.38865      1297.4799      1770.8685      77.298528      290.37865      0.17767952   
    865000   484.06165      1336.4863      1820.548       105.51412      299.10838      0.17511679   
    866000   484.70345      1351.5817      1836.2852      86.778174      302.48677      0.17015147   
    867000   475.64147      1344.6068      1820.2482      135.17748      300.92575      0.16744649   
    868000   472.76331      1380.8032      1853.5665      129.88111      309.02658      0.16813553   
    869000   473.52084      1410.8413      1884.3621      144.07107      315.74917      0.17256372   
    870000   461.95443      1370.7476      1832.702       198.89384      306.77613      0.18106408   
    871000   498.56091      1363.7516      1862.3126      178.1778       305.21042      0.1856244    
    872000   477.09891      1381.2428      1858.3417      195.2635       309.12498      0.18446335   
    873000   447.39851      1370.3645      1817.763       203.68187      306.69038      0.18089814   
    874000   464.77159      1354.1778      1818.9494      209.25366      303.06777      0.17825086   
    875000   466.36968      1379.9229      1846.2926      250.56359      308.82958      0.17562638   
    876000   475.19108      1429.8316      1905.0227      292.48588      319.99926      0.17466689   
    877000   494.80186      1360.1142      1854.9161      191.20557      304.39635      0.17117223   
    878000   483.1532       1349.1321      1832.2853      90.036752      301.93854      0.16470277   
    879000   479.8479       1355.3268      1835.1747      46.444819      303.32493      0.16346137   
    880000   502.85041      1386.7668      1889.6173      49.411736      310.36127      0.16556151   
    881000   508.37603      1373.8276      1882.2036      102.75871      307.46543      0.1676813    
    882000   483.02787      1367.5265      1850.5544      168.60716      306.05524      0.16717793   
    883000   484.53643      1348.0768      1832.6132      237.76047      301.70235      0.16951682   
    884000   483.16748      1354.0191      1837.1866      210.26134      303.03226      0.17219039   
    885000   462.09604      1392.7774      1854.8734      223.16003      311.70644      0.17353107   
    886000   485.40411      1333.8059      1819.21        238.30563      298.50849      0.17353584   
    887000   495.55736      1386.2524      1881.8098      212.2315       310.24613      0.16919296   
    888000   487.78328      1383.2225      1871.0058      167.04688      309.56804      0.1620129    
    889000   486.53186      1354.2361      1840.7679      182.42708      303.08081      0.16038049   
    890000   497.26455      1350.6687      1847.9332      184.152        302.28243      0.1620817    
    891000   484.31517      1337.7352      1822.0503      160.28744      299.38788      0.16553823   
    892000   495.24481      1349.5353      1844.7801      158.15769      302.02878      0.16937769   
    893000   483.61595      1374.6285      1858.2445      151.41302      307.64469      0.17152814   
    894000   466.48088      1407.7798      1874.2607      170.31305      315.06401      0.17381367   
    895000   499.38156      1373.9316      1873.3131      223.18743      307.48871      0.17612103   
    896000   495.99598      1347.5861      1843.5821      247.58998      301.59254      0.17750283   
    897000   498.29667      1341.9344      1840.2311      225.92243      300.32768      0.18128636   
    898000   462.9336       1358.4264      1821.36        226.93328      304.01862      0.18618974   
    899000   450.81431      1366.4642      1817.2785      207.6892       305.81749      0.1917966    
    900000   443.56584      1375.8288      1819.3946      164.75821      307.91331      0.19776049   
    901000   413.53665      1361.4092      1774.9459      141.39357      304.68618      0.1974794    
    902000   437.23176      1363.9407      1801.1725      184.6058       305.25274      0.19071694   
    903000   461.95263      1361.0184      1822.971       196.05026      304.59871      0.18211419   
    904000   464.85183      1360.6207      1825.4726      218.96875      304.50971      0.17766607   
    905000   435.95093      1355.4705      1791.4214      208.14826      303.35708      0.17661495   
    906000   448.13634      1320.4414      1768.5778      208.34114      295.5175       0.17803202   
    907000   455.81282      1334.0015      1789.8143      216.7875       298.55227      0.18162378   
    908000   444.22594      1316.0678      1760.2938      187.35293      294.53868      0.18289509   
    909000   439.82058      1318.532       1758.3525      154.44923      295.09016      0.18149667   
    910000   452.11631      1281.1346      1733.251       142.67421      286.72056      0.17987018   
    911000   461.82319      1339.5251      1801.3483      69.790263      299.78846      0.17423209   
    912000   478.0484       1342.1699      1820.2183     -7.4457547      300.38038      0.16971073   
    913000   484.01969      1349.8818      1833.9015      51.621534      302.10632      0.17120993   
    914000   503.37902      1376.8048      1880.1838      139.91823      308.13174      0.17477172   
    915000   487.90284      1381.5342      1869.4371      168.64032      309.1902       0.17570016   
    916000   471.3082       1387.311       1858.6192      200.21172      310.48305      0.17706312   
    917000   469.91767      1358.925       1828.8426      223.51035      304.13019      0.17843402   
    918000   478.236        1333.5836      1811.8196      195.55391      298.45876      0.17749211   
    919000   492.45923      1313.4147      1805.8739      80.367491      293.9449       0.17204737   
    920000   493.52002      1346.1937      1839.7137      29.258363      301.28091      0.16742777   
    921000   492.59084      1370.7238      1863.3146      3.7648891      306.77079      0.16507939   
    922000   508.88935      1411.0687      1919.958       84.86441       315.80007      0.16615812   
    923000   504.83414      1359.2511      1864.0853      225.53743      304.20319      0.17177793   
    924000   468.58054      1379.3712      1847.9517      327.57388      308.70611      0.17803383   
    925000   449.45991      1372.0643      1821.5242      360.82718      307.07081      0.1782377    
    926000   460.92699      1345.5718      1806.4988      277.34461      301.14172      0.17713737   
    927000   453.88453      1368.9981      1822.8827      205.60923      306.38459      0.17561581   
    928000   451.46596      1367.565       1819.0309      128.61835      306.06385      0.17132019   
    929000   460.77794      1351.6814      1812.4594      33.259342      302.50908      0.16829724   
    930000   482.93751      1357.6262      1840.5637     -25.42424       303.83952      0.16955697   
    931000   455.48451      1359.9595      1815.444       12.101237      304.36173      0.17083788   
    932000   445.60371      1356.3511      1801.9548      139.24432      303.55417      0.17233652   
    933000   445.11947      1291.5814      1736.7009      247.58817      289.05857      0.17173215   
    934000   470.06036      1312.535       1782.5953      266.2614       293.74802      0.16650513   
    935000   470.41327      1338.7089      1809.1222      276.13475      299.60581      0.16188595   
    936000   462.49101      1310.8623      1773.3534      237.84671      293.37368      0.16102777   
    937000   488.72834      1319.3337      1808.062       224.16234      295.26959      0.16520885   
    938000   480.9124       1314.5993      1795.5117      193.50884      294.21003      0.16970528   
    939000   480.42259      1343.6422      1824.0647      110.85904      300.70987      0.17193276   
    940000   499.0774       1335.2963      1834.3737      60.8355        298.84205      0.17167275   
    941000   495.21351      1330.0384      1825.2519      64.081481      297.66533      0.17147557   
    942000   501.1516       1345.9874      1847.139       23.213916      301.23475      0.16947501   
    943000   499.21105      1340.1248      1839.3358      74.313058      299.92268      0.16870897   
    944000   497.25653      1358.2423      1855.4988      149.41075      303.97741      0.16785562   
    945000   457.84503      1415.9174      1873.7624      229.01127      316.88522      0.16586581   
    946000   478.54233      1360.3034      1838.8457      248.36977      304.43869      0.16299097   
    947000   512.99989      1325.2597      1838.2595      232.89015      296.59583      0.15776268   
    948000   481.24274      1327.4711      1808.7139      266.19807      297.09076      0.15486837   
    949000   485.29583      1317.2918      1802.5876      219.63639      294.81261      0.1579923    
    950000   475.30082      1310.4388      1785.7396      183.27507      293.2789       0.16618285   
    951000   456.80887      1322.1727      1778.9816      130.09291      295.90497      0.17252198   
    952000   474.94676      1360.913       1835.8598      86.510565      304.57513      0.17577586   
    953000   484.91972      1330.0062      1814.9259      39.718294      297.65812      0.17440567   
    954000   477.28117      1339.4812      1816.7624      93.873083      299.77865      0.17298712   
    955000   466.9873       1403.9499      1870.9372      159.17947      314.20686      0.17305011   
    956000   443.97417      1427.0396      1871.0138      226.01563      319.3744       0.17329294   
    957000   464.51642      1341.7959      1806.3123      270.60858      300.29667      0.17574244   
    958000   462.37902      1334.1543      1796.5333      256.93243      298.58647      0.17790514   
    959000   433.79305      1343.956       1777.749       244.59259      300.7801       0.18033242   
    960000   447.8876       1329.3576      1777.2452      95.862325      297.51297      0.17964953   
    961000   449.72858      1340.997       1790.7256      70.379024      300.11789      0.17709319   
    962000   438.17543      1330.0009      1768.1764      4.3498057      297.65694      0.17329033   
    963000   481.03769      1313.656       1794.6937      73.902719      293.99891      0.17107683   
    964000   479.73259      1330.4939      1810.2265      144.05002      297.76728      0.17030673   
    965000   473.42407      1310.5559      1783.98        166.33745      293.30511      0.17325393   
    966000   433.40306      1368.3453      1801.7484      217.19753      306.23849      0.18059831   
    967000   484.62679      1365.1556      1849.7824      234.84391      305.52463      0.18624878   
    968000   450.32876      1383.5019      1833.8306      170.22003      309.63056      0.18587989   
    969000   469.83158      1358.4421      1828.2737      102.75442      304.02213      0.18102438   
    970000   476.61498      1347.8206      1824.4356      101.73542      301.64502      0.17492945   
    971000   483.22374      1361.4834      1844.7071      131.26945      304.70278      0.1701731    
    972000   492.75702      1324.6444      1817.4014      175.66595      296.45814      0.16699421   
    973000   484.96226      1311.4391      1796.4013      143.3076       293.50275      0.16578949   
    974000   491.29563      1330.155       1821.4507      169.40708      297.69143      0.16783202   
    975000   478.69852      1311.6774      1790.3759      160.52917      293.55609      0.17110224   
    976000   459.74915      1343.1012      1802.8503      181.94997      300.5888       0.17622451   
    977000   481.80804      1333.6841      1815.4921      223.0198       298.48123      0.17918589   
    978000   483.68358      1325.8383      1809.5219      254.9586       296.72533      0.17821292   
    979000   474.73256      1369.4971      1844.2296      262.06351      306.49626      0.17546621   
    980000   461.27685      1353.246       1814.5229      240.12122      302.85924      0.17271914   
    981000   487.78043      1331.755       1819.5355      186.95711      298.04951      0.17084275   
    982000   470.71951      1333.5699      1804.2894      118.81189      298.45567      0.16881017   
    983000   457.9256       1318.9817      1776.9073      117.47689      295.19082      0.16684324   
    984000   492.4773       1327.3614      1819.8387      100.68868      297.06621      0.16441966   
    985000   492.44746      1334.3405      1826.7879      123.56763      298.62814      0.16603678   
    986000   487.65923      1342.2561      1829.9153      178.952        300.39967      0.17394244   
    987000   442.23622      1367.0346      1809.2708      300.04994      305.94515      0.18215421   
    988000   449.92874      1387.2812      1837.21        285.83438      310.47639      0.1825452    
    989000   486.11669      1333.8577      1819.9744      198.79894      298.52009      0.17710426   
    990000   460.34972      1365.0885      1825.4383      108.79232      305.50962      0.1705047    
    991000   485.06071      1335.697       1820.7577      91.509444      298.93173      0.16745006   
    992000   494.99161      1319.8351      1814.8267      148.23816      295.3818       0.1680387    
    993000   485.36894      1323.9582      1809.3272      202.04145      296.30457      0.17206291   
    994000   478.07836      1314.2881      1792.3664      200.706        294.14036      0.17665721   
    995000   471.46632      1301.5036      1772.9699      220.67805      291.27917      0.17749599   
    996000   448.94806      1284.1757      1733.1238      210.30935      287.40116      0.17526966   
    997000   458.71302      1306.4442      1765.1572      165.02401      292.38489      0.1730219    
    998000   490.03217      1297.678       1787.7101      90.446475      290.42299      0.17139443   
    999000   461.49156      1326.5074      1787.999       89.234626      296.87508      0.17408314   
   1000000   449.84423      1323.4747      1773.3189      28.074799      296.19635      0.18059548   
   1001000   455.04744      1308.3481      1763.3955      149.56729      292.81099      0.18633108   
   1002000   448.83583      1322.0958      1770.9316      190.90963      295.88776      0.18344074   
   1003000   427.884        1316.4822      1744.3662      287.72352      294.63143      0.18179821   
   1004000   472.7327       1332.7765      1805.5092      313.21478      298.27812      0.1799055    
   1005000   469.69712      1343.0173      1812.7144      162.99938      300.57002      0.17544523   
   1006000   512.13319      1319.3487      1831.4819      50.302216      295.27296      0.17498059   
   1007000   448.34928      1370.7931      1819.1424      5.6251698      306.78631      0.1750911    
   1008000   469.9097       1346.8519      1816.7617      50.145609      301.42823      0.17429131   
   1009000   472.03475      1364.7177      1836.7525      191.91487      305.42663      0.17479976   
   1010000   495.45197      1410.4005      1905.8525      284.83523      315.65053      0.17757151   
   1011000   478.42874      1371.8971      1850.3258      352.01541      307.03338      0.18304545   
   1012000   458.93821      1370.4857      1829.4239      256.48064      306.71751      0.18338635   
   1013000   480.67042      1342.0036      1822.674       140.51386      300.34316      0.17738263   
   1014000   499.42471      1357.5156      1856.9403      173.50872      303.81479      0.17143471   
   1015000   474.15277      1353.3391      1827.4918      215.91068      302.88006      0.16891982   
   1016000   478.48581      1330.3776      1808.8635      198.31901      297.74125      0.16875556   
   1017000   458.89932      1302.1821      1761.0814      242.68144      291.43103      0.17213027   
   1018000   467.77414      1321.7985      1789.5726      257.39344      295.82121      0.17649388   
   1019000   470.53746      1325.3468      1795.8843      222.84935      296.61534      0.17899827   
   1020000   448.26924      1298.3075      1746.5767      247.28459      290.56388      0.18389617   
   1021000   461.97782      1302.3492      1764.327       147.32957      291.46842      0.18809608   
   1022000   470.24241      1336.1121      1806.3545      87.934475      299.02464      0.18908073   
   1023000   447.06966      1318.9604      1766.03        117.91509      295.18603      0.18538511   
   1024000   476.50041      1316.9752      1793.4756      114.43812      294.74175      0.17531883   
   1025000   493.83783      1351.3412      1845.1791      157.47005      302.43294      0.17051889   
   1026000   488.93111      1352.0153      1840.9464      167.66402      302.5838       0.17011291   
   1027000   474.42556      1374.6868      1849.1124      181.35233      307.65773      0.17132217   
   1028000   466.5304       1383.3978      1849.9282      162.4799       309.60726      0.17492042   
   1029000   468.17469      1346.0944      1814.2691      157.98075      301.25869      0.18001398   
   1030000   460.40913      1332.8456      1793.2548      107.26875      298.29359      0.18192354   
   1031000   463.76346      1329.7069      1793.4704      66.817007      297.59114      0.17941409   
   1032000   474.39124      1321.5372      1795.9285      91.546954      295.76274      0.17186366   
   1033000   471.91327      1306.9379      1778.8512      142.82283      292.49538      0.16894763   
   1034000   479.8973       1288.581       1768.4783      187.1186       288.38708      0.17057309   
   1035000   477.72672      1306.8924      1784.6191      119.59163      292.4852       0.17103645   
   1036000   461.31205      1324.6809      1785.9929      87.843915      296.4663       0.16939665   
   1037000   489.27624      1329.8755      1819.1518      97.519447      297.62888      0.17003697   
   1038000   490.50291      1366.9645      1857.4674      168.43392      305.92947      0.17210797   
   1039000   497.77166      1347.9098      1845.6814      196.16261      301.66497      0.17234108   
   1040000   477.34723      1360.9372      1838.2844      251.8505       304.58054      0.17418383   
   1041000   481.9908       1360.7065      1842.6973      275.55267      304.5289       0.17785403   
   1042000   482.74693      1365.3002      1848.0472      326.50039      305.55699      0.18246835   
   1043000   452.63125      1414.5763      1867.2075      287.91961      316.58507      0.18390972   
   1044000   488.91853      1345.2271      1834.1456      173.685        301.06458      0.1792513    
   1045000   460.75213      1363.9397      1824.6918      87.67976       305.2525       0.17208686   
   1046000   492.66714      1329.9431      1822.6103      96.307025      297.644        0.16773271   
   1047000   512.11883      1417.5327      1929.6515      134.26727      317.24672      0.16653668   
   1048000   504.474        1364.0412      1868.5152      151.16864      305.27522      0.16496933   
   1049000   499.31768      1342.1948      1841.5125      137.3443       300.38596      0.16600288   
   1050000   454.46699      1359.9916      1814.4586      182.97715      304.36892      0.16871498   
   1051000   480.41155      1349.2985      1829.71        179.68629      301.97577      0.17106574   
   1052000   460.74056      1291.7273      1752.4678      191.56798      289.09122      0.17225663   
   1053000   449.6828       1329.132       1778.8148      222.9069       297.46248      0.17071672   
   1054000   454.21751      1335.0636      1789.2811      189.37675      298.78998      0.16986523   
   1055000   466.43245      1324.5057      1790.9381      156.83619      296.42709      0.17523381   
   1056000   460.70662      1319.0706      1779.7772      169.54091      295.2107       0.17919878   
   1057000   464.015        1348.3606      1812.3756      278.93042      301.76588      0.18167697   
   1058000   455.68199      1350.2446      1805.9266      315.32519      302.18752      0.18018541   
   1059000   479.65178      1413.9825      1893.6342      251.14881      316.45218      0.17535077   
   1060000   484.24928      1357.3599      1841.6092      211.45724      303.77993      0.17098604   
   1061000   506.68413      1345.2056      1851.8898      134.73943      301.05979      0.16847675   
   1062000   496.7744       1363.7415      1860.5159      133.385        305.20816      0.16821673   
   1063000   503.27112      1376.4417      1879.7128      141.33862      308.05048      0.16911204   
   1064000   495.29204      1399.2645      1894.5566      123.15262      313.15828      0.17013504   
   1065000   468.47145      1363.5562      1832.0276      86.78857       305.16667      0.17316275   
   1066000   509.16169      1361.7485      1870.9102      63.224973      304.76211      0.17795933   
   1067000   446.94104      1347.8956      1794.8366      85.074556      301.6618       0.18179899   
   1068000   468.5062       1377.8068      1846.313       115.30337      308.35599      0.18354333   
   1069000   452.93236      1361.9387      1814.8711      208.65064      304.80468      0.18227866   
   1070000   490.00699      1343.8537      1833.8607      193.94198      300.75722      0.17709451   
   1071000   468.20178      1344.8583      1813.06        252.01301      300.98204      0.17412223   
   1072000   485.31744      1334.7121      1820.0296      274.19332      298.71131      0.174715     
   1073000   470.99852      1330.4626      1801.4611      248.64586      297.76026      0.17618785   
   1074000   459.44029      1313.1367      1772.577       128.55185      293.88269      0.17640836   
   1075000   452.65379      1300.352       1753.0058      44.909731      291.02145      0.1765547    
   1076000   464.06688      1280.4676      1744.5344      31.346035      286.57127      0.1789769    
   1077000   442.34185      1279.8135      1722.1554      67.573332      286.42489      0.18881182   
   1078000   455.70922      1317.3804      1773.0896      140.13616      294.83244      0.19565388   
   1079000   478.79083      1319.8367      1798.6276      193.11437      295.38217      0.19129584   
   1080000   457.13169      1380.913       1838.0446      127.82944      309.05115      0.18369746   
   1081000   482.33539      1370.1251      1852.4605      101.55528      306.6368       0.17882394   
   1082000   476.04732      1405.5083      1881.5557      104.62958      314.55565      0.17532309   
   1083000   493.16666      1359.2312      1852.3979      125.01093      304.19874      0.17183504   
   1084000   492.06624      1355.8834      1847.9497      162.53583      303.44949      0.1706051    
   1085000   493.52495      1396.9113      1890.4363      132.30274      312.63163      0.1717325    
   1086000   473.03587      1375.9978      1849.0337      144.35992      307.95114      0.17803048   
   1087000   469.0494       1373.3136      1842.363       138.47583      307.35041      0.183461     
   1088000   459.57576      1353.5774      1813.1532      95.606547      302.93341      0.18433553   
   1089000   463.57149      1317.4526      1781.0241      147.8428       294.84859      0.18287576   
   1090000   435.17546      1316.9009      1752.0764      161.35488      294.72513      0.18165176   
   1091000   440.07154      1300.0596      1740.1312      184.85997      290.95602      0.18164578   
   1092000   435.87402      1306.0533      1741.9274      215.76993      292.29742      0.18248903   
   1093000   474.24648      1315.9531      1790.1996      154.92144      294.513        0.18062625   
   1094000   471.33458      1350.6864      1822.021       148.60403      302.2864       0.17729098   
   1095000   470.32208      1335.3788      1805.7008      133.06832      298.86051      0.17070194   
   1096000   511.24935      1310.772       1822.0214      38.307163      293.35347      0.16218751   
   1097000   498.80824      1342.8806      1841.6888      35.188069      300.53943      0.16190264   
   1098000   491.50804      1385.2456      1876.7536      63.087457      310.0208       0.16623806   
   1099000   482.13181      1345.4797      1827.6115      146.43912      301.12112      0.17151694   
   1100000   480.83972      1377.2752      1858.115       191.61015      308.23703      0.17505766   
   1101000   503.59004      1403.7821      1907.3721      260.0079       314.16931      0.17522859   
   1102000   490.41135      1374.8964      1865.3078      262.89779      307.70464      0.17223762   
   1103000   497.50718      1351.9799      1849.4871      276.65808      302.57589      0.17137057   
   1104000   491.96633      1349.9256      1841.8919      211.51023      302.11612      0.17026388   
   1105000   489.53822      1394.2209      1883.7591      156.6618       312.0295       0.17161136   
   1106000   506.74089      1398.279       1905.0199      83.270158      312.93771      0.17473097   
   1107000   481.84575      1355.5554      1837.4012      5.7754371      303.37609      0.17519567   
   1108000   491.89851      1332.377       1824.2755      27.669904      298.1887       0.17400212   
   1109000   489.07349      1353.9362      1843.0097      110.97157      303.0137       0.17315925   
   1110000   462.37729      1374.6627      1837.04        200.53716      307.65233      0.1698675    
   1111000   465.54681      1357.8777      1823.4245      224.03034      303.89581      0.16684453   
   1112000   495.7697       1336.0587      1831.8284      257.70146      299.01269      0.16936822   
   1113000   480.50368      1370.0801      1850.5838      299.90651      306.62674      0.17615528   
   1114000   455.08991      1351.9336      1807.0235      298.71911      302.56551      0.18208487   
   1115000   485.52812      1331.344       1816.8721      220.99393      297.95751      0.18237361   
   1116000   457.78943      1320.8347      1778.6242      180.15586      295.60552      0.17900064   
   1117000   443.24258      1308.1458      1751.3884      127.60663      292.76572      0.17600468   
   1118000   452.78667      1347.9486      1800.7353      127.59604      301.67366      0.17383167   
   1119000   476.35675      1371.5859      1847.9426      128.19328      306.96373      0.17143983   
   1120000   490.69905      1344.627       1835.326       131.16828      300.93027      0.17019043   
   1121000   493.04008      1349.4736      1842.5137      183.96982      302.01497      0.17171642   
   1122000   498.58271      1339.4882      1838.071       251.66639      299.78022      0.17328374   
   1123000   466.45743      1334.6086      1801.066       257.03575      298.68813      0.17293377   
   1124000   461.02947      1334.2918      1795.3212      236.47761      298.61724      0.17395579   
   1125000   474.36982      1311.1077      1785.4775      208.31909      293.42859      0.17844519   
   1126000   461.36516      1320.735       1782.1001      183.34691      295.5832       0.18098721   
   1127000   478.69972      1327.9489      1806.6486      140.55445      297.19768      0.17842368   
   1128000   479.3989       1379.2539      1858.6528      119.85035      308.67986      0.17393229   
   1129000   501.7691       1322.7995      1824.5686      159.20563      296.04524      0.16990676   
   1130000   482.02578      1334.8747      1816.9004      202.32514      298.74769      0.16765936   
   1131000   477.18946      1352.9098      1830.0992      235.17026      302.78398      0.1669358    
   1132000   504.70571      1371.5502      1876.2559      240.76795      306.95575      0.17572565   
   1133000   452.72126      1328.3918      1781.1131      224.54489      297.29682      0.18393311   
   1134000   431.10176      1333.5018      1764.6035      149.02779      298.44043      0.18330705   
   1135000   451.31286      1340.5579      1791.8708      91.444349      300.01961      0.18065368   
   1136000   467.0429       1283.6993      1750.7422      142.89213      287.29455      0.17552265   
   1137000   494.60071      1309.7595      1804.3602      124.22618      293.12685      0.17011775   
   1138000   470.78564      1344.2753      1815.0609      109.91914      300.85157      0.16809953   
   1139000   471.99543      1318.1753      1790.1707      116.84318      295.01034      0.16915633   
   1140000   459.96843      1335.8571      1795.8255      121.83438      298.96756      0.17144355   
   1141000   470.38877      1315.3327      1785.7215      114.41579      294.37416      0.17406863   
   1142000   464.872        1348.5642      1813.4362      138.21979      301.81143      0.17695217   
   1143000   496.63928      1347.7758      1844.4151      110.68489      301.635        0.17747254   
   1144000   486.07624      1406.2951      1892.3713      154.63251      314.73173      0.17669966   
   1145000   501.61635      1383.1081      1884.7244      173.50341      309.54243      0.17515542   
   1146000   472.98924      1367.5642      1840.5535      212.25633      306.06368      0.17614833   
   1147000   489.04589      1337.6153      1826.6612      279.09593      299.36105      0.17842299   
   1148000   465.56699      1373.0123      1838.5793      226.43981      307.28297      0.17680711   
   1149000   484.37114      1357.2586      1841.6297      137.94255      303.75726      0.17237893   
   1150000   497.82113      1305.1075      1802.9286      57.426589      292.08573      0.16853734   
   1151000   491.74635      1293.4902      1785.2365      29.895972      289.48575      0.16709715   
   1152000   475.62146      1318.2753      1793.8968      87.285225      295.03273      0.16919729   
   1153000   477.72917      1349.3776      1827.1067      143.18035      301.99347      0.17413056   
   1154000   468.59045      1350.5862      1819.1766      248.11572      302.26396      0.18025053   
   1155000   469.26518      1357.5174      1826.7826      276.58668      303.81519      0.18293861   
   1156000   455.87179      1348.6309      1804.5027      295.92902      301.82636      0.18045068   
   1157000   470.31453      1298.5876      1768.9021      267.1701       290.62656      0.1743305    
   1158000   469.54868      1345.1536      1814.7023      139.3756       301.04814      0.16890584   
   1159000   465.0119       1347.8938      1812.9057      88.377028      301.66141      0.16903839   
   1160000   493.19695      1314.7729      1807.9698      64.290553      294.24887      0.1699116    
   1161000   485.7996       1333.1658      1818.9654      123.44591      298.36524      0.16962576   
   1162000   468.95705      1332.7686      1801.7257      177.88574      298.27635      0.17215078   
   1163000   481.88769      1338.7784      1820.6661      307.05791      299.62135      0.17957868   
   1164000   450.43549      1343.9755      1794.411       351.39375      300.78447      0.18361345   
   1165000   453.02246      1342.7332      1795.7557      239.39906      300.50645      0.18288941   
   1166000   446.29714      1340.2602      1786.5574      181.46076      299.95299      0.1822699    
   1167000   454.73799      1314.1915      1768.9295      95.60817       294.11876      0.17909408   
   1168000   447.54457      1326.6152      1774.1598      106.34408      296.8992       0.17469339   
   1169000   459.95675      1302.6947      1762.6515      117.02283      291.54575      0.16997537   
   1170000   482.52496      1341.1211      1823.6461      173.04735      300.14565      0.16742578   
   1171000   504.76292      1342.9507      1847.7136      120.99252      300.55513      0.16676073   
   1172000   499.85513      1359.7159      1859.571       113.30284      304.30721      0.1715235    
   1173000   465.04858      1362.3012      1827.3498      161.63473      304.88581      0.18077803   
   1174000   473.0678       1363.8864      1836.9542      207.68566      305.24057      0.18278314   
   1175000   450.89683      1377.8342      1828.7311      193.97984      308.36213      0.17778222   
   1176000   487.28791      1328.7241      1816.012       212.05567      297.37118      0.17434794   
   1177000   486.50203      1302.7916      1789.2936      182.71078      291.56744      0.17109167   
   1178000   471.56344      1321.5605      1793.1239      193.6707       295.76795      0.17178544   
   1179000   454.49062      1328.6723      1783.1629      172.0879       297.35959      0.17762703   
   1180000   496.82477      1330.0522      1826.8769      153.15113      297.66841      0.1822269    
   1181000   454.08457      1364.5935      1818.6781      138.94059      305.39883      0.18088559   
   1182000   477.44785      1345.3842      1822.832       103.52746      301.09974      0.1802472    
   1183000   463.282        1369.4549      1832.7369      156.31667      306.48681      0.18242658   
   1184000   473.49195      1394.8512      1868.3432      175.27264      312.17057      0.18319745   
   1185000   479.58998      1386.3595      1865.9495      168.52165      310.27011      0.18285021   
   1186000   472.02595      1356.986       1829.0119      221.48829      303.69625      0.17902891   
   1187000   475.05484      1364.3344      1839.3893      222.22227      305.34085      0.17204245   
   1188000   454.47299      1359.8033      1814.2763      238.3816       304.32678      0.16915172   
   1189000   458.84489      1352.8921      1811.737       216.97933      302.78004      0.17182325   
   1190000   493.94577      1312.4139      1806.3597      155.77025      293.72092      0.17580209   
   1191000   452.08503      1352.32        1804.405       158.23187      302.65199      0.1790454    
   1192000   474.20198      1358.5492      1832.7512      115.00783      304.0461       0.18040744   
   1193000   489.52277      1336.589       1826.1117      80.006413      299.13136      0.17813869   
   1194000   497.14912      1356.3402      1853.4893      96.080872      303.55172      0.17524086   
   1195000   439.36097      1366.2538      1805.6148      108.99457      305.77041      0.17234015   
   1196000   458.68131      1348.8852      1807.5665      140.68105      301.88327      0.17129614   
   1197000   474.16555      1328.759       1802.9245      94.329399      297.37898      0.16956001   
   1198000   455.00504      1307.7131      1762.7182      126.88582      292.66888      0.16996927   
   1199000   439.26656      1295.531       1734.7975      182.38948      289.94249      0.17396024   
   1200000   467.80004      1309.9755      1777.7756      219.15033      293.17522      0.18028351   
   1201000   448.69141      1330.2657      1778.9571      309.57865      297.7162       0.18374081   
   1202000   463.17709      1332.5577      1795.7348      311.0777       298.22915      0.18069842   
   1203000   456.12147      1310.0491      1766.1706      252.72376      293.19169      0.17550158   
   1204000   464.60022      1338.0777      1802.6779      138.73835      299.46453      0.17317364   
   1205000   453.10608      1318.9293      1772.0354      45.647618      295.17909      0.17336524   
   1206000   465.1033       1321.4278      1786.5311      76.898079      295.73824      0.17492357   
   1207000   497.69718      1315.3606      1813.0578      116.67596      294.3804       0.17366046   
   1208000   476.15734      1311.7357      1787.8931      162.54432      293.56914      0.17083019   
   1209000   481.31968      1354.5359      1835.8556      160.35804      303.14792      0.1677512    
   1210000   467.27216      1357.8388      1825.111       177.85659      303.88712      0.16665043   
   1211000   488.58149      1361.1642      1849.7457      194.72486      304.63134      0.1733612    
   1212000   457.40829      1376.7326      1834.1409      194.64263      308.11558      0.1823821    
   1213000   470.4548       1360.2273      1830.6821      206.73045      304.42167      0.18545699   
   1214000   468.55729      1339.2004      1807.7577      197.74672      299.7158       0.18287948   
   1215000   482.79835      1302.3802      1785.1785      183.21259      291.47536      0.17721169   
   1216000   474.10935      1331.3455      1805.4549      148.19744      297.95786      0.17183561   
   1217000   482.13393      1327.2294      1809.3633      95.460628      297.03666      0.16774375   
   1218000   502.38923      1303.1083      1805.4975      91.260692      291.6383       0.16644191   
   1219000   476.5818       1307.5962      1784.178       75.000187      292.64271      0.16754518   
   1220000   460.98196      1274.1864      1735.1684      55.185944      285.16554      0.17253847   
   1221000   475.18076      1302.994       1778.1747      88.054399      291.61272      0.18001451   
   1222000   456.74971      1341.5356      1798.2853      122.55822      300.23842      0.18202498   
   1223000   475.64108      1293.6215      1769.2626      170.83499      289.51514      0.18028434   
   1224000   468.46028      1337.3496      1805.8099      220.05844      299.3016       0.17862307   
   1225000   473.78941      1327.6348      1801.4242      218.92666      297.12739      0.17641847   
   1226000   460.86928      1332.5759      1793.4452      207.08859      298.23322      0.17448023   
   1227000   451.94684      1308.034       1759.9809      208.48981      292.7407       0.17477282   
   1228000   471.73705      1305.3354      1777.0725      210.74216      292.13675      0.17668273   
   1229000   473.98012      1346.3096      1820.2898      190.00884      301.30686      0.17671117   
   1230000   493.21324      1311.8622      1805.0754      166.06837      293.59745      0.17632247   
   1231000   466.58952      1326.1744      1792.764       110.95426      296.80056      0.17260133   
   1232000   477.12405      1353.7124      1830.8365      48.502439      302.96362      0.16705046   
   1233000   513.67886      1365.8902      1879.5691      26.57344       305.68904      0.16597495   
   1234000   494.30699      1335.3806      1829.6876      75.577397      298.86092      0.16811119   
   1235000   471.52564      1366.4325      1837.9581      198.90214      305.81039      0.1769924    
   1236000   472.41385      1357.744       1830.1578      280.99593      303.86589      0.18355283   
   1237000   424.29296      1385.2969      1809.5899      304.46029      310.03229      0.18439997   
   1238000   458.67361      1373.5561      1832.2297      249.20113      307.40467      0.18062886   
   1239000   473.30815      1345.059       1818.3671      105.57464      301.02696      0.17463167   
   1240000   473.63385      1284.6687      1758.3025      24.2109        287.51149      0.17162826   
   1241000   439.4517       1341.5909      1781.0426      4.7829594      300.25081      0.17231586   
   1242000   463.72531      1332.3419      1796.0672      79.978393      298.18085      0.1747728    
   1243000   471.52116      1330.868       1802.3892      158.91324      297.851        0.17642187   
   1244000   478.3128       1310.5782      1788.891       219.58621      293.3101       0.17663267   
   1245000   453.97235      1292.3998      1746.3722      199.95455      289.24174      0.17469344   
   1246000   473.2611       1312.8707      1786.1318      142.12763      293.82317      0.17310853   
   1247000   436.87882      1343.6701      1780.5489      185.35044      300.71613      0.17714023   
   1248000   455.09109      1330.5632      1785.6543      149.39023      297.78277      0.18193358   
   1249000   467.04009      1306.9188      1773.9589      165.55302      292.49111      0.18730011   
   1250000   445.64955      1336.3496      1781.9992      177.82756      299.07779      0.18743362   
   1251000   446.63644      1329.9354      1776.5719      150.95049      297.64228      0.18341537   
   1252000   454.40862      1348.4588      1802.8675      121.03847      301.78785      0.17620775   
   1253000   515.67379      1351.5269      1867.2007      143.09797      302.47449      0.17069916   
   1254000   474.7627       1367.3383      1842.101       207.29725      306.01313      0.16963919   
   1255000   456.82806      1375.0614      1831.8895      278.73207      307.74157      0.17043682   
   1256000   482.5185       1361.51        1844.0285      222.87818      304.70874      0.1723189    
   1257000   500.95098      1356.697       1857.6479      142.44016      303.63156      0.17467087   
   1258000   462.61629      1353.8493      1816.4656      61.451016      302.99426      0.1771346    
   1259000   450.98601      1352.7014      1803.6874      28.181714      302.73735      0.18025774   
   1260000   454.85908      1352.3145      1807.1736      59.772444      302.65077      0.18106519   
   1261000   465.19257      1338.6483      1803.8409      120.03963      299.59225      0.17968223   
   1262000   467.75559      1311.5133      1779.2689      159.89671      293.51937      0.17570001   
   1263000   475.7209       1335.9091      1811.63        246.36815      298.97919      0.17208862   
   1264000   467.47449      1336.2119      1803.6864      220.70773      299.04697      0.16725119   
   1265000   470.62382      1325.0779      1795.7017      243.41083      296.55516      0.16628128   
   1266000   471.85426      1351.0758      1822.93        237.43592      302.37353      0.16766108   
   1267000   467.95381      1380.4441      1848.398       243.24576      308.94623      0.17211502   
   1268000   478.80239      1337.9896      1816.792       182.56986      299.44482      0.18003048   
   1269000   513.08425      1308.345       1821.4293      145.03779      292.8103       0.18539636   
   1270000   452.9947       1375.9354      1828.9301      140.83708      307.93717      0.18572706   
   1271000   447.72773      1364.0172      1811.7449      116.39234      305.26985      0.18081831   
   1272000   466.81455      1361.5789      1828.3935      146.30636      304.72415      0.17648666   
   1273000   516.2228       1333.3322      1849.555       216.09612      298.40248      0.17527965   
   1274000   480.21999      1345.7681      1825.9881      255.50974      301.18567      0.17432851   
   1275000   500.88199      1342.7359      1843.6179      219.39266      300.50704      0.17389855   
   1276000   480.8036       1381.5184      1862.322       167.94384      309.18666      0.17544968   
   1277000   483.32868      1347.7586      1831.0873      47.045172      301.63115      0.17679506   
   1278000   469.99773      1325.2699      1795.2676      12.146385      296.59812      0.18014087   
   1279000   452.98659      1324.742       1777.7286      100.62248      296.47999      0.18498211   
   1280000   476.33522      1320.6402      1796.9754      154.13169      295.56199      0.18877501   
   1281000   452.78844      1303.6814      1756.4698      202.49968      291.76657      0.19114354   
   1282000   464.08965      1317.4417      1781.5313      211.53543      294.84615      0.1933607    
   1283000   444.51854      1319.2774      1763.7959      257.91631      295.25699      0.19104221   
   1284000   429.18135      1300.3965      1729.5779      287.20415      291.03141      0.18520984   
   1285000   454.48918      1305.3729      1759.8621      257.69887      292.14514      0.18236822   
   1286000   462.26425      1318.3249      1780.5892      287.11737      295.04383      0.18066184   
   1287000   487.61215      1355.9555      1843.5677      276.96456      303.46563      0.1789202    
   1288000   457.70925      1369.9359      1827.6451      263.6376       306.59446      0.17751769   
   1289000   480.72154      1328.9621      1809.6836      150.75544      297.42445      0.1753258    
   1290000   487.29946      1324.506       1811.8055      43.561476      296.42716      0.17585881   
   1291000   435.62971      1384.9539      1820.5836      42.930181      309.95552      0.18425199   
   1292000   460.7352       1342.7789      1803.5141      60.893667      300.51668      0.18913853   
   1293000   466.72413      1393.448       1860.1721      141.19185      311.85652      0.19077949   
   1294000   449.07375      1370.7094      1819.7832      173.69021      306.76759      0.18370355   
   1295000   473.26226      1349.1401      1822.4024      216.61602      301.94032      0.1770651    
   1296000   474.16343      1370.1483      1844.3117      236.93039      306.642        0.17393597   
   1297000   485.8169       1341.444       1827.2609      147.67318      300.21792      0.17315619   
   1298000   472.75003      1386.8358      1859.5859      81.99308       310.3767       0.17525425   
   1299000   457.46016      1372.5132      1829.9733      62.59251       307.17127      0.18067244   
   1300000   468.5806       1351.5366      1820.1172      86.122605      302.47667      0.18311714   
   1301000   497.97432      1362.4086      1860.383       182.37586      304.90985      0.18380128   
   1302000   469.32316      1342.4027      1811.7259      250.66739      300.43248      0.1817784    
   1303000   480.98708      1365.103       1846.0901      298.56241      305.51285      0.18069428   
   1304000   461.94647      1361.2403      1823.1868      255.86427      304.64838      0.17880115   
   1305000   500.71386      1339.604       1840.3179      185.89415      299.80613      0.17663471   
   1306000   506.30679      1361.7721      1868.0789      93.307259      304.7674       0.17382587   
   1307000   486.45742      1380.9866      1867.444       90.230575      309.06763      0.1713964    
   1308000   514.5339       1396.7732      1911.3071      147.14081      312.6007       0.17072442   
   1309000   474.49946      1388.0492      1862.5486      179.57646      310.64825      0.17320063   
   1310000   467.42751      1334.8034      1802.2309      176.1457       298.73174      0.17690969   
   1311000   452.81714      1318.8744      1771.6915      206.07651      295.1668       0.17996851   
   1312000   449.18489      1331.7655      1780.9504      158.09573      298.05186      0.18182526   
   1313000   448.84823      1334.9498      1783.798       200.18206      298.7645       0.18099088   
   1314000   500.73975      1289.217       1789.9568      111.02552      288.52941      0.17390623   
   1315000   444.2066       1294.2557      1738.4623      73.554172      289.65709      0.16819685   
   1316000   460.54566      1343.3903      1803.936       65.901369      300.65352      0.16741367   
   1317000   497.29153      1356.0452      1853.3367      115.38742      303.4857       0.16880956   
   1318000   468.49504      1403.1625      1871.6576      149.54183      314.03065      0.16875764   
   1319000   484.53058      1380.2149      1864.7455      114.5856       308.89493      0.1703894    
   1320000   485.94503      1375.6333      1861.5783      105.2112       307.86956      0.17419424   
   1321000   486.34291      1322.7298      1809.0727      94.358137      296.02963      0.17858013   
   1322000   457.68973      1308.978       1766.6677      129.28085      292.95196      0.18425524   
   1323000   438.16248      1323.4037      1761.5661      208.73033      296.18045      0.19032456   
   1324000   443.23698      1328.8752      1772.1122      232.96882      297.40499      0.19205732   
   1325000   443.89057      1313.0974      1756.988       170.75051      293.8739       0.18801769   
   1326000   479.68935      1305.976       1785.6654      72.610554      292.28011      0.17975402   
   1327000   473.29807      1307.3896      1780.6876      67.458138      292.59647      0.17666374   
   1328000   489.6508       1319.9616      1809.6124      64.18316       295.41011      0.17569978   
   1329000   479.90392      1325.033       1804.9369      128.25619      296.5451       0.17713006   
   1330000   474.14377      1332.2861      1806.4299      215.32052      298.16836      0.17876677   
   1331000   474.10494      1338.3249      1812.4298      186.90797      299.51986      0.18067945   
   1332000   470.26147      1363.1419      1833.4033      226.17389      305.07395      0.18555075   
   1333000   454.76063      1363.6352      1818.3958      204.54004      305.18435      0.18860103   
   1334000   458.76463      1341.4614      1800.226       187.23897      300.22181      0.19026127   
   1335000   450.13298      1330.6191      1780.7521      102.58666      297.79529      0.18703086   
   1336000   465.9299       1364.4156      1830.3455      62.833777      305.35901      0.17975181   
   1337000   479.25537      1339.1685      1818.4238      94.433307      299.70865      0.17632651   
   1338000   480.72839      1359.9523      1840.6807      162.90554      304.36013      0.17657356   
   1339000   496.88919      1408.3564      1905.2456      216.23497      315.19306      0.18168361   
   1340000   462.628        1363.5943      1826.2223      224.493        305.1752       0.18450354   
   1341000   466.32182      1358.8369      1825.1587      219.7941       304.11048      0.1859298    
   1342000   438.5159       1343.7717      1782.2876      240.03082      300.73887      0.18781265   
   1343000   470.23121      1309.7302      1779.9614      161.39012      293.12031      0.18265167   
   1344000   471.74816      1391.6051      1863.3533      164.03372      311.44408      0.17490618   
   1345000   487.67262      1347.7825      1835.4551      125.77234      301.63649      0.16854981   
   1346000   509.71986      1333.2691      1842.9889      123.856        298.38835      0.16948234   
   1347000   488.02061      1342.7625      1830.7831      95.973934      300.51301      0.17221566   
   1348000   470.08656      1347.5607      1817.6473      152.85149      301.58685      0.17620186   
   1349000   486.83953      1324.6549      1811.4944      230.47234      296.46049      0.17876729   
   1350000   479.33907      1336.6147      1815.9538      259.79504      299.13712      0.17728566   
   1351000   479.83468      1379.6583      1859.4929      267.1266       308.77035      0.17505314   
   1352000   474.70329      1391.0638      1865.7671      217.12742      311.32294      0.17342281   
   1353000   499.21601      1400.9239      1900.1399      114.51347      313.52965      0.17220764   
   1354000   480.84779      1358.7702      1839.618       102.59257      304.09555      0.17408699   
   1355000   482.38663      1330.7683      1813.1549      134.53349      297.82868      0.17765564   
   1356000   464.44938      1361.6444      1826.0938      112.99903      304.73882      0.18233827   
   1357000   465.99125      1392.9468      1858.938       129.07836      311.74434      0.18963683   
   1358000   472.11726      1400.8973      1873.0146      150.2771       313.5237       0.19035148   
   1359000   463.31485      1367.8652      1831.18        134.04829      306.13104      0.184682     
   1360000   442.7644       1358.7729      1801.5373      229.9932       304.09617      0.17957064   
   1361000   477.5968       1357.8297      1835.4265      238.00457      303.88507      0.17607436   
   1362000   491.72434      1334.9889      1826.7132      192.32165      298.77326      0.17291708   
   1363000   497.42496      1350.0241      1847.4491      177.27682      302.13816      0.1717415    
   1364000   469.63298      1336.4608      1806.0938      157.38951      299.10268      0.17187609   
   1365000   498.01141      1293.2929      1791.3043      131.55293      289.4416       0.17200012   
   1366000   453.70956      1296.9221      1750.6316      159.70198      290.25383      0.17033601   
   1367000   468.54639      1333.4046      1801.951       185.44895      298.41868      0.16578402   
   1368000   495.26227      1332.6521      1827.9144      198.64652      298.25027      0.16055593   
   1369000   488.74823      1332.0173      1820.7656      150.35213      298.10821      0.15538529   
   1370000   497.19664      1321.6083      1818.805       151.65331      295.77865      0.15302723   
   1371000   507.25499      1358.2104      1865.4654      152.33477      303.97027      0.15891144   
   1372000   511.88315      1361.3902      1873.2734      110.30267      304.68193      0.16618689   
   1373000   482.32332      1382.9572      1865.2805      50.68334       309.50866      0.17002808   
   1374000   502.31988      1339.1914      1841.5113      123.25619      299.71379      0.17211215   
   1375000   484.51757      1367.3968      1851.9144      144.03165      306.02621      0.17187645   
   1376000   514.98225      1358.9227      1873.9049      176.54885      304.12968      0.17023031   
   1377000   491.73155      1366.8643      1858.5959      203.33595      305.90704      0.1653734    
   1378000   492.22723      1339.5557      1831.7829      192.00391      299.79531      0.16130298   
   1379000   505.46884      1352.3358      1857.8047      149.53005      302.65553      0.15970228   
   1380000   510.56908      1343.9247      1854.4938      250.2023       300.7731       0.16252795   
   1381000   501.32806      1370.2486      1871.5767      246.31122      306.66446      0.16945917   
   1382000   477.11948      1371.6563      1848.7758      185.32647      306.97951      0.17675157   
   1383000   470.752        1309.4018      1780.1538      158.42329      293.0468       0.17991182   
   1384000   457.0906       1324.8799      1781.9705      180.13602      296.51083      0.17987302   
   1385000   479.85995      1327.3812      1807.2412      102.63672      297.07065      0.17307143   
   1386000   462.704        1321.9428      1784.6468      84.272523      295.85352      0.16756432   
   1387000   458.10543      1307.6089      1765.7143      77.549961      292.64556      0.16636067   
   1388000   489.62481      1269.9423      1759.5671      68.743446      284.21569      0.16967454   
   1389000   488.14802      1303.4127      1791.5607      122.97577      291.70643      0.17547044   
   1390000   510.49781      1310.9718      1821.4696      146.39449      293.39817      0.17656968   
   1391000   452.42768      1323.6168      1776.0445      137.32345      296.22815      0.17298534   
   1392000   464.50748      1338.8142      1803.3217      175.62441      299.62936      0.17045355   
   1393000   488.3745       1322.7984      1811.1729      246.97735      296.04501      0.16956741   
   1394000   473.14113      1320.5078      1793.6489      308.98027      295.53235      0.17164007   
   1395000   464.71322      1330.1164      1794.8296      297.49731      297.68279      0.18143723   
   1396000   448.30448      1364.2217      1812.5262      206.12613      305.31562      0.18743749   
   1397000   475.80042      1365.0905      1840.8909      119.57993      305.51005      0.18697233   
   1398000   466.08715      1384.3575      1850.4447      97.116137      309.82205      0.1844988    
   1399000   489.76444      1388.0975      1877.8619      146.06572      310.65906      0.18176818   
   1400000   493.80357      1364.4677      1858.2713      203.53392      305.37068      0.17667916   
   1401000   521.3871       1342.6755      1864.0626      183.73627      300.49353      0.1704715    
   1402000   478.79729      1349.1744      1827.9717      141.58179      301.94799      0.16888424   
   1403000   494.10013      1350.0021      1844.1023      108.50476      302.13325      0.17239109   
   1404000   486.82663      1378.0642      1864.8908      146.39         308.4136       0.17736758   
   1405000   496.60665      1384.9751      1881.5817      166.9302       309.96026      0.17723054   
   1406000   470.03218      1383.4595      1853.4917      179.19546      309.62107      0.1725247    
   1407000   500.10866      1360.6722      1860.7809      149.24391      304.52123      0.1678213    
   1408000   468.89         1338.9451      1807.8351      226.91157      299.65866      0.16685093   
   1409000   472.35949      1321.7685      1794.128       201.31075      295.8145       0.16697375   
   1410000   495.95093      1343.9363      1839.8873      225.7154       300.77571      0.16803597   
   1411000   483.64999      1327.4936      1811.1436      208.56918      297.0958       0.17089491   
   1412000   478.50121      1340.1529      1818.6542      209.50685      299.92898      0.17693477   
   1413000   484.66476      1346.9596      1831.6243      238.51685      301.45232      0.17923968   
   1414000   477.21869      1380.0031      1857.2218      166.58368      308.84753      0.17890839   
   1415000   485.12936      1392.1787      1877.308       117.8831       311.57244      0.17750559   
   1416000   487.20612      1398.8456      1886.0517      172.76427      313.06451      0.17721347   
   1417000   490.00517      1368.2524      1858.2576      214.35238      306.2177       0.17766658   
   1418000   479.96187      1338.414       1818.3759      219.95336      299.5398       0.17598281   
   1419000   479.71119      1339.4717      1819.1829      150.30974      299.77651      0.17273338   
   1420000   466.98144      1350.1999      1817.1813      121.20397      302.17751      0.17102054   
   1421000   493.87824      1369.7897      1863.6679      75.455207      306.56175      0.17452273   
   1422000   489.61749      1286.8393      1776.4568      28.375157      287.99728      0.18235827   
   1423000   451.76145      1293.0774      1744.8388      38.399571      289.39337      0.18675429   
   1424000   459.66354      1330.9704      1790.6339      77.01109       297.8739       0.18958239   
   1425000   472.18722      1318.864       1791.0512      116.29119      295.16447      0.19003486   
   1426000   477.92862      1342.3711      1820.2997      141.62821      300.4254       0.18493253   
   1427000   477.93463      1307.9042      1785.8388      202.64614      292.71163      0.17791471   
   1428000   491.60102      1318.2197      1809.8208      184.94803      295.02028      0.17523854   
   1429000   484.65116      1323.6613      1808.3124      104.45784      296.2381       0.17555056   
   1430000   484.36819      1337.8968      1822.265       105.31349      299.42406      0.1784398    
   1431000   469.88936      1271.9992      1741.8885      111.49674      284.67602      0.18053405   
   1432000   473.19213      1303.0258      1776.2179      123.46628      291.61985      0.18218313   
   1433000   474.44846      1333.6609      1808.1094      144.11649      298.47606      0.1783218    
   1434000   477.88087      1352.6935      1830.5744      179.47179      302.73559      0.17249163   
   1435000   476.26087      1396.8728      1873.1337      193.14685      312.623        0.16881341   
   1436000   469.74168      1358.0117      1827.7534      256.48282      303.92582      0.16882293   
   1437000   483.78675      1380.6036      1864.3904      270.15962      308.98193      0.1715983    
   1438000   472.14619      1348.5717      1820.7179      280.63625      301.81312      0.1750052    
   1439000   478.43571      1323.9378      1802.3735      227.13445      296.29999      0.17636861   
   1440000   507.98503      1380.3842      1888.3692      159.11352      308.93282      0.17457633   
   1441000   496.64194      1383.7304      1880.3723      77.506068      309.6817       0.17000556   
   1442000   476.1015       1371.7482      1847.8497      55.244351      307.00007      0.16475087   
   1443000   538.07261      1346.2003      1884.2729      79.821586      301.28238      0.16179853   
   1444000   503.30516      1366.9098      1870.215       142.999        305.91722      0.16518196   
   1445000   497.04538      1373.6678      1870.7131      160.83331      307.42966      0.17479264   
   1446000   489.82636      1350.683       1840.5093      185.58861      302.28562      0.17942583   
   1447000   467.4004       1312.8338      1780.2342      143.39776      293.8149       0.17925874   
   1448000   502.71032      1320.4968      1823.2071      143.24396      295.52989      0.17669703   
   1449000   484.66488      1366.2505      1850.9154      125.34648      305.76967      0.17340958   
   1450000   475.45548      1349.8053      1825.2607      84.210788      302.08919      0.16918346   
   1451000   508.39628      1360.4843      1868.8806      104.95794      304.47917      0.17094537   
   1452000   464.20716      1376.9986      1841.2058      79.709175      308.17512      0.17716468   
   1453000   471.98411      1394.8262      1866.8103      150.01956      312.16496      0.18254721   
   1454000   477.62715      1362.6898      1840.317       140.58007      304.97278      0.18200525   
   1455000   501.19066      1351.0967      1852.2873      136.31852      302.37821      0.18005076   
   1456000   464.88897      1357.3777      1822.2667      196.55502      303.78392      0.17799117   
   1457000   501.65744      1372.4672      1874.1246      218.6928       307.16098      0.1783179    
   1458000   465.87089      1359.0959      1824.9668      195.0012       304.16846      0.17799245   
   1459000   505.8943       1343.4307      1849.325       149.99023      300.66254      0.17550659   
   1460000   498.19256      1347.0481      1845.2407      107.01233      301.47213      0.16854992   
   1461000   496.4284       1331.119       1827.5474      75.805462      297.90717      0.16600166   
   1462000   498.16054      1330.7976      1828.9582      81.669033      297.83525      0.17176412   
   1463000   473.51213      1292.9253      1766.4375      125.79397      289.35934      0.18234975   
   1464000   495.13657      1315.0349      1810.1715      124.13349      294.30752      0.18657871   
   1465000   461.4581       1306.5119      1767.97        167.23077      292.40004      0.18432108   
   1466000   458.17438      1337.4224      1795.5968      232.25656      299.31787      0.18312908   
   1467000   458.82398      1305.1848      1764.0088      256.85776      292.10303      0.18403999   
   1468000   451.31417      1343.2833      1794.5975      257.58209      300.62957      0.18519597   
   1469000   475.26191      1335.564       1810.8259      188.55453      298.90197      0.18043551   
   1470000   482.93623      1309.5842      1792.5204      60.970341      293.08763      0.17127145   
   1471000   459.30408      1238.2427      1697.5468      30.449795      277.12126      0.16873995   
   1472000   496.06019      1311.804       1807.8642      100.76144      293.58443      0.1696402    
   1473000   475.6885       1333.4375      1809.126       119.38975      298.42605      0.1685883    
   1474000   493.39167      1316.3599      1809.7516      167.53967      294.60404      0.17060202   
   1475000   479.16315      1289.9892      1769.1524      216.69308      288.70224      0.17078195   
   1476000   464.87999      1308.8506      1773.7306      191.80491      292.92345      0.17250321   
   1477000   464.82572      1327.8817      1792.7074      129.18506      297.18265      0.17956121   
   1478000   475.88701      1323.8195      1799.7065      82.281621      296.27352      0.18668956   
   1479000   458.71553      1310.3487      1769.0642      74.271935      293.25872      0.18748599   
   1480000   449.10858      1330.9438      1780.0523      170.20446      297.86794      0.18221466   
   1481000   461.96686      1317.3859      1779.3527      249.87023      294.83366      0.17881804   
   1482000   470.46231      1314.4674      1784.9297      285.4301       294.18051      0.17836361   
   1483000   462.51411      1321.9877      1784.5018      259.49832      295.86356      0.17743838   
   1484000   477.56206      1339.6497      1817.2117      193.30028      299.81635      0.17591199   
   1485000   479.92612      1336.818       1816.7441      116.52805      299.1826       0.17231257   
   1486000   490.09455      1336.773       1826.8675      104.92208      299.17254      0.17091264   
   1487000   486.74892      1373.0363      1859.7852      120.55251      307.28834      0.17321477   
   1488000   508.38816      1345.2748      1853.663       174.37632      301.07527      0.17996353   
   1489000   496.5947       1367.9423      1864.537       160.45314      306.1483       0.18715485   
   1490000   450.76118      1329.8193      1780.5805      209.97008      297.61629      0.19147154   
   1491000   466.71828      1342.6443      1809.3626      287.43071      300.48655      0.19170103   
   1492000   477.12551      1351.4256      1828.5511      274.91808      302.45182      0.18428327   
   1493000   494.52447      1371.8216      1866.346       192.49356      307.01648      0.17802716   
   1494000   493.78464      1338.7726      1832.5573      157.56032      299.62006      0.17672266   
   1495000   482.99157      1365.9353      1848.9268      132.83875      305.69912      0.17728905   
   1496000   491.85547      1368.8454      1860.7008      122.52396      306.35041      0.17746283   
   1497000   474.87903      1341.9661      1816.8451      127.8512       300.33476      0.17600628   
   1498000   483.51154      1358.8334      1842.3449      163.4828       304.1097       0.17565563   
   1499000   498.96161      1350.2689      1849.2305      193.95531      302.19294      0.17881521   
   1500000   466.90077      1380.144       1847.0448      222.80184      308.87906      0.18546964   
   1501000   487.17453      1400.8649      1888.0394      180.07217      313.51644      0.19010738   
   1502000   458.80525      1366.2583      1825.0635      178.46411      305.77141      0.19047515   
   1503000   457.33663      1370.1036      1827.4403      168.04059      306.632        0.1864793    
   1504000   482.15723      1336.959       1819.1162      176.48305      299.21416      0.17806531   
   1505000   473.06507      1362.5255      1835.5905      158.12591      304.93599      0.17324668   
   1506000   498.96241      1337.8745      1836.8369      153.738        299.41906      0.17275468   
   1507000   485.28657      1354.2931      1839.5797      86.139898      303.09358      0.17506145   
   1508000   486.19234      1333.945       1820.1373      73.245527      298.53963      0.17824002   
   1509000   466.9433       1389.1484      1856.0918      103.07521      310.89427      0.18003269   
   1510000   471.81049      1344.1572      1815.9677      126.91038      300.82514      0.17870545   
   1511000   481.90437      1335.2045      1817.1089      169.98188      298.8215       0.178834     
   1512000   451.5664       1317.4009      1768.9673      193.70166      294.83701      0.1781752    
   1513000   475.58349      1358.5935      1834.177       177.38188      304.05602      0.17417287   
   1514000   472.79508      1379.1297      1851.9248      158.47036      308.65206      0.17134263   
   1515000   485.36889      1345.1747      1830.5436      152.56591      301.05287      0.17127238   
   1516000   481.30884      1328.0052      1809.314       146.00472      297.21028      0.17035417   
   1517000   470.31837      1357.3897      1827.7081      152.8075       303.78661      0.17219239   
   1518000   475.90434      1367.0996      1843.0039      141.25393      305.9597       0.17562342   
   1519000   479.2691       1390.3286      1869.5977      140.30034      311.1584       0.18081089   
   1520000   449.90909      1382.4185      1832.3276      146.5591       309.38809      0.18735408   
   1521000   467.49578      1343.7345      1811.2303      138.67196      300.73054      0.18856152   
   1522000   495.49919      1338.6519      1834.1511      119.6905       299.59304      0.1855526    
   1523000   472.56693      1361.0065      1833.5735      116.36852      304.59606      0.18043055   
   1524000   490.87782      1359.2697      1850.1475      157.41588      304.20735      0.17828946   
   1525000   490.29359      1341.368       1831.6616      173.26693      300.20092      0.17901555   
   1526000   480.84463      1379.1773      1860.022       196.70601      308.66272      0.17939194   
   1527000   483.45487      1354.8166      1838.2715      197.94134      303.21074      0.18020852   
   1528000   467.19952      1354.7141      1821.9136      165.39088      303.18779      0.17903443   
   1529000   494.38254      1359.0361      1853.4186      181.79542      304.15507      0.17654392   
   1530000   473.10778      1358.8052      1831.913       150.21194      304.10339      0.17240655   
   1531000   473.05646      1347.5734      1820.6299      166.37991      301.5897       0.16930592   
   1532000   496.30746      1321.1824      1817.4899      207.82933      295.68333      0.16944845   
   1533000   463.01963      1354.7264      1817.7461      251.25625      303.19055      0.1741212    
   1534000   461.13788      1363.5593      1824.6971      255.8293       305.16736      0.18028983   
   1535000   496.62502      1442.8625      1939.4875      347.80142      322.91559      0.18627302   
   1536000   492.92144      1363.5506      1856.472       286.49589      305.16542      0.18552047   
   1537000   480.41645      1354.1201      1834.5366      258.78506      303.05486      0.18171944   
   1538000   482.16325      1360.335       1842.4983      192.42779      304.44577      0.17735338   
   1539000   488.33777      1370.9488      1859.2866      156.27704      306.82116      0.17352587   
   1540000   471.90888      1351.6507      1823.5596      146.22203      302.5022       0.1728337    
   1541000   507.9284       1321.2402      1829.1686      116.39702      295.69627      0.17339771   
   1542000   478.43966      1334.1253      1812.565       137.21557      298.57998      0.17518588   
   1543000   481.72495      1356.8275      1838.5524      164.17878      303.66078      0.17803353   
   1544000   482.9218       1324.7734      1807.6952      204.01375      296.487        0.18081903   
   1545000   456.58923      1300.3066      1756.8958      196.04433      291.01128      0.18243902   
   1546000   451.69962      1344.4628      1796.1625      170.91887      300.89354      0.18333345   
   1547000   446.20902      1330.2689      1776.478       107.39676      297.71692      0.18072472   
   1548000   479.12172      1296.1314      1775.2531      25.273286      290.07686      0.17561091   
   1549000   491.27055      1266.9442      1758.2148      41.103472      283.54471      0.17041288   
   1550000   465.45801      1313.6643      1779.1224      136.57914      294.00078      0.16871892   
   1551000   478.2601       1350.8697      1829.1298      168.70099      302.32741      0.17032811   
   1552000   474.29258      1338.7789      1813.0715      202.93808      299.62146      0.17180216   
   1553000   481.48693      1349.9228      1831.4097      195.87328      302.11548      0.17561599   
   1554000   480.46402      1357.4871      1837.9511      199.23457      303.80839      0.18196843   
   1555000   489.40006      1359.6443      1849.0443      118.56507      304.29118      0.18385402   
   1556000   464.18645      1356.1771      1820.3636      71.8465        303.51522      0.18221308   
   1557000   496.7589       1396.8601      1893.619       45.886278      312.62015      0.17719108   
   1558000   495.70612      1345.1108      1840.8169      77.845068      301.03855      0.17014776   
   1559000   511.72174      1350.9423      1862.664       125.26128      302.34366      0.16549226   
   1560000   475.14019      1366.0502      1841.1904      184.11551      305.72484      0.16568148   
   1561000   490.46969      1363.1061      1853.5758      202.37686      305.06595      0.16811449   
   1562000   519.44983      1352.1222      1871.572       196.34724      302.60772      0.17223745   
   1563000   471.77154      1370.7449      1842.5164      197.38503      306.77552      0.17641255   
   1564000   454.3365       1413.1615      1867.498       182.86567      316.26844      0.17917085   
   1565000   497.93172      1341.6518      1839.5835      179.40845      300.26442      0.1803649    
   1566000   451.10537      1377.2179      1828.3232      208.67895      308.22419      0.17934993   
   1567000   508.13465      1415.2245      1923.3592      312.62831      316.73016      0.17884548   
   1568000   514.77781      1339.2001      1853.9779      224.43951      299.71573      0.17471603   
   1569000   479.08319      1352.6461      1831.7293      194.37497      302.72498      0.17165629   
   1570000   465.81465      1361.1538      1826.9685      164.8937       304.62902      0.17063995   
   1571000   488.79285      1339.5199      1828.3127      96.754013      299.78729      0.17025269   
   1572000   502.54219      1337.3453      1839.8875      58.633184      299.30063      0.16800829   
   1573000   522.34527      1333.2672      1855.6124      97.270943      298.38793      0.16603518   
   1574000   468.47803      1343.0043      1811.4823      224.0518       300.56712      0.16973876   
   1575000   488.79518      1344.7264      1833.5216      277.96936      300.95252      0.176165     
   1576000   497.64502      1328.6782      1826.3232      292.81583      297.3609       0.1811272    
   1577000   473.53337      1384.9673      1858.5007      245.36698      309.95853      0.18390784   
   1578000   463.79467      1394.7486      1858.5432      201.87104      312.14759      0.18356041   
   1579000   483.56337      1351.5897      1835.153       104.25753      302.48854      0.17706991   
   1580000   495.35054      1347.6606      1843.0111      31.313609      301.6092       0.17263923   
   1581000   485.18407      1352.2812      1837.4653      97.313593      302.64332      0.17272415   
   1582000   495.1315       1317.6798      1812.8113      124.72587      294.89943      0.1731019    
   1583000   483.38537      1291.5664      1774.9517      180.55113      289.0552       0.17538437   
   1584000   474.07629      1328.5832      1802.6595      244.27976      297.33965      0.17726187   
   1585000   479.02885      1294.792       1773.8209      206.0939       289.77712      0.17673448   
   1586000   464.27503      1351.5026      1815.7776      192.82283      302.46905      0.17523836   
   1587000   495.60459      1361.3092      1856.9138      167.03739      304.6638       0.17001321   
   1588000   528.08574      1334.9247      1863.0104      144.95646      298.75888      0.1670164    
   1589000   495.78326      1360.2974      1856.0807      161.90902      304.43736      0.16812482   
   1590000   497.93392      1378.7777      1876.7116      123.48574      308.57328      0.17437666   
   1591000   498.74388      1363.9344      1862.6782      89.450641      305.25131      0.18044233   
   1592000   465.98671      1374.5621      1840.5489      103.2671       307.62983      0.18444078   
   1593000   462.29676      1360.6382      1822.935       63.110434      304.51362      0.18702773   
   1594000   457.65522      1357.8052      1815.4604      72.885596      303.87959      0.18753118   
   1595000   448.96012      1356.0108      1804.971       89.218448      303.47801      0.18513961   
   1596000   474.60191      1345.9671      1820.5691      151.33978      301.23021      0.18068944   
   1597000   494.94819      1318.3605      1813.3087      226.2137       295.05179      0.17351661   
   1598000   494.80714      1323.3182      1818.1253      252.2135       296.16132      0.16918541   
   1599000   485.56037      1315.0822      1800.6425      199.28187      294.31809      0.16922495   
   1600000   488.26878      1341.956       1830.2248      151.75668      300.3325       0.17196489   
   1601000   454.49083      1362.2335      1816.7243      165.90164      304.87064      0.17682739   
   1602000   465.46715      1375.5437      1841.0109      133.97265      307.84951      0.18008951   
   1603000   496.99658      1279.732       1776.7285      151.59791      286.40664      0.17984204   
   1604000   482.81435      1310.9762      1793.7905      197.55649      293.39916      0.17921588   
   1605000   479.01184      1332.7004      1811.7122      184.62088      298.26108      0.17637987   
   1606000   472.86615      1321.8983      1794.7645      195.61528      295.84356      0.17473753   
   1607000   496.37184      1332.6728      1829.0446      142.58834      298.2549       0.17393809   
   1608000   482.29997      1315.3769      1797.6769      127.26001      294.38405      0.17564914   
   1609000   496.56543      1325.0615      1821.6269      93.803121      296.55149      0.17846027   
   1610000   494.05929      1345.7948      1839.8541      127.95221      301.19164      0.17990344   
   1611000   470.87504      1368.8927      1839.7677      110.44454      306.36099      0.17787656   
   1612000   482.43728      1344.0159      1826.4532      81.924349      300.79353      0.1670235    
   1613000   487.10336      1376.3786      1863.4819      110.70116      308.03635      0.15916974   
   1614000   494.73705      1366.4333      1861.1704      150.48547      305.81058      0.15956164   
   1615000   517.79713      1367.4742      1885.2713      183.41644      306.04353      0.16549465   
   1616000   474.18212      1341.4902      1815.6723      249.03251      300.22827      0.17279659   
   1617000   459.20387      1289.9867      1749.1906      217.33678      288.70168      0.17581065   
   1618000   478.24793      1298.2203      1776.4682      182.80814      290.54436      0.17775927   
   1619000   466.38072      1315.0998      1781.4805      134.33862      294.32204      0.18059445   
   1620000   481.81361      1296.8131      1778.6268      64.829142      290.22944      0.18033638   
   1621000   489.98321      1300.5449      1790.5281      57.030836      291.06461      0.17715878   
   1622000   503.43559      1368.7756      1872.2112      63.045628      306.33478      0.17440953   
   1623000   489.33974      1348.1875      1837.5273      105.26054      301.72714      0.17434954   
   1624000   496.21686      1348.3142      1844.531       124.23844      301.75548      0.17708251   
   1625000   461.15564      1379.0989      1840.2545      202.37152      308.64516      0.18460614   
   1626000   452.12941      1310.4305      1762.5599      203.57936      293.27703      0.19039035   
   1627000   449.91845      1322.595       1772.5135      254.32427      295.99948      0.18919385   
   1628000   498.8668       1324.4535      1823.3203      295.65364      296.41542      0.18157908   
   1629000   495.13521      1348.4839      1843.6191      269.64938      301.79347      0.17612556   
   1630000   479.02152      1343.3326      1822.3541      214.80374      300.6406       0.17450678   
   1631000   464.23075      1346.8881      1811.1189      138.9795       301.43632      0.17275563   
   1632000   486.09154      1339.0301      1825.1216      77.93304       299.67767      0.17016585   
   1633000   455.43997      1290.2339      1745.6738      126.17477      288.75699      0.17021547   
   1634000   467.11029      1309.788       1776.8983      172.91728      293.13325      0.17427251   
   1635000   486.15893      1329.1296      1815.2885      247.41056      297.46194      0.17870638   
   1636000   460.60118      1367.9819      1828.583       278.94419      306.15715      0.18132422   
   1637000   491.89111      1332.6344      1824.5255      257.27468      298.24631      0.17968307   
   1638000   499.3137       1351.5642      1850.8779      212.35541      302.48285      0.17023394   
   1639000   497.90156      1385.3467      1883.2482      199.10868      310.04342      0.16435629   
   1640000   538.85813      1392.6273      1931.4854      173.32066      311.67285      0.16524598   
   1641000   505.93476      1354.1015      1860.0362      169.33138      303.05068      0.16793538   
   1642000   479.24467      1404.859       1884.1037      218.09904      314.41034      0.1731965    
   1643000   487.88944      1391.2992      1879.1887      252.05008      311.37562      0.17751292   
   1644000   462.55927      1367.665       1830.2243      203.29717      306.08625      0.17914473   
   1645000   478.03466      1366.4736      1844.5083      207.99881      305.8196       0.18111844   
   1646000   468.86225      1348.4801      1817.3423      168.37146      301.7926       0.18094791   
   1647000   494.33981      1296.0855      1790.4253      163.60514      290.06658      0.1778224    
   1648000   473.69577      1332.3837      1806.0794      191.17018      298.1902       0.17207798   
   1649000   473.67881      1332.2488      1805.9276      175.85074      298.16002      0.16483171   
   1650000   486.66668      1312.3375      1799.0042      151.17906      293.70383      0.16119703   
   1651000   473.43616      1306.1222      1779.5584      136.70924      292.31283      0.16244374   
   1652000   481.88315      1345.8645      1827.7477      129.3936       301.20724      0.16778367   
   1653000   495.55385      1318.4502      1814.004       163.31337      295.07186      0.17176495   
   1654000   506.91998      1344.9865      1851.9064      150.86862      301.01073      0.17214259   
   1655000   504.19897      1379.1916      1883.3905      133.18424      308.6659       0.17284639   
   1656000   489.78629      1386.8638      1876.6501      121.71583      310.38296      0.17354754   
   1657000   442.59936      1340.5881      1783.1874      106.44858      300.02636      0.17503943   
   1658000   481.97824      1333.731       1815.7092      71.69035       298.49173      0.1771879    
   1659000   455.82857      1338.2518      1794.0804      60.14232       299.5035       0.17551632   
   1660000   478.94866      1321.7768      1800.7254      76.274461      295.81636      0.17243509   
   1661000   498.56418      1334.0299      1832.5941      93.620842      298.55864      0.16384425   
   1662000   510.13835      1287.5392      1797.6776      130.73847      288.15392      0.1588836    
   1663000   475.88099      1344.5006      1820.3816      185.09431      300.902        0.15960518   
   1664000   489.78365      1325.8408      1815.6245      178.06081      296.7259       0.16406497   
   1665000   458.23168      1324.3186      1782.5503      234.19706      296.38522      0.1691033    
   1666000   476.87463      1317.6308      1794.5054      170.5247       294.88848      0.17295469   
   1667000   492.48984      1288.991       1781.4808      94.418779      288.47882      0.17763467   
   1668000   476.77685      1333.6687      1810.4455      54.076237      298.47778      0.18117491   
   1669000   451.79328      1358.6416      1810.4349      77.529057      304.06677      0.18353702   
   1670000   455.46928      1335.4201      1790.8894      113.83892      298.86977      0.1825193    
   1671000   456.31972      1357.7066      1814.0264      162.67271      303.85753      0.18017282   
   1672000   453.68648      1330.2228      1783.9093      200.38537      297.70659      0.17841164   
   1673000   445.06487      1374.1865      1819.2513      169.07195      307.54575      0.18005051   
   1674000   462.6698       1366.1215      1828.7913      164.78721      305.7408       0.18406216   
   1675000   482.12728      1356.9215      1839.0487      152.04442      303.68181      0.18976099   
   1676000   454.79888      1347.8854      1802.6843      165.63584      301.65952      0.19116438   
   1677000   454.48908      1331.3889      1785.8779      98.015202      297.96756      0.18563458   
   1678000   489.0199       1327.3551      1816.375       32.992975      297.06481      0.17424877   
   1679000   486.32925      1316.2122      1802.5414      11.377342      294.57099      0.17106024   
   1680000   470.68253      1334.5786      1805.2611      106.54951      298.68143      0.17320678   
   1681000   486.71542      1325.7324      1812.4479      224.37011      296.70164      0.17714334   
   1682000   471.90771      1319.9275      1791.8352      286.07417      295.40249      0.18078387   
   1683000   486.88833      1349.2527      1836.141       275.53072      301.96552      0.18171704   
   1684000   450.53976      1321.9528      1772.4926      238.25395      295.85576      0.1813328    
   1685000   475.20721      1308.5218      1783.7291      149.2249       292.84988      0.18098043   
   1686000   467.52153      1307.9821      1775.5036      101.24719      292.72907      0.18229989   
   1687000   453.92384      1332.3567      1786.2805      103.8053       298.18416      0.18728787   
   1688000   449.83828      1312.0505      1761.8888      73.403847      293.63961      0.19215267   
   1689000   449.56649      1280.5194      1730.0859      69.32281       286.58287      0.19273388   
   1690000   428.32867      1301.3895      1729.7182      101.73078      291.25364      0.19014432   
   1691000   465.20788      1352.9479      1818.1558      91.295145      302.79252      0.18345705   
   1692000   491.2233       1361.9408      1853.1641      91.303332      304.80515      0.17811441   
   1693000   478.50388      1368.2647      1846.7686      119.41497      306.22044      0.17687578   
   1694000   482.95762      1339.787       1822.7447      196.07133      299.84709      0.18045459   
   1695000   497.15816      1359.8494      1857.0075      171.8155       304.33708      0.18347283   
   1696000   468.32673      1335.6699      1803.9967      164.36962      298.92567      0.18401085   
   1697000   465.35583      1329.1017      1794.4575      75.04205       297.45568      0.18476543   
   1698000   484.9226       1338.5764      1823.499       85.086693      299.57614      0.18574651   
   1699000   488.16158      1360.6436      1848.8052      113.16207      304.51483      0.18159964   
   1700000   493.40231      1377.8279      1871.2302      154.42936      308.36072      0.17726205   
   1701000   511.38449      1386.827       1898.2115      163.31015      310.37473      0.17386999   
   1702000   496.05448      1372.3892      1868.4437      180.47072      307.14353      0.17285095   
   1703000   487.53246      1365.0201      1852.5525      177.45134      305.4943       0.17193042   
   1704000   486.59869      1368.9157      1855.5144      171.15208      306.36615      0.17392919   
   1705000   475.90225      1346.3587      1822.2609      172.51375      301.31783      0.1760039    
   1706000   496.20862      1370.8186      1867.0272      198.98016      306.79202      0.1763526    
   1707000   489.06738      1347.9139      1836.9813      150.97662      301.6659       0.17359299   
   1708000   491.16746      1351.6952      1842.8626      142.08058      302.51216      0.16993064   
   1709000   511.63614      1346.6893      1858.3254      166.22405      301.39183      0.16982751   
   1710000   484.5869       1357.6917      1842.2786      180.82054      303.8542       0.17223891   
   1711000   517.90514      1348.3395      1866.2447      192.29585      301.76116      0.17533891   
   1712000   432.35265      1331.5127      1763.8654      235.17971      297.99528      0.18037292   
   1713000   454.65252      1304.1354      1758.788       273.3827       291.86819      0.18665412   
   1714000   464.13263      1316.3453      1780.4779      244.59081      294.60078      0.18550292   
   1715000   484.84504      1301.5103      1786.3553      119.05171      291.28067      0.17997465   
   1716000   482.11311      1271.6147      1753.7278      42.215079      284.58997      0.17597311   
   1717000   470.17864      1303.6863      1773.8649      81.158069      291.76767      0.17517193   
   1718000   486.37712      1321.3929      1807.77        131.99814      295.73044      0.1746139    
   1719000   458.94421      1318.9996      1777.9438      169.62386      295.19481      0.17228858   
   1720000   482.8833       1282.971       1765.8543      136.84243      287.13155      0.16887804   
   1721000   467.17036      1311.3257      1778.4961      179.94185      293.47738      0.1693161    
   1722000   466.61007      1326.3316      1792.9417      171.37932      296.83574      0.17501883   
   1723000   470.92138      1327.5288      1798.4502      186.98735      297.10367      0.1802012    
   1724000   468.13023      1318.6829      1786.8132      219.57101      295.12395      0.18178055   
   1725000   460.39657      1353.4522      1813.8487      251.79839      302.90537      0.18106525   
   1726000   477.77172      1350.1564      1827.9281      233.93471      302.16777      0.178647     
   1727000   457.67599      1379.1779      1836.8539      214.89625      308.66285      0.17666131   
   1728000   494.47493      1420.5431      1915.0181      172.19651      317.92047      0.17608388   
   1729000   502.3856       1347.5179      1849.9035      136.16149      301.57727      0.17717882   
   1730000   491.04294      1363.0839      1854.1268      175.52714      305.06097      0.17837414   
   1731000   480.44527      1407.637       1888.0822      213.10961      315.03204      0.17897591   
   1732000   480.12107      1361.63        1841.751       192.29663      304.73558      0.1793334    
   1733000   484.87477      1338.3463      1823.221       176.94297      299.52464      0.178173     
   1734000   486.06217      1341.4323      1827.4944      147.94507      300.21529      0.17529089   
   1735000   476.29993      1334.0795      1810.3795      103.99305      298.56974      0.17449846   
   1736000   495.60926      1334.5514      1830.1607      108.62912      298.67535      0.17782402   
   1737000   456.96041      1338.914       1795.8744      127.29445      299.65171      0.18006489   
   1738000   463.21736      1338.8495      1802.0668      191.30089      299.63726      0.18286421   
   1739000   490.51118      1317.6487      1808.1599      281.52141      294.89249      0.18554136   
   1740000   463.67579      1325.059       1788.7348      217.34401      296.55092      0.18380465   
   1741000   482.33281      1315.2         1797.5328      143.38309      294.34446      0.17678615   
   1742000   475.01004      1370.5465      1845.5565      77.103596      306.73111      0.17294395   
   1743000   492.18445      1372.2902      1864.4746      73.482186      307.12136      0.17332206   
   1744000   475.29814      1379.3751      1854.6732      81.375814      308.70698      0.17461635   
   1745000   477.77208      1348.3062      1826.0783      150.20196      301.75369      0.18041663   
   1746000   465.07706      1360.1006      1825.1777      166.1207       304.39331      0.18863879   
   1747000   460.89474      1404.0594      1864.9542      180.80715      314.23138      0.1933461    
   1748000   483.01229      1379.8447      1862.857       162.82787      308.81208      0.19042416   
   1749000   495.99731      1374.4142      1870.4115      143.9434       307.59672      0.18146082   
   1750000   491.89851      1357.2566      1849.1551      116.49507      303.7568       0.17809764   
   1751000   485.45366      1339.6333      1825.087       169.68841      299.81268      0.1793346    
   1752000   480.71504      1375.6916      1856.4066      223.21531      307.88261      0.17944863   
   1753000   483.89882      1396.5034      1880.4022      217.74828      312.54033      0.17488785   
   1754000   499.98779      1386.3748      1886.3626      174.62366      310.27352      0.16970446   
   1755000   507.20122      1361.3604      1868.5616      166.73632      304.67526      0.16770713   
   1756000   476.20904      1381.4453      1857.6543      162.08295      309.17029      0.16897801   
   1757000   471.21039      1384.5969      1855.8072      201.47829      309.87562      0.17340631   
   1758000   499.74596      1375.347       1875.093       212.001        307.80548      0.17696882   
   1759000   472.96507      1351.2059      1824.171       199.16336      302.40266      0.17787762   
   1760000   477.89011      1329.9706      1807.8607      181.19337      297.65015      0.17759689   
   1761000   458.03288      1315.2826      1773.3155      73.819911      294.36295      0.17735669   
   1762000   492.10042      1316.3035      1808.4039      39.627522      294.59142      0.17822078   
   1763000   453.69384      1347.9087      1801.6025      126.72272      301.66473      0.17904846   
   1764000   466.53286      1330.5071      1797.04        185.09847      297.77023      0.17750773   
   1765000   503.54521      1330.4124      1833.9576      264.97264      297.74902      0.17609466   
   1766000   502.52414      1323.7565      1826.2807      282.4687       296.25943      0.17183655   
   1767000   490.67942      1364.6581      1855.3375      217.14327      305.41327      0.16810853   
   1768000   506.06762      1353.6688      1859.7364      150.39067      302.95386      0.16783127   
   1769000   491.8837       1324.2034      1816.0871      144.59852      296.35944      0.1711639    
   1770000   503.67043      1309.42        1813.0905      168.88438      293.05089      0.17861577   
   1771000   453.00886      1357.1644      1810.1732      207.76432      303.73617      0.18311778   
   1772000   450.19476      1363.4154      1813.6101      224.79345      305.13516      0.18156201   
   1773000   476.87646      1352.9709      1829.8473      216.23982      302.79766      0.17802075   
   1774000   474.49333      1351.985       1826.4783      172.2069       302.57702      0.17586838   
   1775000   473.34836      1355.6501      1828.9985      166.85049      303.39728      0.17536912   
   1776000   492.61335      1380.7097      1873.3231      136.13718      309.00568      0.17507622   
   1777000   502.86469      1376.0209      1878.8856      121.7741       307.9563       0.17660002   
   1778000   481.03126      1367.3728      1848.4041      139.56502      306.02085      0.17920292   
   1779000   481.72823      1342.1958      1823.924       110.2032       300.38618      0.17674911   
   1780000   514.11087      1315.1383      1829.2492      26.638074      294.33066      0.16836572   
   1781000   452.98915      1300.8253      1753.8144      40.86216       291.12737      0.16476166   
   1782000   465.02663      1320.8829      1785.9095      88.682641      295.6163       0.16829704   
   1783000   491.96923      1308.0104      1799.9796      130.47832      292.73541      0.17270245   
   1784000   465.21313      1350.8895      1816.1027      221.12422      302.33185      0.17561499   
   1785000   451.16735      1363.4956      1814.6629      239.19359      305.1531       0.17590868   
   1786000   495.56645      1327.8201      1823.3865      193.45144      297.16886      0.17546429   
   1787000   498.46465      1306.431       1804.8956      142.85015      292.38193      0.17550678   
   1788000   484.96785      1304.3181      1789.286       90.500766      291.90907      0.17274703   
   1789000   465.35048      1343.9992      1809.3497      81.050235      300.78978      0.16776054   
   1790000   470.24715      1340.0995      1810.3466      167.09303      299.91702      0.16639987   
   1791000   502.23784      1304.5115      1806.7494      239.56205      291.95236      0.16776486   
   1792000   457.27053      1310.4073      1767.6779      268.76746      293.27185      0.17248546   
   1793000   487.80143      1335.9463      1823.7477      189.92196      298.98753      0.1783851    
   1794000   490.3405       1353.4808      1843.8213      133.30812      302.91177      0.17976436   
   1795000   477.4793       1374.2414      1851.7207      77.004176      307.55804      0.17599076   
   1796000   494.74925      1407.2056      1901.9549      49.969296      314.9355       0.16901521   
   1797000   477.33149      1379.8643      1857.1958      76.341899      308.81647      0.16434034   
   1798000   506.03151      1360.5597      1866.5913      108.56456      304.49606      0.16371784   
   1799000   473.17669      1332.8904      1806.0671      206.40004      298.30361      0.16659071   
   1800000   478.90204      1312.3562      1791.2583      240.75199      293.70802      0.17167989   
   1801000   461.31234      1285.416       1746.7284      247.47444      287.67875      0.17757971   
   1802000   480.60475      1310.459       1791.0637      285.52839      293.28341      0.18084499   
   1803000   460.63068      1299.765       1760.3957      176.52748      290.89008      0.17705559   
   1804000   488.45993      1326.7606      1815.2205      67.335946      296.93174      0.17182134   
   1805000   514.43287      1327.6184      1842.0513      51.692291      297.12372      0.1704204    
   1806000   483.0075       1363.8833      1846.8908      97.17787       305.23988      0.1698044    
   1807000   475.18413      1359.2091      1834.3932      184.36406      304.19378      0.17047846   
   1808000   490.06873      1365.1157      1855.1844      306.74029      305.5157       0.17413572   
   1809000   501.55828      1325.8966      1827.4549      378.07222      296.73838      0.17961907   
   1810000   476.26239      1334.1014      1810.3638      314.11331      298.57464      0.18615857   
   1811000   482.21958      1327.9201      1810.1396      195.04145      297.19124      0.19098471   
   1812000   475.18472      1330.8393      1806.024       75.35028       297.84456      0.19061324   
   1813000   481.35534      1361.7696      1843.1249      9.6578907      304.76683      0.18435824   
   1814000   492.56411      1373.2882      1865.8523      32.84398       307.34472      0.1759472    
   1815000   483.47299      1396.4084      1879.8814      102.9506       312.51908      0.1726221    
   1816000   495.80446      1387.4339      1883.2384      201.87169      310.51056      0.17028895   
   1817000   474.64932      1368.6513      1843.3006      327.23497      306.30697      0.17115613   
   1818000   457.68149      1357.0878      1814.7693      308.51851      303.71904      0.17066021   
   1819000   486.56235      1328.6417      1815.204       278.75327      297.35273      0.17154239   
   1820000   490.192        1333.3101      1823.5021      194.95252      298.39753      0.17563099   
   1821000   456.57416      1369.2355      1825.8097      108.81455      306.43772      0.18202243   
   1822000   458.41001      1302.9229      1761.3329      33.231187      291.59682      0.187221     
   1823000   486.95195      1290.1728      1777.1248      31.690045      288.74333      0.18775516   
   1824000   444.08911      1320.703       1764.7921      58.057121      295.57603      0.18297974   
   1825000   464.7366       1330.1758      1794.9124      169.10133      297.69607      0.17702803   
   1826000   494.1615       1335.516       1829.6775      198.76227      298.89123      0.16719864   
   1827000   490.71004      1304.7028      1795.4129      217.76989      291.99517      0.16586041   
   1828000   459.90528      1251.258       1711.1633      260.9575       280.03412      0.17136311   
   1829000   486.31245      1321.6014      1807.9138      282.23974      295.7771       0.1776795    
   1830000   492.9067       1331.9454      1824.8521      264.53163      298.09212      0.17854516   
   1831000   444.02058      1376.6182      1820.6388      266.23217      308.08997      0.17845912   
   1832000   486.03209      1342.7817      1828.8138      133.95325      300.51729      0.1793988    
   1833000   473.20136      1374.3468      1847.5482      92.662474      307.58163      0.18297341   
   1834000   478.22944      1351.9561      1830.1855      8.4483053      302.57055      0.1849099    
   1835000   475.16101      1378.4554      1853.6165      43.772548      308.50116      0.1875734    
   1836000   462.78992      1335.698       1798.4879      44.900535      298.93196      0.18616705   
   1837000   488.40083      1301.7859      1790.1867      83.256823      291.34236      0.17736528   
   1838000   464.56529      1296.9684      1761.5337      88.269388      290.26418      0.17026223   
   1839000   475.00701      1318.9981      1794.0052      163.70804      295.19449      0.16890536   
   1840000   489.75271      1345.4962      1835.2489      191.54771      301.12482      0.16956985   
   1841000   501.31961      1319.675       1820.9946      251.91469      295.34597      0.17190838   
   1842000   466.7569       1339.6557      1806.4127      226.73918      299.81771      0.17323627   
   1843000   493.22228      1298.2362      1791.4585      209.65354      290.54792      0.17361701   
   1844000   504.05339      1292.1495      1796.2029      192.66667      289.18572      0.17518827   
   1845000   498.66973      1272.5819      1771.2516      95.979139      284.80643      0.17609537   
   1846000   479.13629      1297.9952      1777.1315      73.902493      290.494        0.17599865   
   1847000   480.3032       1318.8198      1799.123       78.011557      295.15458      0.17246547   
   1848000   495.32545      1334.0889      1829.4143      116.02193      298.57183      0.16520323   
   1849000   505.32511      1306.8214      1812.1465      204.59119      292.46932      0.1629925    
   1850000   499.89562      1312.219       1812.1146      222.11081      293.6773       0.16398178   
   1851000   493.43158      1327.3716      1820.8032      250.02803      297.0685       0.16863364   
   1852000   462.69952      1307.5547      1770.2542      243.47694      292.63342      0.175181     
   1853000   466.8757       1322.1008      1788.9765      210.38877      295.88886      0.17883806   
   1854000   487.68443      1331.1393      1818.8238      120.40036      297.91171      0.18005535   
   1855000   463.83835      1312.2888      1776.1272      131.26443      293.69293      0.1841362    
   1856000   472.10849      1329.935       1802.0435      171.0241       297.64218      0.18511308   
   1857000   451.60388      1324.4756      1776.0795      218.87845      296.42035      0.18271988   
   1858000   474.41664      1277.4834      1751.9001      259.94599      285.90341      0.17832127   
   1859000   475.93751      1357.6766      1833.6141      231.90914      303.85081      0.17120707   
   1860000   515.95449      1356.4314      1872.3858      201.36334      303.57212      0.16633554   
   1861000   515.75384      1379.2136      1894.9674      111.51928      308.67083      0.1659366    
   1862000   515.90169      1346.7335      1862.6352      100.56338      301.40172      0.1695294    
   1863000   487.95463      1350.5589      1838.5135      115.03441      302.25784      0.1731799    
   1864000   489.54083      1354.5155      1844.0563      174.59671      303.14335      0.17498994   
   1865000   473.7793       1345.8758      1819.6551      233.9786       301.20976      0.17555608   
   1866000   504.69461      1318.1636      1822.8582      240.67883      295.00772      0.17622114   
   1867000   507.9779       1328.2657      1836.2436      197.23746      297.26859      0.1740464    
   1868000   508.1009       1359.8496      1867.9505      111.98514      304.33713      0.16956535   
   1869000   526.78594      1361.6823      1888.4682      71.576006      304.74728      0.1667941    
   1870000   508.65911      1331.1613      1839.8204      53.737192      297.91663      0.16728284   
   1871000   489.65182      1351.895       1841.5468      110.58219      302.55688      0.16945094   
   1872000   484.07773      1349.8449      1833.9227      177.77481      302.09807      0.17151248   
   1873000   496.28921      1344.0266      1840.3158      150.28671      300.79592      0.17003276   
   1874000   492.1151       1362.6554      1854.7705      201.4578       304.96508      0.16915001   
   1875000   495.06625      1345.2298      1840.296       145.86679      301.06518      0.16980475   
   1876000   505.81883      1385.8875      1891.7063      147.4818       310.16446      0.17387412   
   1877000   495.08191      1362.6215      1857.7034      79.956137      304.95749      0.17516467   
   1878000   496.20292      1364.3956      1860.5985      63.233992      305.35454      0.17220052   
   1879000   501.78453      1380.9361      1882.7206      34.827201      309.05633      0.16720153   
   1880000   518.34915      1339.4173      1857.7665      71.364954      299.76434      0.16446331   
   1881000   497.9592       1393.1919      1891.1511      177.29944      311.7992       0.16837412   
   1882000   483.55772      1357.7749      1841.3326      279.36306      303.87281      0.17766731   
   1883000   511.43544      1326.6666      1838.102       329.44301      296.9107       0.17918306   
   1884000   504.13908      1340.0204      1844.1595      325.97115      299.89932      0.17714108   
   1885000   469.36962      1374.7704      1844.14        243.27987      307.67643      0.17310872   
   1886000   496.36792      1352.1914      1848.5593      115.77043      302.62321      0.16946117   
   1887000   514.09698      1360.9198      1875.0168      103.00954      304.57665      0.16886059   
   1888000   481.71291      1343.5977      1825.3106      77.318442      300.69993      0.16953725   
   1889000   485.14431      1381.9715      1867.1159      113.53429      309.28807      0.1750839    
   1890000   468.49948      1364.4171      1832.9166      175.80599      305.35934      0.18149057   
   1891000   459.98313      1365.3459      1825.329       255.44499      305.56721      0.18544461   
   1892000   476.69119      1363.5842      1840.2754      271.69475      305.17295      0.18425863   
   1893000   472.74349      1363.2448      1835.9883      253.68106      305.09699      0.17933702   
   1894000   487.63787      1317.2129      1804.8508      197.37116      294.79496      0.17772389   
   1895000   459.13819      1328.484       1787.6222      175.79313      297.31744      0.1793747    
   1896000   460.67498      1320.8706      1781.5456      143.36289      295.61355      0.18079293   
   1897000   479.33159      1326.5191      1805.8506      120.87667      296.87769      0.18140401   
   1898000   493.66016      1317.5508      1811.2109      9.7613986      294.87056      0.17668732   
   1899000   499.80546      1346.1302      1845.9357     -8.2552289      301.26671      0.17301726   
   1900000   536.49362      1363.4466      1899.9402      8.0151805      305.14215      0.16912672   
   1901000   509.38427      1348.1138      1857.4981      87.130892      301.71063      0.16867709   
   1902000   511.40431      1367.8038      1879.2082      179.99033      306.11731      0.16956682   
   1903000   493.99807      1368.2314      1862.2294      249.20478      306.21299      0.17202028   
   1904000   494.36467      1310.8933      1805.258       280.2842       293.38062      0.17786081   
   1905000   480.09525      1346.242       1826.3372      280.01382      301.29172      0.1828363    
   1906000   486.22563      1301.6558      1787.8814      227.86214      291.31323      0.18137319   
   1907000   489.2472       1339.8012      1829.0484      164.92669      299.85026      0.17724692   
   1908000   477.65611      1338.816       1816.4721      138.97159      299.62977      0.17320147   
   1909000   522.18889      1313.3832      1835.5721      128.73585      293.93787      0.17204482   
   1910000   459.07462      1352.0396      1811.1142      180.11689      302.58923      0.17431706   
   1911000   456.00851      1310.8604      1766.869       257.37403      293.37326      0.17510102   
   1912000   490.28194      1283.3749      1773.6568      251.48781      287.22193      0.17616058   
   1913000   462.68303      1322.3806      1785.0637      314.54585      295.9515       0.18041066   
   1914000   481.81371      1320.2117      1802.0254      245.13855      295.46608      0.18137135   
   1915000   493.21322      1302.4229      1795.6361      113.72642      291.48491      0.17876507   
   1916000   484.68135      1230.8452      1715.5266      47.882484      275.46569      0.17358443   
   1917000   464.78364      1327.6461      1792.4297      64.365043      297.12991      0.17061751   
   1918000   468.00587      1352.3901      1820.396       121.60984      302.66769      0.17290512   
   1919000   483.90424      1312.8099      1796.7141      242.85997      293.80954      0.18117265   
   1920000   462.72152      1346.0586      1808.7801      328.09259      301.25068      0.18837857   
   1921000   471.86828      1341.9338      1813.8021      322.74083      300.32754      0.1883723    
   1922000   465.48886      1341.6629      1807.1518      243.75568      300.26692      0.18382511   
   1923000   478.46261      1361.4058      1839.8684      104.03667      304.68541      0.17912736   
   1924000   509.59044      1371.8385      1881.429      -9.7412582      307.02028      0.17500995   
   1925000   503.74111      1336.5723      1840.3134     -35.888492      299.12761      0.17356102   
   1926000   503.30706      1333.3132      1836.6203      24.810859      298.39823      0.17337363   
   1927000   471.98888      1349.9907      1821.9796      97.11165       302.13069      0.17483675   
   1928000   478.78686      1348.1852      1826.972       117.67525      301.72661      0.17809961   
   1929000   496.04675      1343.6469      1839.6936      155.4771       300.71092      0.18716938   
   1930000   456.02187      1319.3487      1775.3706      176.31626      295.27295      0.19454978   
   1931000   454.54698      1336.4875      1791.0345      132.07973      299.10866      0.19480744   
   1932000   442.44546      1293.0039      1735.4493      128.59577      289.37692      0.18960362   
   1933000   493.38899      1297.554       1790.943       71.771202      290.39525      0.18341978   
   1934000   496.75151      1310.8491      1807.6006      68.434131      293.37072      0.17847424   
   1935000   468.95744      1348.4381      1817.3956      120.75922      301.78322      0.17580805   
   1936000   493.98121      1357.0731      1851.0543      203.88835      303.71575      0.17647474   
   1937000   469.13045      1353.2022      1822.3327      223.42117      302.84943      0.1789325    
   1938000   473.43529      1370.2564      1843.6916      200.82285      306.66618      0.18331865   
   1939000   474.98552      1377.9314      1852.9169      137.26021      308.38387      0.18522979   
   1940000   484.22239      1390.9055      1875.1279      57.881653      311.2875       0.18227438   
   1941000   485.65764      1344.4988      1830.1564      49.58673       300.90159      0.17239893   
   1942000   511.34484      1323.909       1835.2538      112.35874      296.29355      0.16648303   
   1943000   476.45151      1317.9712      1794.4227      186.41878      294.96467      0.16620429   
   1944000   497.48566      1335.9261      1833.4118      221.89         298.98301      0.1686004    
   1945000   506.81499      1363.1419      1869.9569      243.15235      305.07395      0.17258617   
   1946000   509.13077      1325.566       1834.6967      246.38527      296.66439      0.1747829    
   1947000   491.24409      1342.3693      1833.6134      220.75899      300.42502      0.17397342   
   1948000   514.80277      1345.4969      1860.2997      168.97673      301.12498      0.17276731   
   1949000   503.18255      1352.7433      1855.9259      185.27806      302.74673      0.17087574   
   1950000   502.68488      1358.7569      1861.4418      99.48226       304.09259      0.16396222   
   1951000   523.92493      1387.7903      1911.7152      35.864968      310.59031      0.15938396   
   1952000   524.03923      1364.6907      1888.7299      37.705054      305.42058      0.15963129   
   1953000   475.97905      1335.3385      1811.3176      84.88842       298.8515       0.16766344   
   1954000   477.9559       1296.1292      1774.085       118.26496      290.07636      0.17364921   
   1955000   482.59802      1337.0996      1819.6976      183.88873      299.24563      0.17868504   
   1956000   477.49762      1340.9628      1818.4604      267.51258      300.11023      0.18182162   
   1957000   465.46188      1360.2977      1825.7596      230.61253      304.43743      0.18066581   
   1958000   519.33008      1309.3496      1828.6797      154.64778      293.03513      0.17545843   
   1959000   476.11012      1306.9432      1783.0533      57.430429      292.49656      0.1714481    
   1960000   491.36327      1334.7719      1826.1352      10.851886      298.72469      0.1732051    
   1961000   486.02839      1311.1852      1797.2136      47.55783       293.44594      0.17675377   
   1962000   475.52357      1295.2174      1770.741       83.535697      289.87232      0.18086424   
   1963000   483.23839      1314.7677      1798.0061      99.187145      294.24771      0.18393517   
   1964000   473.86195      1321.5859      1795.4478      185.44923      295.77363      0.18554349   
   1965000   487.76996      1313.6931      1801.4631      188.3549       294.00722      0.1855588    
   1966000   461.69621      1325.4885      1787.1847      189.14861      296.64704      0.1859218    
   1967000   449.50624      1297.7444      1747.2507      167.38513      290.43786      0.184425     
   1968000   452.84327      1288.7052      1741.5485      123.83716      288.41487      0.18286293   
   1969000   478.87779      1322.5069      1801.3847      111.26767      295.97976      0.18122838   
   1970000   504.92009      1334.7718      1839.6919      150.23356      298.72466      0.18105282   
   1971000   517.24841      1326.7739      1844.0224      129.7124       296.93473      0.1771944    
   1972000   495.50199      1348.3458      1843.8478      131.56417      301.76256      0.17107858   
   1973000   515.29006      1340.3093      1855.5993      84.477324      299.96397      0.16695057   
   1974000   506.14134      1366.7104      1872.8518      96.151236      305.8726       0.16921073   
   1975000   480.92075      1369.1238      1850.0446      49.954531      306.41272      0.17619222   
   1976000   506.46313      1339.1556      1845.6188      73.112024      299.70578      0.18370292   
   1977000   469.96361      1361.9435      1831.9071      100.60041      304.80575      0.18450512   
   1978000   482.57788      1339.8444      1822.4223      113.44015      299.85993      0.18142148   
   1979000   499.54685      1274.5949      1774.1418      61.37267       285.25696      0.17820037   
   1980000   507.10997      1325.5585      1832.6685      59.973668      296.66271      0.1759812    
   1981000   495.92324      1327.5661      1823.4894      84.545085      297.11203      0.17321353   
   1982000   501.92478      1336.66        1838.5848      115.91413      299.14726      0.16939913   
   1983000   520.41245      1312.9128      1833.3252      143.78336      293.83258      0.16645755   
   1984000   505.18828      1307.9879      1813.1762      134.69699      292.73037      0.16233293   
   1985000   503.11501      1343.287       1846.402       145.39062      300.63038      0.15664668   
   1986000   515.00652      1344.7375      1859.744       113.46285      300.95501      0.15525194   
   1987000   494.72618      1379.4492      1874.1754      132.65094      308.72356      0.16447708   
   1988000   502.19421      1360.1041      1862.2983      68.731601      304.39409      0.17229199   
   1989000   496.44735      1358.1953      1854.6427      59.658606      303.9669       0.1754583    
   1990000   479.43972      1367.3086      1846.7483      69.207896      306.00646      0.17756615   
   1991000   472.03268      1374.915       1846.9476      102.72507      307.70879      0.18133989   
   1992000   456.90565      1311.9898      1768.8955      110.46588      293.62602      0.18264948   
   1993000   466.4607       1316.5136      1782.9743      107.99979      294.63844      0.18029367   
   1994000   485.7232       1296.3836      1782.1068      160.19962      290.13332      0.17684034   
   1995000   499.57835      1318.8272      1818.4055      193.04706      295.15622      0.17401757   
   1996000   488.14413      1343.2486      1831.3927      194.74839      300.62179      0.1720808    
   1997000   501.84642      1341.4033      1843.2497      209.88945      300.20881      0.17090066   
   1998000   496.33934      1374.2849      1870.6243      201.09255      307.56779      0.17122271   
   1999000   480.59236      1362.0843      1842.6767      199.95915      304.83727      0.17336863   
   2000000   496.23581      1317.3054      1813.5412      236.38731      294.81565      0.17883164   
Loop time of 9777.35 on 8 procs for 2000000 steps with 1500 atoms

Performance: 8.837 ns/day, 2.716 hours/ns, 204.554 timesteps/s, 306.831 katom-step/s
99.4% CPU use with 8 MPI tasks x 1 OpenMP threads

MPI task timing breakdown:
Section |  min time  |  avg time  |  max time  |%varavg| %total
---------------------------------------------------------------
Pair    | 369.85     | 391.87     | 413.22     |  71.1 |  4.01
Bond    | 20.976     | 22.601     | 23.833     |  19.6 |  0.23
Kspace  | 4498.1     | 4520.9     | 4547.9     |  23.8 | 46.24
Neigh   | 6.8164     | 6.8403     | 6.8627     |   0.7 |  0.07
Comm    | 203.98     | 206.46     | 209.76     |  13.0 |  2.11
Output  | 0.18007    | 0.53004    | 2.9778     | 127.1 |  0.01
Modify  | 4374.3     | 4448.8     | 4494.6     |  66.9 | 45.50
Other   |            | 179.3      |            |       |  1.83

Nlocal:          187.5 ave         212 max         171 min
Histogram: 2 1 0 1 0 3 0 0 0 1
Nghost:        1732.12 ave        1791 max        1669 min
Histogram: 1 0 1 1 2 0 0 1 1 1
Neighs:        15426.2 ave       19076 max       13585 min
Histogram: 3 0 0 2 1 1 0 0 0 1

Total # of neighbors = 123410
Ave neighs/atom = 82.273333
Ave special neighs/atom = 2
Neighbor list builds = 12413
Dangerous builds = 0
System init for write_data ...
PPPM initialization ...
  using 12-bit tables for long-range coulomb (src/kspace.cpp:342)
  G vector (1/distance) = 0.26987952
  grid = 48 48 48
  stencil order = 5
  estimated absolute RMS force accuracy = 0.00037316708
  estimated relative force accuracy = 1.1237816e-06
  using single precision FFTW3
  3d grid and FFT values/proc = 29791 13824
Generated 1 of 1 mixed pair_coeff terms from arithmetic mixing rule
Last active /omp style is kspace_style pppm/omp
