LAMMPS (19 Nov 2024)
OMP_NUM_THREADS environment is not set. Defaulting to 1 thread. (src/comm.cpp:99)
  using 1 OpenMP thread(s) per MPI task
using multi-threaded neighbor list subroutines
Reading data file ...
  orthogonal box = (0 0 0) to (59.209276 59.209276 59.209276)
  2 by 2 by 2 MPI processor grid
  reading atoms ...
  1500 atoms
  scanning bonds ...
  1 = max bonds/atom
  scanning angles ...
  1 = max angles/atom
  orthogonal box = (0 0 0) to (59.209276 59.209276 59.209276)
  2 by 2 by 2 MPI processor grid
  reading bonds ...
  1000 bonds
  reading angles ...
  500 angles
Finding 1-2 1-3 1-4 neighbors ...
  special bond factors lj:    0        0        0       
  special bond factors coul:  0        0        0       
     2 = max # of 1-2 neighbors
     1 = max # of 1-3 neighbors
     1 = max # of 1-4 neighbors
     2 = max # of special neighbors
  special bonds CPU = 0.000 seconds
  read_data CPU = 0.188 seconds
Setting atom values ...
  1000 settings made for charge
Setting atom values ...
  500 settings made for charge
1000 atoms in group oxy
500 atoms in group carb
PPPM initialization ...
  using 12-bit tables for long-range coulomb (src/kspace.cpp:342)
  G vector (1/distance) = 0.2674831
  grid = 54 54 54
  stencil order = 5
  estimated absolute RMS force accuracy = 0.00035249099
  estimated relative force accuracy = 1.0615162e-06
  using single precision FFTW3
  3d grid and FFT values/proc = 39304 20412
Generated 1 of 1 mixed pair_coeff terms from arithmetic mixing rule
Last active /omp style is kspace_style pppm/omp
Neighbor list info ...
  update: every = 1 steps, delay = 0 steps, check = yes
  max neighbors/atom: 2000, page size: 100000
  master list distance cutoff = 15
  ghost atom cutoff = 15
  binsize = 7.5, bins = 8 8 8
  1 neighbor lists, perpetual/occasional/extra = 1 0 0
  (1) pair lj/cut/coul/long/omp, perpetual
      attributes: half, newton on, omp
      pair build: half/bin/newton/omp
      stencil: half/bin/3d
      bin: standard
Setting up cg style minimization ...
  Unit style    : real
  Current step  : 0
Per MPI rank memory allocation (min/avg/max) = 10.15 | 10.18 | 10.21 Mbytes
   Step          Temp          E_pair         E_mol          TotEng         Press     
         0   0              34.979643      1.5011389e-05  34.979658      201.8998     
      9001   0             -446.42401      0.28198438    -446.14202     -7.5204247    
Loop time of 59.9866 on 8 procs for 9001 steps with 1500 atoms

99.2% CPU use with 8 MPI tasks x 1 OpenMP threads

Minimization stats:
  Stopping criterion = energy tolerance
  Energy initial, next-to-last, final = 
      34.9796578527134  -446.141625182132  -446.142021016548
  Force two-norm initial, final = 105.44903 0.86174328
  Force max component initial, final = 14.368914 0.14508165
  Final line search alpha, max atom move = 0.36464478 0.052903265
  Iterations, force evaluations = 9001 18000

MPI task timing breakdown:
Section |  min time  |  avg time  |  max time  |%varavg| %total
---------------------------------------------------------------
Pair    | 2.9302     | 4.6716     | 6.5921     |  60.8 |  7.79
Bond    | 0.13265    | 0.16133    | 0.19041    |   5.4 |  0.27
Kspace  | 51.495     | 53.433     | 55.181     |  18.2 | 89.08
Neigh   | 0.01462    | 0.01469    | 0.014772   |   0.0 |  0.02
Comm    | 1.2733     | 1.2907     | 1.3172     |   1.1 |  2.15
Output  | 0          | 0          | 0          |   0.0 |  0.00
Modify  | 0.033617   | 0.039389   | 0.043921   |   2.0 |  0.07
Other   |            | 0.3758     |            |       |  0.63

Nlocal:          187.5 ave         280 max         127 min
Histogram: 2 1 1 1 0 0 1 0 1 1
Nghost:           1354 ave        1416 max        1262 min
Histogram: 1 1 0 0 1 0 1 1 1 2
Neighs:          12353 ave       22189 max        5873 min
Histogram: 3 0 0 1 1 1 0 1 0 1

Total # of neighbors = 98824
Ave neighs/atom = 65.882667
Ave special neighs/atom = 2
Neighbor list builds = 34
Dangerous builds = 0
PPPM initialization ...
  using 12-bit tables for long-range coulomb (src/kspace.cpp:342)
  G vector (1/distance) = 0.2674831
  grid = 54 54 54
  stencil order = 5
  estimated absolute RMS force accuracy = 0.00035249099
  estimated relative force accuracy = 1.0615162e-06
  using single precision FFTW3
  3d grid and FFT values/proc = 39304 20412
Generated 1 of 1 mixed pair_coeff terms from arithmetic mixing rule
Last active /omp style is kspace_style pppm/omp
Setting up Verlet run ...
  Unit style    : real
  Current step  : 9001
  Time step     : 0.1
Per MPI rank memory allocation (min/avg/max) = 9.037 | 9.062 | 9.09 Mbytes
   Step         PotEng         KinEng         TotEng         Press           Temp        v_Density   
      9001  -446.14202      1340.4703      894.32826      287.68259      300            0.11165098   
     10000   304.37659      1166.9859      1471.3625      177.95795      261.17385      0.092677735  
     11000   125.2673       1422.9378      1548.2051      132.45577      318.4564       0.080548931  
     12000   249.90076      1301.632       1551.5327      66.424071      291.30791      0.079511586  
     13000   234.68003      1324.7873      1559.4673      97.410779      296.49011      0.083590299  
     14000   211.76902      1379.833       1591.602       109.76661      308.80945      0.085220338  
     15000   287.07666      1297.4522      1584.5289      71.908213      290.37247      0.088927802  
     16000   212.17498      1389.9592      1602.1342      115.33475      311.07573      0.091675682  
     17000   311.29533      1279.9198      1591.2151      63.395659      286.44868      0.094867424  
     18000   214.63385      1368.3667      1583.0005      118.95312      306.24327      0.10185446   
     19000   294.75452      1266.0106      1560.7651      90.742523      283.33576      0.104438     
     20000   260.64324      1351.9439      1612.5872      115.92418      302.56783      0.10550452   
     21000   301.34485      1314.1175      1615.4624      91.597552      294.1022       0.10548777   
     22000   287.16719      1345.2896      1632.4568      90.252571      301.07858      0.10830475   
     23000   297.83726      1341.5506      1639.3879      107.77859      300.24179      0.10475406   
     24000   331.81831      1305.381       1637.1993      110.59437      292.14695      0.098381633  
     25000   304.57572      1329.0036      1633.5793      83.540167      297.43373      0.09976902   
     26000   363.09388      1285.6554      1648.7493      82.05369       287.73233      0.10121845   
     27000   316.8619       1313.0493      1629.9112      114.91626      293.86313      0.0955356    
     28000   362.86346      1318.6281      1681.4915      93.267859      295.11167      0.092228946  
     29000   340.10269      1323.3654      1663.4681      75.810751      296.1719       0.093207275  
     30000   351.61528      1307.0335      1658.6488      98.753317      292.51678      0.096851427  
     31000   331.34041      1314.4612      1645.8016      104.64888      294.17912      0.095153799  
     32000   353.92381      1301.8585      1655.7823      110.44208      291.3586       0.097570135  
     33000   322.1992       1323.0465      1645.2457      104.91701      296.10052      0.10357626   
     34000   362.59017      1312.8788      1675.469       78.175127      293.82497      0.10457179   
     35000   363.64409      1297.7539      1661.398       95.880772      290.43999      0.096131777  
     36000   354.02757      1335.9936      1690.0212      106.34486      298.99811      0.094251705  
     37000   378.47857      1367.3111      1745.7896      80.943696      306.00703      0.095562717  
     38000   333.27347      1387.6238      1720.8973      92.368954      310.55305      0.093850237  
     39000   375.04754      1270.6663      1645.7139      114.06394      284.37773      0.098683553  
     40000   333.95657      1327.463       1661.4195      119.95353      297.08893      0.10000087   
     41000   384.14003      1285.8594      1669.9995      64.277217      287.77798      0.09409004   
     42000   346.20228      1341.779       1687.9813      88.813216      300.2929       0.092450071  
     43000   376.99562      1318.8398      1695.8354      130.36065      295.15905      0.094407424  
     44000   362.82781      1383.3579      1746.1857      104.76446      309.59833      0.092592773  
     45000   368.64787      1337.7519      1706.3998      78.881439      299.39162      0.091797472  
     46000   398.32722      1371.2718      1769.5991      105.09376      306.89345      0.095347949  
     47000   338.3231       1391.6447      1729.9678      114.64113      311.45295      0.096406012  
     48000   377.1108       1342.7964      1719.9072      72.06673       300.5206       0.098526633  
     49000   355.99209      1407.4216      1763.4137      90.113487      314.98385      0.097468966  
     50000   357.56111      1354.1182      1711.6793      117.08006      303.05443      0.094869259  
     51000   366.66684      1346.8243      1713.4911      121.30647      301.42203      0.09641091   
     52000   356.49959      1306.7437      1663.2433      76.337562      292.45192      0.099357507  
     53000   358.41193      1318.4466      1676.8586      93.101685      295.07107      0.097214297  
     54000   355.14256      1334.6658      1689.8084      119.60763      298.70095      0.092203047  
     55000   366.46309      1315.5835      1682.0466      102.18631      294.43028      0.092133038  
     56000   364.19544      1341.6867      1705.8822      69.490493      300.27225      0.093687499  
     57000   345.06989      1282.2553      1627.3252      111.4794       286.97136      0.098135323  
     58000   352.75888      1330.9659      1683.7248      151.42069      297.87291      0.096554641  
     59000   356.96912      1360.6862      1717.6553      84.423675      304.52436      0.089946125  
     59001   362.66049      1354.3522      1717.0127      81.885069      303.1068       0.089942532  
Loop time of 339.369 on 8 procs for 50000 steps with 1500 atoms

Performance: 1.273 ns/day, 18.854 hours/ns, 147.332 timesteps/s, 220.998 katom-step/s
99.4% CPU use with 8 MPI tasks x 1 OpenMP threads

MPI task timing breakdown:
Section |  min time  |  avg time  |  max time  |%varavg| %total
---------------------------------------------------------------
Pair    | 5.4005     | 6.8689     | 9.3307     |  45.9 |  2.02
Bond    | 0.48602    | 0.54049    | 0.64556    |   6.5 |  0.16
Kspace  | 158.27     | 160.83     | 162.31     |   9.8 | 47.39
Neigh   | 0.036983   | 0.037108   | 0.037209   |   0.0 |  0.01
Comm    | 3.5236     | 3.6403     | 3.7473     |   4.8 |  1.07
Output  | 0.0045124  | 0.0047851  | 0.0064438  |   0.9 |  0.00
Modify  | 144.03     | 155.82     | 166.97     |  59.1 | 45.92
Other   |            | 11.62      |            |       |  3.42

Nlocal:          187.5 ave         222 max         150 min
Histogram: 1 2 0 1 0 1 0 0 1 2
Nghost:        1204.75 ave        1245 max        1166 min
Histogram: 2 0 0 0 1 2 1 1 0 1
Neighs:         8088.5 ave       10014 max        6401 min
Histogram: 2 1 1 0 0 0 1 1 1 1

Total # of neighbors = 64708
Ave neighs/atom = 43.138667
Ave special neighs/atom = 2
Neighbor list builds = 94
Dangerous builds = 0
PPPM initialization ...
  using 12-bit tables for long-range coulomb (src/kspace.cpp:342)
  G vector (1/distance) = 0.26363519
  grid = 54 54 54
  stencil order = 5
  estimated absolute RMS force accuracy = 0.00043206647
  estimated relative force accuracy = 1.3011553e-06
  using single precision FFTW3
  3d grid and FFT values/proc = 39304 20412
Generated 1 of 1 mixed pair_coeff terms from arithmetic mixing rule
Last active /omp style is kspace_style pppm/omp
Setting up Verlet run ...
  Unit style    : real
  Current step  : 59001
  Time step     : 0.25
Per MPI rank memory allocation (min/avg/max) = 9.037 | 9.096 | 9.305 Mbytes
   Step         PotEng         KinEng         TotEng         Press           Temp        v_Density   
     59001   362.66132      1354.3522      1717.0135      81.88425       303.1068       0.089942532  
     60000   369.12532      1309.492       1678.6173      75.985023      293.06699      0.098099613  
     61000   376.32989      1347.9217      1724.2516      85.241878      301.66763      0.097059754  
     62000   401.53503      1337.8833      1739.4183      90.941618      299.42102      0.096307991  
     63000   372.06692      1342.7316      1714.7985      120.67152      300.50609      0.10123315   
     64000   414.73408      1298.564       1713.2981      105.77489      290.62128      0.09318504   
     65000   399.07811      1324.1224      1723.2005      90.533389      296.3413       0.09957513   
     66000   391.16024      1257.3075      1648.4677      69.572821      281.388        0.098357711  
     67000   409.27753      1291.7628      1701.0403      61.955312      289.09917      0.08790092   
     68000   369.81228      1328.7082      1698.5205      99.729742      297.36762      0.09437792   
     69000   357.08712      1302.5165      1659.6036      106.29686      291.50587      0.097714513  
     70000   374.2676       1356.6899      1730.9575      125.41559      303.62999      0.095110996  
     71000   393.92611      1355.0509      1748.977       133.44522      303.26316      0.095588153  
     72000   406.07076      1356.1391      1762.2098      112.54286      303.5067       0.095016929  
     73000   398.40405      1334.7134      1733.1175      71.963688      298.71161      0.096657606  
     74000   408.4005       1332.5858      1740.9863      48.909663      298.23544      0.094192159  
     75000   396.03836      1337.617       1733.6554      82.496017      299.36143      0.10079166   
     76000   381.28529      1351.0132      1732.2985      106.19348      302.35953      0.094252772  
     77000   401.2226       1357.1858      1758.4084      132.50147      303.74097      0.096941491  
     78000   405.54898      1360.0794      1765.6283      135.84768      304.38855      0.098059286  
     79000   413.90935      1342.6789      1756.5883      73.821472      300.4943       0.090533066  
     80000   415.57637      1340.8244      1756.4007      51.155182      300.07924      0.093535871  
     81000   377.45445      1336.4359      1713.8903      75.562669      299.09709      0.10225201   
     82000   393.95259      1308.9393      1702.8919      110.86918      292.94331      0.092652099  
     83000   399.89559      1370.7807      1770.6763      151.46566      306.78353      0.098274467  
     84000   392.68345      1383.0972      1775.7806      136.35337      309.53999      0.094053511  
     85000   383.39772      1354.3731      1737.7709      76.950188      303.11149      0.092794291  
     86000   383.09386      1309.9704      1693.0643      12.929061      293.17407      0.096396577  
     87000   397.33767      1323.2792      1720.6169      42.579763      296.1526       0.094169495  
     88000   399.96431      1335.9523      1735.9166      90.428817      298.98886      0.093285091  
     89000   394.05103      1314.2529      1708.3039      114.54878      294.1325       0.095088521  
     90000   405.98476      1321.1389      1727.1237      125.57683      295.6736       0.089636009  
     91000   401.60344      1341.173       1742.7764      137.37134      300.15726      0.096311013  
     92000   403.90645      1324.0671      1727.9736      72.627545      296.32894      0.090802856  
     93000   389.16461      1342.5773      1731.7419      88.880577      300.47154      0.094573874  
     94000   405.20757      1367.2006      1772.4082      80.931636      305.9823       0.084554701  
     95000   371.00152      1354.6304      1725.6319      109.85341      303.16906      0.091939556  
     96000   388.81915      1318.4684      1707.2876      120.81699      295.07593      0.092146638  
     97000   396.19877      1268.3695      1664.5683      103.79417      283.8637       0.089178476  
     98000   394.84608      1286.9586      1681.8047      124.44417      288.02397      0.094519532  
     99000   411.71491      1327.2445      1738.9594      113.89231      297.04004      0.086835568  
    100000   404.01682      1308.0634      1712.0802      86.257371      292.74727      0.089759509  
    101000   388.50976      1338.8221      1727.3319      76.246201      299.63114      0.08846188   
    102000   395.74678      1367.7069      1763.4536      93.428437      306.0956       0.095585863  
    103000   413.82829      1362.563       1776.3912      90.774723      304.94439      0.087985369  
    104000   416.28857      1335.8229      1752.1114      102.73071      298.9599       0.09292397   
    105000   396.85882      1394.1942      1791.053       137.27375      312.02352      0.097978918  
    106000   417.52857      1337.3848      1754.9133      126.21928      299.30946      0.089666349  
    107000   400.67201      1312.4093      1713.0813      111.63426      293.71988      0.090608324  
    108000   410.81227      1294.6245      1705.4368      73.010691      289.73962      0.09009484   
    109000   393.99593      1308.4364      1702.4323      58.063998      292.83075      0.096337957  
    109001   394.38528      1309.7909      1704.1761      57.705161      293.13388      0.096336593  
Loop time of 334.592 on 8 procs for 50000 steps with 1500 atoms

Performance: 3.228 ns/day, 7.435 hours/ns, 149.436 timesteps/s, 224.154 katom-step/s
99.3% CPU use with 8 MPI tasks x 1 OpenMP threads

MPI task timing breakdown:
Section |  min time  |  avg time  |  max time  |%varavg| %total
---------------------------------------------------------------
Pair    | 5.4276     | 5.9454     | 6.7672     |  19.3 |  1.78
Bond    | 0.51334    | 0.54227    | 0.58255    |   2.7 |  0.16
Kspace  | 156.8      | 157.66     | 158.18     |   3.8 | 47.12
Neigh   | 0.078661   | 0.078898   | 0.079084   |   0.0 |  0.02
Comm    | 3.5351     | 3.5738     | 3.6239     |   1.7 |  1.07
Output  | 0.024544   | 0.024737   | 0.025773   |   0.2 |  0.01
Modify  | 143.93     | 155.23     | 166.18     |  57.2 | 46.39
Other   |            | 11.54      |            |       |  3.45

Nlocal:          187.5 ave         226 max         141 min
Histogram: 1 0 1 0 2 0 1 1 1 1
Nghost:         1226.5 ave        1270 max        1200 min
Histogram: 1 1 2 2 0 0 0 1 0 1
Neighs:        8406.25 ave       12332 max        5609 min
Histogram: 1 1 2 0 0 3 0 0 0 1

Total # of neighbors = 67250
Ave neighs/atom = 44.833333
Ave special neighs/atom = 2
Neighbor list builds = 211
Dangerous builds = 0
PPPM initialization ...
  using 12-bit tables for long-range coulomb (src/kspace.cpp:342)
  G vector (1/distance) = 0.26490865
  grid = 54 54 54
  stencil order = 5
  estimated absolute RMS force accuracy = 0.00040445602
  estimated relative force accuracy = 1.2180073e-06
  using single precision FFTW3
  3d grid and FFT values/proc = 39304 20412
Generated 1 of 1 mixed pair_coeff terms from arithmetic mixing rule
Last active /omp style is kspace_style pppm/omp
Setting up Verlet run ...
  Unit style    : real
  Current step  : 109001
  Time step     : 0.5
Per MPI rank memory allocation (min/avg/max) = 9.037 | 9.096 | 9.305 Mbytes
   Step         PotEng         KinEng         TotEng         Press           Temp        v_Density   
    109001   394.38469      1309.7909      1704.1756      57.704898      293.13388      0.096336593  
    110000   494.98492      1375.2109      1870.1959      103.63646      307.77503      0.10091718   
    111000   496.1733       1364.4054      1860.5787      136.9068       305.35673      0.11059038   
    112000   489.09419      1381.6446      1870.7388      39.999927      309.2149       0.10906964   
    113000   475.9682       1329.5533      1805.5215      79.508864      297.55677      0.11206448   
    114000   487.02013      1387.857       1874.8772      167.11421      310.60525      0.10715003   
    115000   480.53029      1324.3375      1804.8678      66.443071      296.38946      0.10918698   
    116000   464.57305      1337.8429      1802.4159      88.21587       299.41199      0.10524648   
    117000   473.34594      1352.2616      1825.6075      132.2989       302.63892      0.10527386   
    118000   450.79065      1303.5558      1754.3465      67.874898      291.73847      0.11055351   
    119000   481.69597      1360.4134      1842.1093      65.294424      304.4633       0.11651007   
    120000   474.57872      1292.5261      1767.1049      152.57544      289.27         0.11280968   
    121000   479.46642      1358.4084      1837.8748      88.451142      304.01459      0.11105651   
    122000   489.53104      1311.9905      1801.5216      47.888864      293.62617      0.11395836   
    123000   482.32864      1383.8517      1866.1803      113.91839      309.70885      0.10815719   
    124000   489.21922      1306.4693      1795.6885      123.40002      292.39051      0.10602771   
    125000   467.90536      1307.7654      1775.6708      99.037541      292.68059      0.11150148   
    126000   460.39084      1370.9328      1831.3236      94.130942      306.81757      0.12227026   
    127000   474.64617      1333.1532      1807.7994      98.94942       298.36243      0.11128161   
    128000   459.46636      1324.2225      1783.6888      113.35907      296.3637       0.12007065   
    129000   491.30962      1321.6095      1812.9191      94.398287      295.77891      0.11067721   
    130000   487.87833      1333.1717      1821.05        100.93826      298.36656      0.10604222   
    131000   465.40235      1346.8379      1812.2403      77.633254      301.42509      0.11901612   
    132000   475.5981       1347.1256      1822.7237      88.032234      301.48948      0.11051034   
    133000   477.39443      1361.6814      1839.0758      142.56929      304.7471       0.11608795   
    134000   476.32482      1366.7951      1843.1199      77.489096      305.89155      0.11982081   
    135000   475.07869      1316.9516      1792.0303      62.140621      294.73648      0.11684168   
    136000   481.84219      1407.0568      1888.899       139.46376      314.90221      0.1081966    
    137000   473.97758      1335.209       1809.1866      85.790173      298.82251      0.10776595   
    138000   473.44701      1367.7514      1841.1984      19.82135       306.10556      0.11695389   
    139000   465.40594      1317.5318      1782.9377      154.43139      294.86632      0.11631647   
    140000   493.68218      1325.0674      1818.7496      127.56144      296.5528       0.11008648   
    141000   474.86586      1345.8585      1820.7244      59.616467      301.20589      0.11374858   
    142000   482.90591      1372.1538      1855.0597      130.74501      307.09083      0.11026013   
    143000   467.25121      1326.1941      1793.4453      110.17736      296.80497      0.10206967   
    144000   477.46138      1354.6309      1832.0923      82.103597      303.16919      0.11271069   
    145000   476.68867      1317.3946      1794.0832      94.445276      294.83561      0.11599371   
    146000   479.04395      1342.6495      1821.6934      108.73408      300.48771      0.10898824   
    147000   480.38551      1345.3668      1825.7523      81.310041      301.09585      0.11241446   
    148000   486.75305      1309.9556      1796.7087      70.146756      293.17075      0.1097151    
    149000   470.20007      1367.6923      1837.8924      142.29502      306.09235      0.1169325    
    150000   470.22667      1295.586       1765.8127      88.258112      289.9548       0.10617124   
    151000   496.92507      1366.9394      1863.8645      46.540981      305.92384      0.11374099   
    152000   478.17815      1355.0046      1833.1828      137.4455       303.25281      0.10820471   
    153000   474.48814      1327.6022      1802.0904      112.75863      297.12011      0.11441632   
    154000   464.84922      1342.9657      1807.815       80.441043      300.55849      0.11388848   
    155000   457.23445      1347.5558      1804.7902      108.43608      301.58575      0.11577238   
    156000   471.57032      1310.2156      1781.7859      83.616556      293.22893      0.11301645   
    157000   452.08988      1294.4252      1746.5151      58.151212      289.69502      0.11664274   
    158000   490.08105      1344.3688      1834.4498      191.21622      300.87249      0.1113935    
    159000   502.38937      1361.8575      1864.2469      93.701331      304.78651      0.10912878   
    159001   465.63851      1379.6266      1845.2651      97.340009      308.76326      0.10911662   
Loop time of 338.213 on 8 procs for 50000 steps with 1500 atoms

Performance: 6.387 ns/day, 3.758 hours/ns, 147.836 timesteps/s, 221.754 katom-step/s
99.4% CPU use with 8 MPI tasks x 1 OpenMP threads

MPI task timing breakdown:
Section |  min time  |  avg time  |  max time  |%varavg| %total
---------------------------------------------------------------
Pair    | 6.1457     | 6.7353     | 7.3474     |  15.1 |  1.99
Bond    | 0.51183    | 0.54305    | 0.56494    |   2.6 |  0.16
Kspace  | 158.82     | 159.44     | 160        |   3.1 | 47.14
Neigh   | 0.17868    | 0.1791     | 0.17949    |   0.1 |  0.05
Comm    | 3.8948     | 3.9162     | 3.9318     |   0.6 |  1.16
Output  | 0.01431    | 0.014611   | 0.016259   |   0.5 |  0.00
Modify  | 143.4      | 155.55     | 166.96     |  59.7 | 45.99
Other   |            | 11.84      |            |       |  3.50

Nlocal:          187.5 ave         216 max         165 min
Histogram: 2 1 0 1 1 0 0 2 0 1
Nghost:        1323.25 ave        1344 max        1293 min
Histogram: 1 0 1 1 0 1 0 1 0 3
Neighs:        9409.38 ave       11421 max        7187 min
Histogram: 1 0 3 0 0 1 0 0 1 2

Total # of neighbors = 75275
Ave neighs/atom = 50.183333
Ave special neighs/atom = 2
Neighbor list builds = 428
Dangerous builds = 0
PPPM initialization ...
  using 12-bit tables for long-range coulomb (src/kspace.cpp:342)
  G vector (1/distance) = 0.26709665
  grid = 54 54 54
  stencil order = 5
  estimated absolute RMS force accuracy = 0.0003599675
  estimated relative force accuracy = 1.0840314e-06
  using single precision FFTW3
  3d grid and FFT values/proc = 39304 20412
Generated 1 of 1 mixed pair_coeff terms from arithmetic mixing rule
Last active /omp style is kspace_style pppm/omp
Setting up Verlet run ...
  Unit style    : real
  Current step  : 0
  Time step     : 0.5
Per MPI rank memory allocation (min/avg/max) = 9.038 | 9.097 | 9.306 Mbytes
   Step         PotEng         KinEng         TotEng         Press           Temp        v_Density   
         0   465.63773      1379.6266      1845.2643      97.339773      308.76326      0.10911662   
      1000   461.37686      1378.2401      1839.6169      117.11294      308.45296      0.10869705   
      2000   496.58565      1346.0874      1842.6731      135.91784      301.25713      0.1086596    
      3000   483.00856      1352.9171      1835.9256      151.66044      302.78561      0.10755057   
      4000   478.29137      1340.7332      1819.0246      147.6165       300.05884      0.10442325   
      5000   489.52665      1309.0994      1798.6261      89.862828      292.97914      0.10144009   
      6000   457.75572      1280.0285      1737.7842      82.438858      286.47301      0.10193813   
      7000   466.83215      1317.6629      1784.4951      100.05913      294.89567      0.10618214   
      8000   471.54683      1322.9518      1794.4987      136.63466      296.07934      0.11077939   
      9000   490.61666      1296.3049      1786.9215      121.88787      290.11569      0.11252182   
     10000   452.20257      1305.7096      1757.9122      98.61633       292.22049      0.11315521   
     11000   481.44675      1287.8495      1769.2962      61.796041      288.22336      0.11216806   
     12000   488.15645      1350.3293      1838.4858      25.730876      302.20647      0.11109142   
     13000   487.67536      1326.4758      1814.1512      17.61031       296.86801      0.111434     
     14000   477.14469      1322.0159      1799.1606      36.444844      295.86988      0.1132362    
     15000   465.30553      1337.3554      1802.661       70.350338      299.30289      0.11723427   
     16000   477.373        1316.3275      1793.7005      102.73284      294.5968       0.11902436   
     17000   457.74676      1357.0795      1814.8262      159.25568      303.71717      0.11829935   
     18000   469.75411      1366.6515      1836.4056      189.66626      305.85941      0.11526744   
     19000   487.83856      1390.4358      1878.2744      178.21578      311.18239      0.11222528   
     20000   494.21534      1412.3353      1906.5507      153.95085      316.08354      0.10994592   
     21000   477.49418      1339.8801      1817.3743      148.79345      299.86792      0.10941212   
     22000   467.53867      1342.1543      1809.6929      101.35794      300.37688      0.1098489    
     23000   506.60796      1319.9716      1826.5796      79.283609      295.41236      0.11198027   
     24000   484.67637      1308.2714      1792.9478      102.16315      292.79382      0.11582623   
     25000   450.6831       1337.7489      1788.432       87.823617      299.39094      0.11860847   
     26000   436.96415      1337.5427      1774.5069      77.971061      299.34481      0.11968316   
     27000   463.27765      1288.3605      1751.6382      39.967268      288.33773      0.11663483   
     28000   467.17189      1331.3055      1798.4774      15.183665      297.94891      0.11184895   
     29000   478.12119      1329.3701      1807.4913      27.111637      297.51576      0.10974694   
     30000   472.8367       1353.0371      1825.8738      69.691461      302.81249      0.10983273   
     31000   479.88292      1349.5873      1829.4702      128.86898      302.0404       0.11152255   
     32000   477.07239      1345.7592      1822.8315      176.83221      301.18366      0.11380939   
     33000   461.6463       1385.7313      1847.3776      204.10228      310.12951      0.11553705   
     34000   473.06056      1411.0029      1884.0634      207.98025      315.78534      0.11744887   
     35000   506.61026      1341.7679      1848.3782      130.96036      300.29042      0.11620905   
     36000   469.03034      1354.5122      1823.5425      78.361515      303.1426       0.1109594    
     37000   468.82332      1364.9372      1833.7605      44.714802      305.47575      0.10783068   
     38000   497.88411      1350.2495      1848.1336      14.418942      302.18861      0.10822117   
     39000   501.96465      1335.2923      1837.2569      24.882165      298.84115      0.11221752   
     40000   459.84617      1361.868       1821.7141      59.409169      304.78885      0.11536361   
     41000   463.50532      1379.5886      1843.0939      81.001746      308.75476      0.1170274    
     42000   497.39146      1321.3231      1818.7145      79.769813      295.71482      0.11734828   
     43000   485.46622      1363.8269      1849.2931      113.47731      305.22725      0.11601546   
     44000   455.32485      1376.1495      1831.4744      149.04852      307.98509      0.11341596   
     45000   467.38599      1345.1763      1812.5623      132.51844      301.05322      0.10962126   
     46000   485.38874      1295.9855      1781.3742      142.59579      290.04421      0.1075238    
     47000   481.10034      1308.935       1790.0353      178.17562      292.94233      0.10817638   
     48000   480.03267      1318.2183      1798.251       216.05153      295.01997      0.1099492    
     49000   491.52522      1361.76        1853.2852      173.47361      304.76468      0.11121724   
     50000   486.18869      1377.907       1864.0956      122.12838      308.3784       0.11168965   
     51000   482.11499      1362.0394      1844.1544      53.275075      304.82722      0.11166393   
     52000   495.79736      1337.6507      1833.448       5.9087603      299.36897      0.11320667   
     53000   487.63483      1364.4121      1852.0469      45.848723      305.35822      0.11647197   
     54000   460.09928      1433.27        1893.3692      131.78457      320.76876      0.12007784   
     55000   459.10334      1388.7014      1847.8048      163.0302       310.79423      0.12048878   
     56000   474.34031      1358.0276      1832.3679      190.05975      303.92936      0.11620943   
     57000   486.09428      1341.6139      1827.7082      148.99093      300.25596      0.10885587   
     58000   489.08185      1361.2387      1850.3206      110.15172      304.64802      0.1074905    
     59000   504.51478      1335.3234      1839.8382      70.708023      298.84812      0.11005157   
     60000   480.23116      1369.1026      1849.3337      37.884145      306.40796      0.11391729   
     61000   485.52304      1389.2544      1874.7774      28.667661      310.91799      0.11697982   
     62000   466.62088      1382.5101      1849.131       57.246265      309.40861      0.11762523   
     63000   442.85615      1366.2778      1809.134       104.06214      305.77578      0.11672501   
     64000   484.22229      1348.4298      1832.6521      150.90766      301.78137      0.11438233   
     65000   492.02276      1344.7036      1836.7264      142.04599      300.94743      0.11172967   
     66000   485.59372      1356.0302      1841.6239      130.90943      303.48235      0.11105553   
     67000   477.42415      1384.361       1861.7852      120.57841      309.82284      0.11239067   
     68000   483.93944      1410.7763      1894.7158      119.78756      315.73464      0.11667907   
     69000   464.99614      1361.5532      1826.5494      109.72065      304.71841      0.12123744   
     70000   443.96585      1376.911       1820.8768      173.6949       308.1555       0.12274587   
     71000   471.2926       1391.8056      1863.0982      155.2589       311.48896      0.12000828   
     72000   492.40519      1327.1809      1819.5861      131.79183      297.02581      0.11635882   
     73000   449.66996      1385.6152      1835.2852      118.79205      310.10353      0.11356215   
     74000   480.46615      1317.0576      1797.5238      109.94856      294.7602       0.11206689   
     75000   468.24845      1317.7671      1786.0156      81.903223      294.91899      0.1120412    
     76000   463.52494      1316.1152      1779.6401      58.009266      294.54928      0.1122562    
     77000   483.10398      1320.526       1803.63        77.761005      295.53644      0.11233789   
     78000   464.09112      1327.9927      1792.0838      113.82782      297.20749      0.1129491    
     79000   460.93428      1306.274       1767.2083      137.90484      292.34681      0.11501741   
     80000   462.8778       1331.6406      1794.5184      154.55881      298.02391      0.12039901   
     81000   457.51848      1329.0318      1786.5503      117.94258      297.44005      0.12284387   
     82000   471.50111      1314.6807      1786.1819      64.42582       294.22825      0.12050264   
     83000   480.32964      1350.8272      1831.1568      43.028827      302.3179       0.11647809   
     84000   482.99597      1378.1973      1861.1933      26.268173      308.44338      0.11378058   
     85000   484.3149       1358.5953      1842.9102      40.554202      304.05642      0.11260292   
     86000   473.6117       1394.2275      1867.8392      77.16624       312.03098      0.11122201   
     87000   483.72541      1427.305       1911.0305      122.38012      319.4338       0.10981568   
     88000   513.14864      1332.2264      1845.3751      149.76057      298.15501      0.10964337   
     89000   505.58656      1376.4461      1882.0326      152.26895      308.05146      0.11191561   
     90000   449.79379      1362.5778      1812.3716      138.6909       304.9477       0.11626822   
     91000   460.73082      1366.5381      1827.269       116.6371       305.83404      0.11924107   
     92000   481.00401      1376.5467      1857.5507      88.146979      308.07397      0.11920941   
     93000   471.1104       1353.3723      1824.4827      82.594567      302.8875       0.11861919   
     94000   482.97665      1376.8445      1859.8212      95.77455       308.14063      0.11774163   
     95000   470.55112      1355.6488      1826.1999      100.51515      303.39698      0.11503448   
     96000   499.30541      1333.0206      1832.326       96.122762      298.33275      0.1127267    
     97000   477.92111      1334.1586      1812.0797      125.2154       298.58743      0.11152783   
     98000   463.7362       1325.9258      1789.662       123.46596      296.74491      0.11047676   
     99000   464.95054      1330.8343      1795.7848      132.33755      297.84344      0.11225236   
    100000   490.32797      1301.4641      1791.7921      125.29455      291.27034      0.1140436    
    101000   484.94612      1299.3871      1784.3332      85.178368      290.8055       0.11453112   
    102000   486.8913       1337.7729      1824.6642      57.936836      299.39632      0.11548146   
    103000   488.78949      1353.8742      1842.6636      60.727095      302.99982      0.11614263   
    104000   478.82284      1362.4934      1841.3162      104.79448      304.92882      0.11734942   
    105000   501.26081      1347.5734      1848.8342      138.4604       301.58968      0.11990563   
    106000   481.85312      1329.3934      1811.2465      182.7833       297.52097      0.12176571   
    107000   464.73146      1276.6844      1741.4158      185.03993      285.72458      0.12280914   
    108000   453.47695      1298.7408      1752.2177      139.52876      290.66085      0.12216228   
    109000   444.9075       1332.7001      1777.6076      123.37353      298.26101      0.12176838   
    110000   477.75779      1304.6832      1782.441       138.81848      291.99077      0.12088194   
    111000   449.98993      1298.3839      1748.3738      94.952772      290.58098      0.11689765   
    112000   449.14137      1296.6159      1745.7573      83.018433      290.18531      0.11306009   
    113000   473.47437      1308.0396      1781.514       78.849272      292.74195      0.11256694   
    114000   473.98953      1335.4713      1809.4609      88.104988      298.88122      0.11509696   
    115000   452.5518       1378.3358      1830.8876      98.844826      308.47437      0.11924227   
    116000   468.18462      1338.5856      1806.7702      120.74233      299.5782       0.1210758    
    117000   484.43839      1353.4896      1837.928       123.52193      302.91376      0.12032369   
    118000   475.79849      1353.6101      1829.4086      120.62758      302.94072      0.11941803   
    119000   455.12957      1352.4039      1807.5335      94.395164      302.67078      0.11779216   
    120000   488.1117       1354.1069      1842.2186      72.650207      303.05191      0.1171127    
    121000   483.90872      1389.204       1873.1127      61.072737      310.90671      0.11565359   
    122000   489.0268       1415.6228      1904.6496      40.670349      316.81929      0.11280926   
    123000   491.396        1359.4999      1850.8958      28.344462      304.25886      0.10956735   
    124000   493.85658      1337.4859      1831.3425      46.542068      299.3321       0.10810222   
    125000   455.08671      1389.2598      1844.3465      114.02031      310.91919      0.1099219    
    126000   463.65834      1383.5653      1847.2236      148.50034      309.64475      0.11315229   
    127000   494.04101      1380.4756      1874.5166      145.63643      308.95327      0.11788371   
    128000   473.33889      1355.9266      1829.2655      143.02924      303.45915      0.1232774    
    129000   443.9197       1347.7313      1791.651       129.03421      301.62504      0.12545185   
    130000   486.33704      1327.2536      1813.5906      108.48601      297.04207      0.12206094   
    131000   473.2762       1295.2784      1768.5546      79.976709      289.88596      0.1156864    
    132000   472.33507      1341.3914      1813.7265      99.270337      300.20614      0.11271137   
    133000   463.84761      1321.4528      1785.3004      96.599801      295.74384      0.11097073   
    134000   507.14447      1321.5602      1828.7047      89.275137      295.76789      0.11034485   
    135000   470.08719      1317.19        1787.2772      87.191109      294.78983      0.11135274   
    136000   455.31202      1287.1459      1742.4579      80.543956      288.06589      0.1143815    
    137000   459.04661      1270.7757      1729.8223      52.800916      284.40221      0.11795358   
    138000   465.46035      1301.1334      1766.5938      88.723242      291.19633      0.11964063   
    139000   427.53886      1349.6896      1777.2285      110.35387      302.06331      0.11970101   
    140000   455.68748      1303.9146      1759.6021      116.31042      291.81876      0.11864913   
    141000   478.52222      1311.7003      1790.2225      132.93633      293.56121      0.11524734   
    142000   497.93262      1370.2045      1868.1371      152.04663      306.65458      0.11091111   
    143000   520.065        1379.5173      1899.5823      146.66943      308.7388       0.10740444   
    144000   480.73254      1380.0279      1860.7604      130.68151      308.85307      0.10614138   
    145000   498.0656       1355.0419      1853.1075      141.17159      303.26116      0.10750243   
    146000   473.57228      1375.1075      1848.6798      151.98389      307.75188      0.11048199   
    147000   483.65667      1349.5697      1833.2264      152.09189      302.03647      0.11405389   
    148000   489.68746      1379.7729      1869.4603      134.89006      308.796        0.11575812   
    149000   476.99487      1358.0433      1835.0382      89.262877      303.93289      0.11556974   
    150000   467.02075      1348.1879      1815.2086      72.486946      301.72721      0.11526601   
    151000   459.21522      1366.8267      1826.042       69.015301      305.89863      0.11460902   
    152000   476.62637      1334.5288      1811.1552      102.60333      298.67029      0.11330968   
    153000   510.46151      1386.8453      1897.3068      118.65403      310.37883      0.11078977   
    154000   502.45455      1356.1357      1858.5902      108.9297       303.50594      0.10695731   
    155000   478.18505      1351.9454      1830.1304      99.204471      302.56815      0.1051691    
    156000   486.12553      1351.3381      1837.4636      86.230461      302.43224      0.10653739   
    157000   473.25954      1301.2978      1774.5573      89.649209      291.23312      0.1124516    
    158000   460.4915       1310.6346      1771.1261      68.501458      293.32271      0.11591154   
    159000   465.17804      1280.7396      1745.9176      74.368287      286.63215      0.11635373   
    160000   459.27073      1298.2994      1757.5701      79.623311      290.56207      0.11393414   
    161000   468.07633      1309.6721      1777.7484      94.909818      293.10731      0.11038896   
    162000   479.75964      1331.0491      1810.8088      124.22455      297.89152      0.10750392   
    163000   482.32727      1368.9977      1851.325       140.33899      306.38449      0.10687324   
    164000   481.06124      1378.4714      1859.5326      156.09165      308.50472      0.10809455   
    165000   487.00187      1393.5461      1880.548       129.77937      311.87848      0.11008144   
    166000   505.40193      1357.5961      1862.9981      93.262373      303.8328       0.11146439   
    167000   486.0602       1351.2815      1837.3417      82.29215       302.41956      0.11205309   
    168000   447.49557      1337.9422      1785.4378      85.38933       299.43421      0.11180592   
    169000   458.05386      1315.7906      1773.8445      104.3655       294.47665      0.11266505   
    170000   469.88328      1289.0554      1758.9387      116.10139      288.49325      0.11382165   
    171000   471.4603       1311.5358      1782.9961      119.71904      293.52441      0.1139769    
    172000   464.21776      1309.2367      1773.4544      132.05735      293.00985      0.11390341   
    173000   491.76224      1286.3289      1778.0912      86.67779       287.88306      0.11506142   
    174000   465.46943      1318.0658      1783.5352      58.901618      294.98582      0.11824053   
    175000   460.68366      1324.2811      1784.9648      37.52172       296.37683      0.11862812   
    176000   478.22306      1296.9265      1775.1496      32.831867      290.25481      0.11462549   
    177000   486.19192      1289.5748      1775.7667      60.042522      288.60948      0.11021496   
    178000   452.68504      1306.3338      1759.0189      119.84139      292.36019      0.10838894   
    179000   458.74553      1351.9999      1810.7454      155.80301      302.58035      0.10769184   
    180000   491.81118      1328.3856      1820.1968      133.60047      297.29543      0.10779481   
    181000   461.46766      1319.3648      1780.8325      119.35568      295.27656      0.1081936    
    182000   468.54665      1333.2216      1801.7683      87.494756      298.37773      0.10919957   
    183000   462.02429      1300.4745      1762.4988      71.032733      291.04886      0.11027871   
    184000   489.55448      1313.5449      1803.0994      31.004594      293.97404      0.11124977   
    185000   489.51825      1322.8869      1812.4051      4.7369703      296.0648       0.11251488   
    186000   451.73637      1322.8724      1774.6088      21.942404      296.06156      0.11383965   
    187000   474.14871      1330.9833      1805.132       59.855607      297.8768       0.11668794   
    188000   484.03415      1288.7192      1772.7534      117.27474      288.41801      0.11875551   
    189000   465.73486      1336.3989      1802.1338      134.70901      299.08882      0.11633439   
    190000   443.44932      1312.9603      1756.4096      121.04768      293.8432       0.10983279   
    191000   486.69225      1262.2539      1748.9462      82.259047      282.49502      0.10732071   
    192000   475.68704      1310.4202      1786.1072      66.153711      293.27473      0.10743427   
    193000   469.34011      1328.9941      1798.3342      70.209032      297.43161      0.10746626   
    194000   467.02543      1295.7926      1762.8181      51.124444      290.00105      0.10743119   
    195000   483.15578      1324.1668      1807.3226      44.65655       296.35126      0.1080504    
    196000   458.66962      1331.9683      1790.6379      94.870915      298.09724      0.10923147   
    197000   466.36486      1305.7257      1772.0906      106.3457       292.22409      0.11086681   
    198000   505.45241      1302.1002      1807.5526      112.97974      291.41271      0.11290867   
    199000   460.40534      1330.6369      1791.0423      134.16579      297.79927      0.11633815   
    200000   488.82562      1310.3315      1799.1571      131.58828      293.25488      0.11745986   
    201000   456.89433      1305.0699      1761.9643      95.372272      292.07733      0.11448573   
    202000   455.81874      1271.5157      1727.3344      94.993867      284.56781      0.11020501   
    203000   478.54842      1316.6918      1795.2403      100.19673      294.67834      0.10754065   
    204000   474.7801       1308.0035      1782.7836      96.883347      292.73386      0.10709806   
    205000   452.57683      1289.4786      1742.0554      104.25841      288.58796      0.10861229   
    206000   452.51214      1299.8462      1752.3583      109.59033      290.90824      0.11136018   
    207000   491.90563      1310.444       1802.3496      105.68307      293.28005      0.11208207   
    208000   438.98253      1344.6201      1783.6026      153.60817      300.92874      0.11192478   
    209000   488.49932      1333.8423      1822.3416      139.24991      298.51664      0.11089346   
    210000   479.9977       1334.7821      1814.7798      137.45249      298.72697      0.11057149   
    211000   461.84354      1318.855       1780.6985      109.97623      295.16245      0.11140293   
    212000   487.80258      1358.8073      1846.6099      83.784098      304.10386      0.11387421   
    213000   487.44192      1358.844       1846.2859      73.342516      304.11207      0.11656011   
    214000   449.24387      1384.2073      1833.4512      96.813159      309.78844      0.11732698   
    215000   483.19573      1344.3391      1827.5348      127.97265      300.86585      0.11766385   
    216000   468.24739      1353.9379      1822.1853      107.31767      303.01407      0.11705243   
    217000   474.24152      1379.6415      1853.8831      98.432769      308.76661      0.11554      
    218000   518.44442      1304.0187      1822.4631      64.637848      291.84206      0.11172382   
    219000   472.73366      1352.646       1825.3797      81.96793       302.72495      0.10832772   
    220000   451.07068      1360.2824      1811.3531      91.528108      304.434        0.10709325   
    221000   492.63455      1342.1457      1834.7802      94.673822      300.37495      0.10967024   
    222000   474.18595      1355.7041      1829.8901      102.93412      303.40936      0.11401189   
    223000   480.0421       1357.2252      1837.2673      94.624076      303.74979      0.11612945   
    224000   438.84753      1380.0211      1818.8686      97.894425      308.85155      0.11647413   
    225000   482.18382      1344.4981      1826.6819      80.66199       300.90143      0.11545716   
    226000   491.56307      1330.8574      1822.4205      49.566111      297.84862      0.11324181   
    227000   485.30379      1333.0298      1818.3336      21.885355      298.33482      0.11056228   
    228000   477.58701      1358.5675      1836.1545      49.390667      304.05019      0.11065243   
    229000   502.59853      1375.6892      1878.2877      94.263492      307.88207      0.11240044   
    230000   479.43159      1356.2485      1835.68        99.701573      303.53119      0.11470058   
    231000   477.75258      1364.6321      1842.3847      99.722823      305.40746      0.1160189    
    232000   447.24512      1387.6253      1834.8704      95.704407      310.55338      0.11615477   
    233000   456.31926      1379.946       1836.2653      127.07539      308.83474      0.11533303   
    234000   474.16559      1352.7267      1826.8923      123.22634      302.74301      0.11177277   
    235000   479.8199       1361.1323      1840.9522      125.53766      304.62421      0.10912077   
    236000   474.35007      1368.5811      1842.9312      142.47152      306.29126      0.1096328    
    237000   474.40707      1364.0611      1838.4681      128.3515       305.27966      0.11159459   
    238000   478.5186       1377.0349      1855.5535      105.28985      308.18325      0.11316096   
    239000   478.14931      1325.1947      1803.344       125.5944       296.5813       0.11528921   
    240000   462.7412       1312.9428      1775.684       146.92668      293.8393       0.11588944   
    241000   460.76932      1313.2803      1774.0497      139.6595       293.91483      0.1154137    
    242000   479.73185      1316.184       1795.9159      98.120802      294.56469      0.11417701   
    243000   452.61536      1327.8998      1780.5151      104.39838      297.18669      0.11267618   
    244000   480.65758      1311.9684      1792.626       113.92284      293.62122      0.11109502   
    245000   520.82278      1323.4035      1844.2262      107.69731      296.18041      0.11015889   
    246000   503.46461      1332.2838      1835.7484      90.899099      298.16785      0.10916617   
    247000   492.65549      1329.8445      1822.5         74.573847      297.62193      0.10988974   
    248000   474.1725       1359.5163      1833.6888      62.331617      304.26255      0.11395855   
    249000   478.16009      1402.9808      1881.1409      59.950162      313.98998      0.11819632   
    250000   479.20758      1358.6304      1837.838       74.250193      304.06428      0.1192488    
    251000   468.21021      1349.8449      1818.0551      98.430498      302.09805      0.11876342   
    252000   479.88205      1398.7089      1878.5909      132.30764      313.03392      0.11569155   
    253000   489.39382      1384.4815      1873.8754      137.06524      309.84981      0.11242444   
    254000   469.64547      1356.4145      1826.06        103.52394      303.56836      0.11193257   
    255000   464.7032       1368.9108      1833.614       57.59665       306.36505      0.11295072   
    256000   503.40793      1328.0915      1831.4994      62.954011      297.2296       0.11525062   
    257000   495.00518      1331.6619      1826.6671      70.444983      298.02867      0.11559087   
    258000   479.38328      1334.109       1813.4923      95.923153      298.57634      0.11550324   
    259000   452.96338      1358.037       1811.0004      118.39275      303.93147      0.11552079   
    260000   482.02051      1362.4994      1844.5199      102.30081      304.93015      0.11442774   
    261000   503.20289      1331.9993      1835.2022      72.470313      298.10418      0.11144146   
    262000   489.33572      1345.5234      1834.8591      78.660582      301.13089      0.10755045   
    263000   503.44136      1373.0418      1876.4831      105.21791      307.28956      0.10579024   
    264000   492.22885      1317.8585      1810.0874      95.410425      294.93945      0.10713943   
    265000   469.22589      1302.4704      1771.6963      109.73429      291.49555      0.11009815   
    266000   478.60671      1312.1621      1790.7688      117.50563      293.66456      0.11202787   
    267000   460.64543      1348.4293      1809.0747      125.27668      301.78123      0.11286433   
    268000   497.89082      1379.2215      1877.1123      130.27232      308.6726       0.11387888   
    269000   488.68003      1393.4391      1882.1192      134.90116      311.85454      0.11385415   
    270000   485.02791      1356.7573      1841.7852      89.914184      303.64506      0.11243661   
    271000   485.62562      1363.8158      1849.4414      87.084258      305.22477      0.11138968   
    272000   473.41514      1378.8171      1852.2323      92.721997      308.5821       0.11000952   
    273000   487.85284      1397.0841      1884.937       92.145107      312.67029      0.10482028   
    274000   488.60673      1351.8281      1840.4348      95.995914      302.5419       0.099115072  
    275000   533.65856      1302.4115      1836.0701      87.891437      291.48237      0.099168269  
    276000   485.2482       1321.845       1807.0932      101.41212      295.83162      0.10279263   
    277000   482.97715      1302.1415      1785.1187      103.37968      291.42195      0.10726284   
    278000   454.11411      1298.3289      1752.443       95.165573      290.56867      0.11012284   
    279000   456.08789      1299.1629      1755.2508      76.041047      290.75532      0.11232175   
    280000   462.36825      1317.4178      1779.786       51.620105      294.8408       0.11416701   
    281000   479.34887      1304.4979      1783.8468      72.199412      291.94931      0.11554275   
    282000   445.7935       1298.891       1744.6845      118.04694      290.69448      0.11500798   
    283000   455.39713      1301.5087      1756.9059      149.8011       291.28033      0.11420714   
    284000   468.28225      1336.0383      1804.3205      175.56884      299.0081       0.11514967   
    285000   479.1046       1332.1975      1811.3021      174.1608       298.14854      0.11757329   
    286000   473.79197      1347.5008      1821.2928      110.88383      301.57345      0.11757826   
    287000   480.66557      1307.1761      1787.8416      59.265314      292.54869      0.11569772   
    288000   470.45473      1308.0797      1778.5345      76.491811      292.75093      0.11335744   
    289000   479.07748      1360.5652      1839.6426      102.21956      304.49727      0.11087294   
    290000   475.43214      1365.4425      1840.8747      142.8282       305.58884      0.11101577   
    291000   499.6384       1358.5175      1858.1559      154.12324      304.039        0.11232945   
    292000   474.28527      1352.8781      1827.1634      133.02759      302.7769       0.11342369   
    293000   467.13084      1362.3122      1829.443       98.303627      304.88827      0.11381321   
    294000   473.64053      1337.4407      1811.0812      61.410513      299.32197      0.11414126   
    295000   480.3383       1344.426       1824.7643      64.040784      300.8853       0.11521909   
    296000   497.53361      1328.3328      1825.8664      97.104029      297.2836       0.11511606   
    297000   486.18819      1359.9814      1846.1696      147.14546      304.36662      0.11244481   
    298000   497.944        1307.2715      1805.2155      139.31692      292.57005      0.10850484   
    299000   482.70491      1330.3956      1813.1006      97.069687      297.74528      0.10637117   
    300000   483.4016       1334.1836      1817.5852      72.566195      298.59303      0.10708328   
    301000   475.10234      1336.6039      1811.7062      37.245398      299.1347       0.10934445   
    302000   487.14027      1314.827       1801.9673      25.524261      294.26099      0.11276604   
    303000   490.37994      1334.3376      1824.7176      46.088744      298.6275       0.11541863   
    304000   491.64821      1322.2085      1813.8567      78.008202      295.91298      0.11659927   
    305000   479.28358      1263.8996      1743.1832      131.47749      282.86333      0.11695053   
    306000   485.56747      1304.3126      1789.8801      146.81622      291.90784      0.11383779   
    307000   473.59512      1309.8669      1783.462       113.8369       293.1509       0.10774274   
    308000   477.0777       1310.7032      1787.7809      98.200992      293.33807      0.10577708   
    309000   473.85549      1324.3812      1798.2367      80.518934      296.39923      0.10600695   
    310000   474.64609      1332.0615      1806.7076      98.520423      298.1181       0.1077049    
    311000   495.13615      1310.7262      1805.8624      108.69343      293.34322      0.10884972   
    312000   487.38547      1341.1797      1828.5652      118.16046      300.15877      0.11039599   
    313000   482.80448      1346.8489      1829.6534      156.41898      301.42756      0.11304104   
    314000   470.86228      1347.6131      1818.4754      148.88749      301.59859      0.11465338   
    315000   486.50506      1322.2054      1808.7104      142.64797      295.91228      0.11683478   
    316000   484.57196      1337.5156      1822.0876      149.25409      299.33874      0.1176771    
    317000   454.53852      1373.9738      1828.5123      121.25138      307.49815      0.11489369   
    318000   468.36944      1356.1551      1824.5245      81.913788      303.51029      0.11239297   
    319000   511.5795       1323.6084      1835.1879      60.865453      296.22628      0.11029415   
    320000   489.06935      1356.24        1845.3093      59.496102      303.52929      0.10830698   
    321000   496.28074      1345.94        1842.2208      50.78387       301.22414      0.10691644   
    322000   492.44191      1339.9927      1832.4347      68.060167      299.89313      0.10767436   
    323000   462.61452      1347.1277      1809.7422      93.058314      301.48994      0.11134523   
    324000   470.25821      1306.5778      1776.836       92.9325        292.4148       0.11519546   
    325000   486.53706      1304.3558      1790.8929      100.56459      291.91751      0.11681741   
    326000   489.59657      1320.0086      1809.6052      118.72992      295.42064      0.11612033   
    327000   438.00616      1318.9492      1756.9553      99.046849      295.18353      0.11354719   
    328000   457.05692      1326.8394      1783.8963      90.911795      296.94937      0.11123545   
    329000   486.65895      1330.5607      1817.2197      54.338492      297.78222      0.10773916   
    330000   470.53539      1374.2976      1844.833       56.184259      307.57062      0.10201565   
    331000   509.16126      1341.2796      1850.4409      42.805072      300.18113      0.098464891  
    332000   527.57142      1341.8528      1869.4242      55.090642      300.30941      0.099764365  
    333000   470.9826       1373.6706      1844.6532      113.038        307.43031      0.10318811   
    334000   493.50501      1353.633       1847.138       133.32143      302.94585      0.10631052   
    335000   497.19622      1355.7454      1852.9416      129.52033      303.4186       0.10809945   
    336000   482.15563      1334.8111      1816.9667      130.13584      298.73346      0.11097457   
    337000   462.4056       1354.5132      1816.9188      154.28762      303.14285      0.11452867   
    338000   461.65086      1341.8268      1803.4777      138.0882       300.30359      0.11652006   
    339000   484.3277       1288.39        1772.7177      120.30064      288.34432      0.11744464   
    340000   486.24966      1321.4427      1807.6923      81.151831      295.74158      0.11617608   
    341000   458.90696      1347.2013      1806.1083      86.581734      301.50642      0.11365199   
    342000   471.168        1341.5046      1812.6726      92.880219      300.23148      0.11179534   
    343000   484.41339      1412.7693      1897.1827      111.55395      316.18067      0.11179954   
    344000   491.51941      1368.1025      1859.6219      127.26893      306.18415      0.11230409   
    345000   497.03532      1360.4461      1857.4814      112.34135      304.47063      0.1135075    
    346000   484.6481       1337.3298      1821.9779      92.076349      299.29716      0.11603147   
    347000   483.60156      1310.5845      1794.1861      75.322852      293.3115       0.1203306    
    348000   474.80263      1334.4797      1809.2823      68.488837      298.6593       0.12276379   
    349000   467.0896       1325.3089      1792.3985      91.009044      296.60684      0.12274099   
    350000   451.44659      1323.786       1775.2326      112.35101      296.26603      0.11937754   
    351000   459.0089       1326.4051      1785.414       88.333013      296.85218      0.11361769   
    352000   493.76139      1295.7922      1789.5536      31.91742       290.00095      0.11205923   
    353000   498.50074      1310.1263      1808.627       14.63937       293.20895      0.11316719   
    354000   463.2954       1373.534       1836.8294      25.99881       307.39973      0.11505932   
    355000   469.22025      1331.9618      1801.182       26.344331      298.09578      0.11624207   
    356000   485.74362      1324.955       1810.6987      84.214837      296.52766      0.11600481   
    357000   461.91589      1299.7311      1761.647       135.3899       290.88248      0.11603937   
    358000   461.39498      1315.3498      1776.7448      167.83699      294.378        0.11757593   
    359000   482.39796      1330.3389      1812.7368      160.90741      297.73257      0.11960485   
    360000   454.90194      1360.1288      1815.0307      119.04476      304.39962      0.11925725   
    361000   474.93734      1357.5804      1832.5178      81.13277       303.82928      0.11642665   
    362000   470.53386      1384.8697      1855.4035      94.058694      309.93668      0.11403267   
    363000   484.66248      1344.4904      1829.1529      104.22562      300.89972      0.11330835   
    364000   457.4115       1376.5038      1833.9153      148.46703      308.06438      0.11495005   
    365000   463.1866       1387.4354      1850.622       160.12719      310.5109       0.11718516   
    366000   480.31182      1402.8106      1883.1224      151.54016      313.95189      0.11868857   
    367000   475.56804      1359.8706      1835.4387      79.253346      304.34183      0.11884697   
    368000   501.61939      1321.8012      1823.4206      32.232713      295.82182      0.11608466   
    369000   503.67693      1322.3659      1826.0428      10.679654      295.94819      0.11239848   
    370000   479.56728      1318.449       1798.0163      36.955083      295.07159      0.11127165   
    371000   471.33791      1346.1203      1817.4582      68.485467      301.26449      0.11205756   
    372000   463.67617      1337.6725      1801.3487      129.39944      299.37385      0.11523422   
    373000   457.94593      1281.9602      1739.9061      170.82052      286.90532      0.11938481   
    374000   447.38312      1287.9397      1735.3228      184.23003      288.24355      0.12190217   
    375000   447.26215      1323.5032      1770.7653      174.60018      296.20273      0.12332895   
    376000   481.82785      1320.6841      1802.512       112.74097      295.57182      0.12337441   
    377000   494.60503      1310.3132      1804.9182      66.439688      293.25077      0.12047658   
    378000   447.69978      1314.5041      1762.2039      49.152023      294.18872      0.11678298   
    379000   482.0985       1294.7705      1776.869       31.256337      289.7723       0.11380477   
    380000   493.48053      1298.7205      1792.201       32.440947      290.65631      0.11275959   
    381000   482.20504      1320.7589      1802.964       69.089774      295.58856      0.11183294   
    382000   453.76203      1349.7559      1803.5179      114.71892      302.07814      0.11061143   
    383000   495.0655       1389.7139      1884.7794      149.11943      311.02082      0.11001226   
    384000   485.41895      1380.6239      1866.0428      171.85946      308.98646      0.11150073   
    385000   477.45047      1355.1281      1832.5786      152.0105       303.28046      0.11435966   
    386000   497.50563      1333.2002      1830.7058      112.34316      298.37293      0.11793742   
    387000   489.84273      1334.0898      1823.9325      87.876659      298.57203      0.11941199   
    388000   469.46221      1355.1015      1824.5637      63.189566      303.27449      0.11663446   
    389000   493.4443       1323.5734      1817.0177      62.426845      296.21845      0.11149338   
    390000   445.44837      1325.9238      1771.3722      67.105899      296.74447      0.10729636   
    391000   484.7045       1320.5955      1805.3         53.249763      295.55198      0.10612157   
    392000   480.2208       1307.5009      1787.7217      58.92169       292.62138      0.10742963   
    393000   477.34288      1281.5646      1758.9075      42.110784      286.81679      0.10909242   
    394000   468.55218      1302.913       1771.4652      92.810832      291.5946       0.11258462   
    395000   469.84027      1308.9993      1778.8396      69.685695      292.95673      0.11425646   
    396000   492.75009      1317.8712      1810.6213      86.199551      294.94227      0.11493362   
    397000   480.16192      1300.9478      1781.1097      99.485597      291.15478      0.11315518   
    398000   493.90876      1329.0213      1822.9301      145.9486       297.4377       0.11020089   
    399000   458.54474      1339.1689      1797.7137      169.27016      299.70875      0.10706618   
    400000   467.6663       1322.1005      1789.7668      172.10703      295.8888       0.10423691   
Loop time of 2702.69 on 8 procs for 400000 steps with 1500 atoms

Performance: 6.394 ns/day, 3.754 hours/ns, 148.001 timesteps/s, 222.001 katom-step/s
99.4% CPU use with 8 MPI tasks x 1 OpenMP threads

MPI task timing breakdown:
Section |  min time  |  avg time  |  max time  |%varavg| %total
---------------------------------------------------------------
Pair    | 53.617     | 55.253     | 57.046     |  18.5 |  2.04
Bond    | 4.0726     | 4.328      | 4.5349     |   8.3 |  0.16
Kspace  | 1269.5     | 1271.6     | 1273.5     |   4.2 | 47.05
Neigh   | 1.1431     | 1.1462     | 1.1486     |   0.2 |  0.04
Comm    | 31.358     | 31.56      | 31.764     |   2.3 |  1.17
Output  | 0.032376   | 0.034062   | 0.044358   |   2.1 |  0.00
Modify  | 1149.5     | 1245.4     | 1334.9     | 168.3 | 46.08
Other   |            | 93.37      |            |       |  3.45

Nlocal:          187.5 ave         207 max         154 min
Histogram: 1 0 0 1 1 1 0 0 2 2
Nghost:           1301 ave        1337 max        1281 min
Histogram: 3 1 0 0 2 0 1 0 0 1
Neighs:        9015.12 ave       10815 max        6907 min
Histogram: 1 1 0 0 0 2 2 1 0 1

Total # of neighbors = 72121
Ave neighs/atom = 48.080667
Ave special neighs/atom = 2
Neighbor list builds = 2508
Dangerous builds = 0
PPPM initialization ...
  using 12-bit tables for long-range coulomb (src/kspace.cpp:342)
  G vector (1/distance) = 0.26631112
  grid = 54 54 54
  stencil order = 5
  estimated absolute RMS force accuracy = 0.00037551635
  estimated relative force accuracy = 1.1308563e-06
  using single precision FFTW3
  3d grid and FFT values/proc = 39304 20412
Generated 1 of 1 mixed pair_coeff terms from arithmetic mixing rule
Last active /omp style is kspace_style pppm/omp
Setting up Verlet run ...
  Unit style    : real
  Current step  : 0
  Time step     : 0.5
Per MPI rank memory allocation (min/avg/max) = 9.038 | 9.098 | 9.306 Mbytes
   Step         PotEng         KinEng         TotEng         Press           Temp        v_Density   
         0   467.66663      1322.1005      1789.7671      172.10718      295.8888       0.10423691   
      1000   477.16969      1316.2287      1793.3984      112.72916      294.57469      0.10434625   
      2000   517.26649      1325.3887      1842.6552      54.984337      296.62472      0.10572494   
      3000   487.53436      1307.0251      1794.5595      10.560102      292.5149       0.10702777   
      4000   504.94108      1301.7457      1806.6868      7.5463132      291.33337      0.11021033   
      5000   460.50419      1305.6986      1766.2028      57.090051      292.21803      0.11348778   
      6000   462.08469      1326.5589      1788.6436      120.72499      296.8866       0.11543314   
      7000   513.967        1303.953       1817.92        148.26756      291.82735      0.11494063   
      8000   494.8656       1319.1537      1814.0193      138.82156      295.2293       0.1110926    
      9000   487.61425      1304.5415      1792.1558      78.053234      291.95907      0.10769157   
     10000   487.29081      1304.8354      1792.1263      41.737206      292.02485      0.10761497   
     11000   471.33992      1363.4053      1834.7453      61.152278      305.13292      0.10874969   
     12000   457.13288      1389.9605      1847.0934      84.06234       311.07602      0.11031718   
     13000   478.21491      1371.7355      1849.9504      164.3619       306.99722      0.11444168   
     14000   501.28724      1335.0981      1836.3853      176.37394      298.79769      0.11842562   
     15000   461.55676      1324.7756      1786.3324      168.38923      296.48751      0.12011194   
     16000   486.53142      1306.5296      1793.061       145.81747      292.404        0.11829817   
     17000   487.42016      1321.453       1808.8732      102.68797      295.7439       0.11280509   
     18000   476.50149      1303.8016      1780.3031      83.178653      291.79348      0.10931719   
     19000   458.79743      1328.9853      1787.7827      76.793892      297.42964      0.10970226   
     20000   460.90398      1304.8739      1765.7779      112.97706      292.03346      0.11204348   
     21000   464.01647      1277.7274      1741.7438      143.18383      285.95801      0.11448496   
     22000   470.01768      1337.1957      1807.2134      165.23905      299.26714      0.11537614   
     23000   480.67967      1342.3066      1822.9863      117.86825      300.41097      0.11451172   
     24000   495.06406      1350.8828      1845.9469      47.848246      302.33034      0.1132554    
     25000   485.53681      1390.1728      1875.7096      53.410181      311.12353      0.11265012   
     26000   498.57341      1346.9628      1845.5362      72.313963      301.45303      0.11066323   
     27000   516.98014      1347.2727      1864.2528      111.62735      301.5224       0.10981494   
     28000   495.0223       1410.7036      1905.7259      157.77437      315.71836      0.11240828   
     29000   466.27614      1386.9775      1853.2536      193.68622      310.40841      0.11679542   
     30000   467.39963      1353.8397      1821.2393      159.32932      302.9921       0.1195053    
     31000   467.41973      1375.8764      1843.2961      113.80759      307.92395      0.11962001   
     32000   481.66263      1356.5557      1838.2183      59.277012      303.59994      0.11779923   
     33000   484.9268       1347.5425      1832.4693      38.907451      301.58279      0.11523203   
     34000   471.98875      1310.457       1782.4457      23.882382      293.28296      0.11380296   
     35000   473.20637      1325.3279      1798.5343      52.975891      296.6111       0.11409388   
     36000   464.06758      1309.2637      1773.3313      87.470492      293.0159       0.11630273   
     37000   442.05462      1321.8059      1763.8605      132.57889      295.82287      0.11936571   
     38000   449.19105      1341.8349      1791.026       124.48236      300.30541      0.1202153    
     39000   476.55034      1364.6389      1841.1892      88.890136      305.40899      0.1176738    
     40000   483.09891      1341.5014      1824.6004      85.82672       300.23077      0.11205945   
     41000   500.406        1353.6447      1854.0507      94.777127      302.94846      0.10915061   
     42000   497.55543      1397.2365      1894.792       90.258829      312.70441      0.10970942   
     43000   485.42323      1378.7918      1864.215       91.9267        308.57644      0.11305494   
     44000   479.73915      1382.4032      1862.1424      59.336803      309.38468      0.11687151   
     45000   454.01801      1346.2585      1800.2765      78.89632       301.2954       0.11923794   
     46000   466.33372      1322.4328      1788.7665      81.447236      295.96317      0.11924753   
     47000   447.27765      1337.7418      1785.0195      91.971416      299.38937      0.11820583   
     48000   474.41342      1312.9926      1787.4061      87.547217      293.85045      0.11813771   
     49000   476.75287      1324.0657      1800.8186      117.40662      296.32862      0.11719077   
     50000   478.24316      1303.5246      1781.7678      110.68332      291.73149      0.11362243   
     51000   449.40617      1303.6661      1753.0723      92.976887      291.76315      0.11001631   
     52000   471.68908      1356.5769      1828.266       84.067816      303.60469      0.10971134   
     53000   486.75208      1351.2948      1838.0469      73.08763       302.42255      0.11193531   
     54000   481.57846      1353.3528      1834.9312      78.658492      302.88313      0.11542358   
     55000   465.17682      1355.7113      1820.8881      75.527381      303.41097      0.11789616   
     56000   462.6821       1379.9493      1842.6314      85.262059      308.83549      0.11896781   
     57000   508.32953      1326.8848      1835.2143      43.315802      296.95954      0.11800385   
     58000   484.01361      1367.1018      1851.1154      54.093169      305.96019      0.11725429   
     59000   486.51162      1369.3784      1855.89        69.915246      306.46969      0.11719474   
     60000   464.55954      1326.2494      1790.8089      115.26981      296.81733      0.11645217   
     61000   465.5225       1319.2065      1784.729       145.61794      295.24113      0.11705233   
     62000   461.99005      1321.5597      1783.5497      165.59821      295.76776      0.12223058   
     63000   433.9653       1347.8137      1781.779       138.33372      301.64348      0.12583471   
     64000   455.71728      1298.4898      1754.2071      70.207252      290.60469      0.12464887   
     65000   450.47235      1335.8229      1786.2953      61.541016      298.95991      0.12161665   
     66000   450.22527      1341.4987      1791.724       82.23734       300.23016      0.11777131   
     67000   466.38699      1342.9837      1809.3707      108.49519      300.56251      0.11522104   
     68000   455.38739      1341.5674      1796.9548      138.49493      300.24553      0.11475244   
     69000   492.48088      1323.9984      1816.4793      131.45183      296.31356      0.11500622   
     70000   498.47544      1308.1721      1806.6476      71.523643      292.77161      0.11537171   
     71000   485.6546       1332.1105      1817.7651      24.509215      298.12905      0.1161221    
     72000   470.99948      1348.7568      1819.7563      63.487978      301.85454      0.11673813   
     73000   461.48101      1410.9656      1872.4466      74.957957      315.777        0.11562432   
     74000   497.82956      1411.709       1909.5386      100.78781      315.94338      0.11370095   
     75000   485.17436      1348.9443      1834.1187      108.56793      301.89651      0.11138918   
     76000   486.51952      1323.7726      1810.2922      96.535042      296.26303      0.1098837    
     77000   469.313        1338.4661      1807.7791      101.33715      299.55146      0.10985344   
     78000   484.34772      1297.4557      1781.8035      81.693734      290.37326      0.11254406   
     79000   480.99829      1335.4317      1816.43        103.62077      298.87236      0.11702642   
     80000   462.91485      1323.0108      1785.9256      109.46001      296.09253      0.12055605   
     81000   461.33257      1343.2367      1804.5693      121.42298      300.61913      0.12235365   
     82000   471.58512      1330.6717      1802.2568      92.225182      297.80706      0.12151997   
     83000   483.28541      1324.631       1807.9164      89.844959      296.45513      0.11872341   
     84000   499.37126      1380.943       1880.3143      57.817252      309.05788      0.11503902   
     85000   491.16573      1362.9427      1854.1084      74.297499      305.02937      0.11331279   
     86000   469.80049      1352.0021      1821.8026      76.869817      302.58085      0.11304404   
     87000   461.78091      1332.1357      1793.9166      82.550442      298.1347       0.1145153    
     88000   475.59647      1307.317       1782.9135      117.52407      292.58024      0.11705277   
     89000   458.54101      1290.853       1749.3941      75.481178      288.89556      0.11627303   
     90000   470.90425      1333.0086      1803.9128      96.699839      298.33006      0.11537647   
     91000   471.2561       1297.689       1768.945       107.13634      290.42545      0.11370835   
     92000   475.91175      1324.1293      1800.0411      130.69914      296.34287      0.11279526   
     93000   475.01558      1309.0907      1784.1063      112.28051      292.97719      0.11316854   
     94000   484.66455      1298.2074      1782.872       107.13251      290.54148      0.11335607   
     95000   459.82782      1323.9454      1783.7733      103.22672      296.30171      0.11235827   
     96000   468.98398      1330.2103      1799.1943      88.783763      297.7038       0.10954106   
     97000   500.09885      1332.3044      1832.4033      96.543313      298.17247      0.10665062   
     98000   500.85673      1364.4029      1865.2596      131.33246      305.35617      0.10545639   
     99000   502.15435      1412.1555      1914.3099      115.6111       316.04331      0.10581898   
    100000   475.69202      1342.2907      1817.9827      113.71321      300.40742      0.11149502   
    101000   499.83769      1338.37        1838.2077      50.72145       299.52996      0.11641047   
    102000   463.05059      1382.0451      1845.0957      28.373317      309.30454      0.11951488   
    103000   467.88153      1347.2367      1815.1183      53.102348      301.51435      0.12231958   
    104000   456.30042      1374.58        1830.8804      91.603107      307.63382      0.12281677   
    105000   445.85425      1349.588       1795.4422      120.6407       302.04055      0.11970149   
    106000   470.69482      1327.6179      1798.3127      89.827666      297.12361      0.11536365   
    107000   481.93702      1380.8702      1862.8072      83.847524      309.04158      0.11380476   
    108000   504.61958      1346.8934      1851.513       48.591546      301.43751      0.11313331   
    109000   475.62105      1369.2084      1844.8295      72.132411      306.43166      0.11320485   
    110000   473.6721       1354.6537      1828.3258      113.19027      303.17428      0.11308611   
    111000   462.16607      1368.7421      1830.9082      163.59491      306.3273       0.11400983   
    112000   472.73125      1354.2177      1826.949       153.8799       303.07671      0.11461602   
    113000   477.26008      1333.1143      1810.3744      120.55348      298.35371      0.11582456   
    114000   482.78847      1326.0598      1808.8483      84.711974      296.77491      0.11677009   
    115000   475.04089      1317.4338      1792.4747      57.904653      294.84438      0.11674828   
    116000   493.53097      1318.9317      1812.4627      26.950499      295.17963      0.11335104   
    117000   483.79546      1304.4141      1788.2096      14.119264      291.93056      0.10861873   
    118000   493.83921      1328.6045      1822.4437      28.718791      297.34441      0.10625008   
    119000   480.49903      1319.7911      1800.2901      60.264559      295.37195      0.10609008   
    120000   486.96853      1330.1317      1817.1002      74.538392      297.6862       0.10588882   
    121000   490.69137      1328.7595      1819.4508      88.52226       297.3791       0.10631894   
    122000   468.95         1300.7667      1769.7167      122.86888      291.11426      0.10883369   
    123000   502.98584      1318.4331      1821.4189      131.00214      295.06803      0.11198937   
    124000   468.76694      1326.8686      1795.6355      148.14402      296.95591      0.11415136   
    125000   451.24188      1314.3527      1765.5946      150.44124      294.15483      0.11568633   
    126000   473.10205      1329.1216      1802.2237      140.59834      297.46014      0.11448883   
    127000   483.2249       1332.5138      1815.7387      99.856201      298.21933      0.10989804   
    128000   459.33877      1319.0642      1778.403       97.329071      295.20928      0.10608629   
    129000   465.90052      1315.6489      1781.5494      72.016623      294.44492      0.10585003   
    130000   482.52811      1348.208       1830.7361      79.423424      301.73172      0.10770119   
    131000   500.39611      1345.6866      1846.0827      53.086068      301.16741      0.10999675   
    132000   479.67321      1358.6055      1838.2787      49.934626      304.0587       0.11324645   
    133000   472.15875      1347.8637      1820.0225      65.666705      301.65467      0.11647734   
    134000   487.91047      1374.9163      1862.8267      127.42942      307.70908      0.11720478   
    135000   496.37842      1350.3124      1846.6908      151.17215      302.20269      0.11537474   
    136000   489.27187      1350.0214      1839.2933      156.72193      302.13756      0.11336281   
    137000   477.44671      1384.5733      1862.02        156.21042      309.87034      0.11212382   
    138000   479.97659      1380.2667      1860.2432      112.64951      308.90651      0.11050925   
    139000   487.17919      1375.1809      1862.3601      76.688435      307.76831      0.10813211   
    140000   489.97169      1410.7456      1900.7173      64.087903      315.72777      0.10652685   
    141000   491.06173      1391.9062      1882.9679      78.900429      311.51146      0.10576249   
    142000   506.39835      1360.2989      1866.6973      77.685754      304.43769      0.10483897   
    143000   487.36736      1338.5928      1825.9601      98.11051       299.57981      0.1072178    
    144000   469.50784      1354.6627      1824.1705      114.2111       303.17629      0.11227705   
    145000   485.00241      1345.8061      1830.8085      141.48612      301.19417      0.11453151   
    146000   487.32354      1334.8988      1822.2223      108.16627      298.75308      0.11491865   
    147000   478.16552      1335.3461      1813.5116      85.873612      298.85319      0.11502202   
    148000   484.61044      1302.296       1786.9065      70.900874      291.45652      0.11457889   
    149000   466.96567      1288.1742      1755.1399      54.905052      288.29603      0.11302799   
    150000   487.42671      1319.0565      1806.4832      60.658127      295.20756      0.10964036   
    151000   480.26741      1328.6634      1808.9308      93.19113       297.35759      0.10628591   
    152000   472.65978      1294.2715      1766.9313      107.70482      289.66062      0.10518362   
    153000   486.51954      1304.9931      1791.5126      133.79675      292.06013      0.10967793   
    154000   484.51585      1340.4431      1824.9589      123.03282      299.99391      0.11454863   
    155000   462.93289      1340.8767      1803.8096      123.49993      300.09096      0.11681175   
    156000   476.23718      1342.0842      1818.3214      118.43616      300.36121      0.11721163   
    157000   454.35427      1322.4369      1776.7912      106.57354      295.96409      0.11578809   
    158000   466.82832      1337.0259      1803.8542      76.257584      299.22913      0.11331641   
    159000   480.13701      1344.7931      1824.9301      80.129521      300.96745      0.1097233    
    160000   496.68523      1365.1153      1861.8005      100.80918      305.5156       0.10739304   
    161000   458.05101      1374.2572      1832.3082      121.29952      307.56159      0.10761553   
    162000   501.6897       1351.0142      1852.7039      103.819        302.35975      0.11051751   
    163000   461.44277      1345.5548      1806.9975      95.219271      301.13792      0.1140664    
    164000   464.4985       1323.7312      1788.2297      79.117664      296.25376      0.11684574   
    165000   472.88744      1284.5319      1757.4194      89.068139      287.48088      0.11867062   
    166000   457.08434      1335.5666      1792.651       110.54901      298.90256      0.12040027   
    167000   446.93027      1350.0602      1796.9905      143.80189      302.14625      0.12003086   
    168000   468.23007      1330.8303      1799.0603      124.87041      297.84254      0.11638356   
    169000   487.30422      1314.6137      1801.9179      87.614464      294.21325      0.11235      
    170000   512.33816      1365.8116      1878.1498      51.48654       305.67145      0.10895405   
    171000   509.78369      1356.6189      1866.4026      26.540635      303.6141       0.10797709   
    172000   491.96496      1370.8066      1862.7716      33.698549      306.78934      0.10896729   
    173000   465.42524      1371.6731      1837.0983      63.712014      306.98325      0.11181958   
    174000   501.69699      1359.4481      1861.145       129.78462      304.24727      0.11576167   
    175000   472.9216       1396.8247      1869.7462      195.60892      312.61222      0.11724193   
    176000   493.08621      1403.3871      1896.4734      242.993        314.08092      0.11653944   
    177000   481.34201      1370.5719      1851.9139      172.16334      306.73681      0.11413794   
    178000   509.18327      1331.7471      1840.9303      100.1556       298.04772      0.11285901   
    179000   470.75387      1377.1916      1847.9455      75.628379      308.21831      0.11085124   
    180000   502.30611      1367.4278      1869.7339      59.269739      306.03316      0.10929867   
    181000   509.92728      1373.9655      1883.8928      88.251027      307.4963       0.1087921    
    182000   493.37215      1379.8994      1873.2716      142.24377      308.82433      0.10825728   
    183000   503.62721      1319.9956      1823.6228      138.07043      295.41772      0.10899898   
    184000   451.79554      1339.9421      1791.7377      126.6523       299.8818       0.11362338   
    185000   490.66431      1333.2109      1823.8752      92.88947       298.37533      0.11820051   
    186000   467.9032       1336.911       1804.8142      82.936446      299.20342      0.11903849   
    187000   466.86124      1324.8499      1791.7111      79.744109      296.50412      0.11737796   
    188000   490.61308      1299.1241      1789.7372      80.77497       290.74665      0.11396222   
    189000   501.59323      1299.4761      1801.0693      66.609187      290.82541      0.11143383   
    190000   451.30048      1341.6939      1792.9944      86.133662      300.27384      0.11159932   
    191000   504.39356      1315.9561      1820.3496      82.024938      294.51367      0.11255403   
    192000   488.45842      1307.8241      1796.2825      75.284787      292.69372      0.11288273   
    193000   464.76932      1299.395       1764.1644      71.645211      290.80728      0.11283093   
    194000   464.36833      1311.2202      1775.5885      80.755022      293.45377      0.11366729   
    195000   462.68314      1315.1303      1777.8134      77.274839      294.32885      0.11544714   
    196000   461.80851      1327.5398      1789.3483      85.945613      297.10614      0.11579227   
    197000   449.19111      1324.6596      1773.8507      135.84261      296.46154      0.11585909   
    198000   467.37703      1289.3333      1756.7103      124.24019      288.55544      0.11412351   
    199000   476.43435      1301.797       1778.2314      119.14705      291.34485      0.11194825   
    200000   483.6314       1350.063       1833.6944      84.134452      302.14687      0.11045124   
    201000   475.16486      1341.1707      1816.3356      64.39257       300.15676      0.10869954   
    202000   480.94388      1339.3036      1820.2475      68.950081      299.7389       0.10766524   
    203000   477.42048      1350.752       1828.1725      98.620945      302.30107      0.10707244   
    204000   496.99767      1385.8096      1882.8072      138.66039      310.14702      0.10800071   
    205000   518.37004      1332.8495      1851.2196      130.29082      298.29446      0.11112296   
    206000   489.71643      1377.7008      1867.4172      126.4366       308.33226      0.11567685   
    207000   474.94568      1350.1123      1825.058       101.85636      302.1579       0.11774687   
    208000   494.60601      1339.4737      1834.0798      82.7163        299.77697      0.11707496   
    209000   482.67979      1356.7903      1839.4701      76.811458      303.65246      0.11365467   
    210000   489.79116      1320.5481      1810.3393      76.196075      295.54139      0.10996671   
    211000   486.65299      1361.1338      1847.7868      104.59923      304.62454      0.10906635   
    212000   475.08161      1307.6272      1782.7088      122.36813      292.64965      0.10899249   
    213000   490.45594      1318.0535      1808.5095      123.82861      294.98309      0.11046365   
    214000   474.70024      1326.0334      1800.7336      132.9245       296.76899      0.11224079   
    215000   480.43255      1313.7417      1794.1743      119.11986      294.0181       0.11372842   
    216000   494.20332      1314.0725      1808.2759      122.92738      294.09213      0.11377053   
    217000   493.77802      1306.3612      1800.1392      96.202822      292.36631      0.11255266   
    218000   481.98603      1310.2434      1792.2294      62.885397      293.23516      0.10867674   
    219000   502.14607      1325.4478      1827.5939      72.95981       296.63793      0.10342213   
    220000   505.76621      1326.7862      1832.5524      87.993866      296.93747      0.10175566   
    221000   513.39128      1338.2044      1851.5956      71.70837       299.49288      0.10284726   
    222000   513.6712       1381.9516      1895.6228      61.322683      309.28361      0.10725281   
    223000   501.93573      1344.5891      1846.5248      55.119494      300.92179      0.11124414   
    224000   491.69008      1357.7833      1849.4734      84.255846      303.87469      0.11430584   
    225000   469.3151       1351.2057      1820.5208      118.44127      302.4026       0.11655224   
    226000   488.61388      1365.138       1853.7519      156.5903       305.52069      0.11753497   
    227000   497.86546      1390.7203      1888.5858      150.01683      311.24606      0.1166957    
    228000   488.11685      1361.8838      1850.0007      97.527953      304.7924       0.11370697   
    229000   513.96767      1360.7783      1874.746       68.631392      304.54499      0.11064295   
    230000   467.12161      1379.0142      1846.1359      53.050576      308.62622      0.10924468   
    231000   475.69296      1380.7059      1856.3989      91.990441      309.00482      0.1120966    
    232000   501.71971      1378.013       1879.7327      116.58175      308.40214      0.11856339   
    233000   485.15822      1323.2843      1808.4425      140.79912      296.15373      0.12151936   
    234000   456.03033      1336.1549      1792.1853      166.92273      299.03421      0.12073714   
    235000   480.03935      1320.6521      1800.6914      113.19718      295.56464      0.11678535   
    236000   481.41935      1345.5478      1826.9671      77.992819      301.13635      0.11350433   
    237000   484.13801      1310.632       1794.77        36.969857      293.32214      0.11037928   
    238000   476.81642      1333.8384      1810.6548      3.9210006      298.51578      0.10835692   
    239000   491.05888      1309.4952      1800.5541      24.344244      293.06771      0.10805663   
    240000   477.30922      1258.7457      1736.0549      58.244166      281.70988      0.10950706   
    241000   479.47315      1313.006       1792.4791      126.33365      293.85344      0.11320691   
    242000   490.63851      1321.7682      1812.4067      167.16736      295.81444      0.11623466   
    243000   478.42193      1383.8971      1862.319       209.37913      309.71901      0.1171289    
    244000   488.33391      1378.7761      1867.11        162.79755      308.57293      0.11567989   
    245000   481.51054      1360.7046      1842.2151      125.50543      304.52849      0.11467403   
    246000   486.58474      1355.6352      1842.22        102.22071      303.39394      0.11401503   
    247000   505.47544      1322.71        1828.1854      80.446396      296.02521      0.11274514   
    248000   491.13088      1339.1973      1830.3282      100.16302      299.71511      0.11093146   
    249000   476.52347      1343.2417      1819.7652      100.45331      300.62025      0.10924856   
    250000   486.86291      1322.895       1809.7579      67.4273        296.06661      0.10739032   
    251000   512.59501      1307.4969      1820.0919      44.956106      292.62049      0.1081609    
    252000   493.4033       1300.4925      1793.8958      54.29513       291.0529       0.11478642   
    253000   466.09203      1345.4474      1811.5394      73.924856      301.11389      0.11918492   
    254000   481.69463      1319.1928      1800.8875      92.523605      295.23806      0.11910087   
    255000   488.0001       1322.7761      1810.7762      90.96134       296.04001      0.11697263   
    256000   479.19607      1325.0461      1804.2422      99.232077      296.54805      0.1134182    
    257000   485.79534      1347.7099      1833.5052      120.61468      301.62024      0.11219178   
    258000   482.97634      1323.4127      1806.389       146.07662      296.18248      0.11279354   
    259000   506.85101      1323.364       1830.215       172.8762       296.17158      0.11500755   
    260000   479.50928      1340.377       1819.8863      183.9974       299.97913      0.11872636   
    261000   469.55745      1370.0471      1839.6046      179.11141      306.61936      0.12351742   
    262000   456.17931      1352.1134      1808.2927      119.90021      302.60576      0.12799586   
    263000   478.73142      1363.8595      1842.5909      47.975899      305.23456      0.12817165   
    264000   470.52909      1353.8907      1824.4198     -18.001191      303.00352      0.12178168   
    265000   470.98513      1355.8259      1826.8111     -23.85866       303.43663      0.11675055   
    266000   497.59447      1371.2693      1868.8638      26.84931       306.89289      0.11516298   
    267000   489.73042      1344.0732      1833.8036      79.690438      300.80634      0.11393978   
    268000   485.16036      1359.2965      1844.4569      141.23844      304.21335      0.11418335   
    269000   507.9261       1367.2702      1875.1963      160.69707      305.99788      0.11603713   
    270000   480.81044      1340.7573      1821.5677      162.6455       300.06423      0.11858391   
    271000   459.00684      1343.915       1802.9218      130.10087      300.77093      0.12105063   
    272000   476.56899      1322.7326      1799.3016      94.906099      296.03028      0.12320051   
    273000   472.93132      1297.9956      1770.927       62.584966      290.49409      0.12346162   
    274000   452.46198      1297.4023      1749.8642      34.834875      290.36129      0.12075042   
    275000   461.13548      1308.8725      1770.008       74.220069      292.92835      0.11788328   
    276000   486.16492      1317.0265      1803.1914      103.21904      294.75323      0.11523304   
    277000   496.96143      1312.0874      1809.0489      185.63844      293.64786      0.11475659   
    278000   476.2382       1359.1256      1835.3638      212.13939      304.1751       0.1162314    
    279000   477.92338      1347.0024      1824.9258      215.59907      301.46191      0.12169795   
    280000   473.98394      1356.0822      1830.0661      180.17178      303.49398      0.12581456   
    281000   453.03101      1395.7917      1848.8227      85.082541      312.38105      0.12552971   
    282000   472.79124      1352.4275      1825.2188      16.712462      302.67605      0.12278285   
    283000   486.4751       1365.8883      1852.3634     -9.0649494      305.6886       0.1185995    
    284000   480.83682      1344.8602      1825.697       5.4190772      300.98248      0.11561136   
    285000   487.75099      1333.2754      1821.0264      43.93899       298.38978      0.11396956   
    286000   466.48558      1343.4472      1809.9327      121.37419      300.66623      0.11471403   
    287000   494.43372      1329.4266      1823.8603      166.23409      297.52839      0.11697646   
    288000   482.42587      1349.3353      1831.7612      170.01976      301.98402      0.1188304    
    289000   468.54709      1336.8724      1805.4195      121.71268      299.19478      0.11859749   
    290000   493.28995      1329.1761      1822.4661      111.45427      297.47234      0.11951813   
    291000   483.36051      1326.9814      1810.3419      89.094505      296.98116      0.11984392   
    292000   476.48288      1342.2979      1818.7807      66.603704      300.40902      0.12120456   
    293000   475.31541      1336.4481      1811.7635      56.301078      299.09982      0.12409254   
    294000   455.08916      1353.647       1808.7361      101.97821      302.94897      0.12564572   
    295000   471.76797      1374.0829      1845.8508      130.00582      307.52256      0.12240728   
    296000   488.92381      1335.6516      1824.5754      140.96236      298.92156      0.11778141   
    297000   482.28924      1337.3066      1819.5958      122.8027       299.29196      0.11458244   
    298000   493.39933      1332.7365      1826.1358      103.04295      298.26916      0.11341804   
    299000   519.49413      1311.1305      1830.6247      74.373172      293.4337       0.11257989   
    300000   491.05861      1346.6129      1837.6715      58.923819      301.37473      0.11178226   
    301000   495.84061      1349.1024      1844.943       86.225191      301.93189      0.11223216   
    302000   513.21975      1318.9599      1832.1796      93.140488      295.18593      0.11203217   
    303000   467.65137      1303.0896      1770.741       89.602891      291.63413      0.11073407   
    304000   481.5359       1294.732       1776.2679      100.45222      289.76368      0.11101393   
    305000   458.3076       1331.7026      1790.0102      140.49604      298.03778      0.11165313   
    306000   481.91932      1351.4082      1833.3276      149.5057       302.44794      0.11120492   
    307000   507.75231      1384.0386      1891.7909      164.31304      309.75069      0.11047597   
    308000   511.69382      1404.3745      1916.0684      195.10179      314.30191      0.10850158   
    309000   503.46959      1341.0264      1844.496       160.57506      300.12446      0.10581565   
    310000   485.49064      1322.6863      1808.1769      134.43257      296.0199       0.10561406   
    311000   477.99553      1316.9416      1794.9371      107.40024      294.73423      0.108323     
    312000   478.2163       1320.969       1799.1853      111.04503      295.63558      0.11400286   
    313000   470.48744      1273.0296      1743.517       95.646687      284.90663      0.11681781   
    314000   458.58072      1324.1572      1782.7379      95.043382      296.3491       0.11692219   
    315000   476.66203      1340.157       1816.8191      88.718773      299.9299       0.11432218   
    316000   472.41937      1353.0419      1825.4613      78.156433      302.81356      0.11101062   
    317000   471.64762      1350.0811      1821.7288      51.618372      302.15093      0.10936669   
    318000   501.54443      1320.8891      1822.4336      50.352588      295.6177       0.10952096   
    319000   510.61907      1326.4249      1837.044       56.300766      296.85662      0.11120294   
    320000   463.95435      1367.1551      1831.1095      116.80606      305.97212      0.11344917   
    321000   480.20768      1349.959       1830.1667      178.45572      302.1236       0.1162449    
    322000   508.72487      1370.5321      1879.257       188.12619      306.7279       0.11949577   
    323000   485.0386       1370.5722      1855.6108      190.48876      306.73688      0.1222993    
    324000   459.76518      1372.9342      1832.6994      161.60374      307.2655       0.12070577   
    325000   459.37476      1365.2697      1824.6444      95.389469      305.55016      0.11374624   
    326000   504.7776       1362.8149      1867.5925      74.976036      305.00076      0.11032752   
    327000   508.91317      1407.0709      1915.984       77.888083      314.90534      0.10926627   
    328000   516.46313      1382.2505      1898.7136      85.496419      309.3505       0.10987831   
    329000   531.17828      1343.2607      1874.439       116.68269      300.6245       0.11172536   
    330000   513.19038      1323.1784      1836.3687      120.4628       296.13003      0.11276459   
    331000   486.50328      1313.0903      1799.5936      155.4591       293.87231      0.11388872   
    332000   490.59685      1296.376       1786.9729      111.29654      290.13162      0.1140418    
    333000   491.6372       1297.8974      1789.5346      63.402884      290.47209      0.11385233   
    334000   482.50044      1338.8422      1821.3426      34.009371      299.63562      0.1134791    
    335000   508.26052      1347.4277      1855.6882      28.621712      301.55708      0.11284864   
    336000   503.70245      1379.0472      1882.7497      91.405853      308.6336       0.11328274   
    337000   483.93648      1411.662       1895.5985      153.80128      315.93285      0.11369385   
    338000   479.4517       1378.9976      1858.4493      162.49511      308.6225       0.11375682   
    339000   483.71938      1358.287       1842.0064      162.77017      303.98742      0.11442316   
    340000   485.77935      1345.3441      1831.1234      100.69189      301.09077      0.11364443   
    341000   495.16432      1315.5562      1810.7205      67.070999      294.42417      0.11212145   
    342000   494.74216      1327.1531      1821.8953      2.518035       297.01959      0.10930673   
    343000   483.3839       1319.899       1803.2829      20.879319      295.39611      0.10826162   
    344000   512.76604      1273.9393      1786.7054      61.041216      285.11024      0.10903643   
    345000   476.92423      1298.5426      1775.4668      135.30696      290.61649      0.11082626   
    346000   472.16515      1346.1322      1818.2974      178.74092      301.26715      0.11341803   
    347000   496.31804      1338.5314      1834.8494      158.448        299.56607      0.11666221   
    348000   480.55307      1364.8124      1845.3655      136.83739      305.44782      0.11822042   
    349000   477.96283      1353.8184      1831.7812      99.62487       302.98733      0.11736288   
    350000   484.74457      1360.0599      1844.8044      54.540965      304.38419      0.11354989   
    351000   507.27559      1418.7791      1926.0547      33.960518      317.52567      0.10994528   
    352000   517.93431      1373.9215      1891.8558      27.081831      307.48646      0.10820817   
    353000   509.25054      1348.802       1858.0525      89.776424      301.86465      0.10889402   
    354000   465.89509      1360.6371      1826.5322      146.13899      304.51339      0.11117374   
    355000   483.46119      1345.2811      1828.7423      192.28231      301.07667      0.11516043   
    356000   476.52357      1361.4973      1838.0209      194.95773      304.7059       0.1177445    
    357000   494.62485      1343.1505      1837.7754      134.40684      300.59984      0.1177766    
    358000   486.54494      1374.6133      1861.1583      71.741103      307.64129      0.11587964   
    359000   464.66998      1364.1757      1828.8457      13.960582      305.30533      0.1141184    
    360000   499.70833      1331.9449      1831.6532      3.9935584      298.092        0.11345476   
    361000   494.45778      1338.2776      1832.7354      50.12774       299.50928      0.11391985   
    362000   481.40436      1377.6001      1859.0044      130.01345      308.30972      0.11420731   
    363000   479.78994      1356.74        1836.53        181.18474      303.6412       0.11439683   
    364000   479.35808      1368.4253      1847.7834      168.46908      306.25639      0.11407451   
    365000   510.90363      1344.3723      1855.276       165.9447       300.87329      0.11591322   
    366000   473.62717      1396.4061      1870.0333      120.05255      312.51855      0.11779681   
    367000   521.08046      1351.6055      1872.686       75.626672      302.49209      0.1180866    
    368000   497.35269      1356.3467      1853.6994      59.651997      303.55317      0.11675041   
    369000   485.83684      1399.8243      1885.6611      78.456174      313.28354      0.11294118   
    370000   500.4193       1368.9867      1869.406       91.230366      306.38203      0.10868589   
    371000   503.59351      1350.6925      1854.286       96.555104      302.28776      0.10761493   
    372000   503.23731      1355.5912      1858.8285      116.68184      303.3841       0.10889588   
    373000   488.27755      1408.8049      1897.0825      137.88106      315.29343      0.11053667   
    374000   487.05738      1369.0365      1856.0939      137.93096      306.39317      0.11255698   
    375000   488.23274      1367.7803      1856.013       129.66585      306.11203      0.11450009   
    376000   511.07084      1382.4431      1893.514       93.063434      309.39361      0.11429919   
    377000   498.4083       1343.822       1842.2303      45.01646       300.75012      0.11267046   
    378000   488.38249      1334.0179      1822.4004      0.20365535     298.55594      0.11106681   
    379000   502.71946      1321.6239      1824.3434     -13.19311       295.78215      0.11126689   
    380000   497.30623      1302.6886      1799.9949      6.4835325      291.54439      0.11315079   
    381000   457.57908      1302.8832      1760.4622      56.090701      291.58793      0.1155277    
    382000   503.49006      1328.4044      1831.8944      109.53386      297.29962      0.11781725   
    383000   470.94724      1368.54        1839.4873      159.34378      306.28207      0.11698846   
    384000   496.15138      1358.3193      1854.4707      151.84723      303.99464      0.1122599    
    385000   500.09192      1366.8418      1866.9337      139.7494       305.90199      0.10976863   
    386000   509.90278      1374.8915      1884.7943      113.19457      307.70354      0.10958243   
    387000   485.33069      1425.0864      1910.4171      105.77395      318.93726      0.11097008   
    388000   495.53958      1360.8634      1856.4029      90.406589      304.56402      0.11178701   
    389000   477.45296      1340.1996      1817.6525      100.98989      299.93941      0.11259261   
    390000   475.97058      1357.9308      1833.9014      129.54954      303.9077       0.11419845   
    391000   494.65988      1328.4597      1823.1196      145.72212      297.31201      0.11526163   
    392000   492.98271      1327.559       1820.5417      152.46091      297.11042      0.11532533   
    393000   438.41508      1311.7141      1750.1292      131.92471      293.56431      0.11471733   
    394000   471.16261      1335.2795      1806.4421      122.01633      298.83829      0.11517723   
    395000   483.89151      1311.765       1795.6565      102.88349      293.57569      0.11517389   
    396000   478.19524      1314.0986      1792.2938      91.507606      294.09796      0.1150842    
    397000   466.31501      1332.4776      1798.7926      108.28582      298.21122      0.11696329   
    398000   443.85328      1287.8433      1731.6966      131.23407      288.22198      0.11917532   
    399000   446.40589      1309.533       1755.9389      146.02896      293.07617      0.11999827   
    400000   471.08885      1321.5441      1792.633       124.93465      295.76429      0.11722732   
    401000   479.38068      1364.718       1844.0987      103.31999      305.4267       0.11340284   
    402000   500.72266      1340.3733      1841.096       70.482079      299.9783       0.10997487   
    403000   494.36181      1358.2519      1852.6137      90.660102      303.97955      0.10868472   
    404000   507.50051      1386.0771      1893.5777      100.50741      310.20691      0.11015153   
    405000   497.0299       1349.7759      1846.8058      126.87649      302.08263      0.11282407   
    406000   488.90935      1313.8143      1802.7236      143.60586      294.03433      0.11465904   
    407000   480.35071      1306.0735      1786.4242      149.9452       292.30193      0.11535546   
    408000   447.28194      1306.6391      1753.9211      148.67662      292.42852      0.11478195   
    409000   466.81904      1311.3011      1778.1201      112.25139      293.47187      0.11354693   
    410000   442.9907       1351.3521      1794.3428      123.97628      302.43538      0.11312668   
    411000   495.63957      1337.152       1832.7916      91.710936      299.25737      0.11120982   
    412000   504.05038      1373.498       1877.5484      69.265648      307.39167      0.10784228   
    413000   500.3984       1374.8278      1875.2262      55.901353      307.68929      0.1031901    
    414000   526.00831      1389.5357      1915.544       79.317224      310.98095      0.10096927   
    415000   501.18197      1388.6313      1889.8133      102.1314       310.77853      0.10310391   
    416000   489.5817       1373.013       1862.5947      138.38816      307.28314      0.10857349   
    417000   501.99644      1341.7419      1843.7384      109.23696      300.2846       0.11078672   
    418000   464.4065       1333.8066      1798.2131      90.243839      298.50865      0.11202485   
    419000   474.34011      1295.3542      1769.6943      66.61993       289.90293      0.1125666    
    420000   490.01866      1268.0897      1758.1084      60.557272      283.80108      0.11336899   
    421000   472.76667      1295.8843      1768.651       111.76556      290.02157      0.11613324   
    422000   454.60529      1323.6882      1778.2935      126.84719      296.24414      0.1184726    
    423000   451.30149      1335.2254      1786.5269      126.66474      298.8262       0.11918512   
    424000   444.48682      1351.6788      1796.1656      114.98247      302.50849      0.11805099   
    425000   463.49041      1304.0431      1767.5335      48.919036      291.84753      0.11371894   
    426000   476.58858      1321.0835      1797.672       35.499601      295.66119      0.11079751   
    427000   467.51916      1335.6689      1803.188       72.095161      298.92544      0.1100166    
    428000   487.59485      1372.7037      1860.2986      84.85434       307.21391      0.10855638   
    429000   507.47037      1355.1208      1862.5912      89.808736      303.27881      0.10878016   
    430000   505.31437      1357.9881      1863.3024      81.485102      303.92051      0.11233859   
    431000   495.71192      1377.0382      1872.7501      93.11998       308.18398      0.11755908   
    432000   496.61615      1386.7306      1883.3467      103.28711      310.35315      0.11928922   
    433000   494.95079      1351.8331      1846.7839      102.61542      302.54302      0.11842189   
    434000   484.8466       1335.6351      1820.4817      129.58292      298.91787      0.11750682   
    435000   492.57614      1335.1411      1827.7173      155.15         298.80732      0.1167488    
    436000   481.19855      1324.1122      1805.3108      108.94246      296.33903      0.1139069    
    437000   482.53536      1308.6678      1791.2032      51.959646      292.88255      0.11065978   
    438000   500.95123      1280.2908      1781.2421      3.9401376      286.53172      0.10813002   
    439000   515.93964      1333.4829      1849.4225     -3.2578976      298.4362       0.10823291   
    440000   482.82542      1370.4642      1853.2897      28.569845      306.71271      0.11051524   
    441000   507.32728      1367.2958      1874.6231      73.761621      306.00361      0.11322548   
    442000   471.37655      1361.8093      1833.1859      101.19921      304.77573      0.11491339   
    443000   462.8265       1307.2785      1770.105       127.26888      292.57161      0.11674774   
    444000   475.17198      1327.5585      1802.7305      125.47533      297.11032      0.11664695   
    445000   488.81648      1306.912       1795.7285      117.08486      292.4896       0.11404061   
    446000   492.1444       1300.3716      1792.516       101.45275      291.02584      0.11131005   
    447000   479.18958      1333.3417      1812.5312      99.047447      298.4046       0.11006406   
    448000   475.62795      1306.8418      1782.4697      112.65772      292.47387      0.10920587   
    449000   493.16343      1333.9433      1827.1068      110.86295      298.53925      0.10873689   
    450000   483.47742      1350.6384      1834.1158      102.06032      302.27564      0.10906451   
    451000   476.76473      1327.6038      1804.3685      85.8057        297.12046      0.11107009   
    452000   472.55474      1279.8059      1752.3607      42.791538      286.4232       0.11658144   
    453000   466.32152      1289.5513      1755.8729      25.435844      288.60424      0.12181042   
    454000   477.67698      1314.3994      1792.0764      70.672005      294.16529      0.12145675   
    455000   470.80592      1341.8576      1812.6635      146.90714      300.31048      0.11727685   
    456000   480.83655      1318.8749      1799.7114      161.00634      295.1669       0.11323817   
    457000   484.57356      1320.6671      1805.2407      169.61637      295.56801      0.11123931   
    458000   463.46227      1291.0878      1754.5501      148.48857      288.94811      0.11024046   
    459000   475.45363      1347.3525      1822.8062      90.003497      301.54027      0.11044756   
    460000   497.67219      1339.3849      1837.0571      48.457398      299.7571       0.11283081   
    461000   480.47304      1349.8187      1830.2918      33.109074      302.0922       0.11684474   
    462000   491.01959      1341.2219      1832.2414      30.73077       300.1682       0.11825939   
    463000   506.92946      1365.356       1872.2855      56.404404      305.56948      0.11676212   
    464000   480.48424      1362.9492      1843.4335      92.800593      305.03084      0.11430601   
    465000   479.28834      1371.5139      1850.8023      134.82551      306.94763      0.11328462   
    466000   486.16463      1350.6497      1836.8143      145.7243       302.27817      0.11292695   
    467000   508.69312      1337.3113      1846.0045      130.86917      299.29302      0.11330512   
    468000   485.84395      1349.6155      1835.4594      150.42399      302.04672      0.11639478   
    469000   489.96398      1350.6443      1840.6083      141.25223      302.27697      0.12167182   
    470000   451.55295      1386.7327      1838.2857      124.69837      310.35363      0.12455955   
    471000   470.97718      1373.3231      1844.3003      149.47091      307.35253      0.12456172   
    472000   445.92308      1369.6718      1815.5949      144.66712      306.53536      0.12243709   
    473000   476.36632      1351.4493      1827.8156      139.52498      302.45712      0.11981372   
    474000   468.00445      1339.2112      1807.2157      136.36348      299.71822      0.11668751   
    475000   477.60205      1295.6772      1773.2793      115.86782      289.97522      0.1153861    
    476000   495.14232      1327.607       1822.7493      113.33812      297.12117      0.11615659   
    477000   484.01776      1334.2144      1818.2322      66.977431      298.59992      0.11672374   
    478000   467.96919      1342.816       1810.7852      85.662776      300.52498      0.11838069   
    479000   451.93094      1342.7605      1794.6915      129.52368      300.51256      0.11952935   
    480000   457.80822      1310.3917      1768.1999      136.53051      293.26835      0.12118156   
    481000   455.89782      1302.359       1758.2569      151.55945      291.47063      0.12272373   
    482000   465.6491       1312.1437      1777.7928      155.4714       293.66045      0.12249502   
    483000   469.93758      1330.4682      1800.4058      102.83996      297.76152      0.11753418   
    484000   475.93873      1339.5823      1815.5211      78.979759      299.80128      0.11267177   
    485000   486.58975      1304.4417      1791.0314      43.206763      291.93673      0.11062565   
    486000   464.1659       1380.6191      1844.785       47.430645      308.98538      0.11198824   
    487000   480.78816      1342.6189      1823.407       90.396683      300.48086      0.11522333   
    488000   501.93044      1344.3142      1846.2446      130.12008      300.86028      0.11802092   
    489000   484.90377      1316.7556      1801.6593      120.01718      294.6926       0.11982237   
    490000   487.06863      1330.7683      1817.837       115.36924      297.82868      0.12091092   
    491000   468.26601      1361.8052      1830.0712      127.22555      304.77481      0.12030084   
    492000   508.27282      1335.4134      1843.6862      131.0667       298.86826      0.11775717   
    493000   503.70837      1386.1248      1889.8331      116.44052      310.21757      0.11478306   
    494000   502.34638      1393.2816      1895.628       109.8188       311.81929      0.11229164   
    495000   496.50997      1342.1515      1838.6615      81.261482      300.37627      0.11102518   
    496000   505.02293      1312.4378      1817.4607      88.816231      293.72627      0.11199831   
    497000   474.87151      1349.4278      1824.2993      110.40467      302.00471      0.11358366   
    498000   479.32132      1338.297       1817.6183      97.036996      299.5136       0.11554582   
    499000   470.4276       1306.9949      1777.4225      94.000417      292.50814      0.1159894    
    500000   480.08765      1304.4447      1784.5324      62.196411      291.93741      0.1149512    
    501000   488.51541      1345.6661      1834.1815      98.439156      301.16284      0.11329855   
    502000   480.67665      1339.9132      1820.5899      113.7624       299.87532      0.11056381   
    503000   495.23703      1335.82        1831.057       164.9063       298.95925      0.10936232   
    504000   499.66494      1298.4597      1798.1247      162.08396      290.59795      0.10913751   
    505000   496.7822       1286.8315      1783.6137      140.59033      287.99553      0.11240137   
    506000   459.28545      1275.4581      1734.7435      100.47838      285.45014      0.11755944   
    507000   447.98073      1327.3658      1775.3465      21.114355      297.06719      0.11969188   
    508000   473.94746      1325.445       1799.3925     -1.5725917      296.63732      0.11940815   
    509000   472.38178      1311.7788      1784.1606      4.2903216      293.5788       0.11698994   
    510000   500.2218       1282.2763      1782.4981      30.776916      286.97607      0.11494171   
    511000   481.26446      1323.3676      1804.6321      63.476995      296.17238      0.11472425   
    512000   494.36822      1326.6127      1820.9809      96.339624      296.89865      0.11724367   
    513000   471.93127      1361.4159      1833.3472      144.85201      304.68768      0.12193816   
    514000   469.38059      1342.5587      1811.9392      136.80954      300.46738      0.12718553   
    515000   468.53404      1345.7024      1814.2365      100.64719      301.17097      0.12957509   
    516000   503.51616      1310.1403      1813.6565      91.921464      293.21209      0.12446718   
    517000   477.32781      1303.7613      1781.0891      81.38915       291.78445      0.11731668   
    518000   474.72007      1331.9521      1806.6722      77.421234      298.09362      0.11420532   
    519000   481.915        1324.8554      1806.7704      63.000805      296.50535      0.11124103   
    520000   491.67374      1331.165       1822.8388      68.42266       297.91746      0.11050237   
    521000   516.21202      1367.9159      1884.1279      80.898325      306.14239      0.11068635   
    522000   513.89422      1364.0782      1877.9724      80.063724      305.2835       0.10996958   
    523000   502.28053      1347.1573      1849.4378      61.696797      301.49657      0.1094027    
    524000   519.66776      1365.1501      1884.8179      83.990558      305.52341      0.11128411   
    525000   481.91881      1370.8454      1852.7642      73.696629      306.79801      0.11501265   
    526000   501.30613      1345.3327      1846.6388      107.49552      301.08821      0.11829989   
    527000   489.97833      1367.5241      1857.5024      126.38959      306.05469      0.11763969   
    528000   485.36411      1357.5749      1842.939       188.37421      303.82804      0.11290185   
    529000   484.05411      1357.7978      1841.8519      167.68074      303.87794      0.10868812   
    530000   503.95821      1365.4399      1869.3981      133.44652      305.58825      0.10837699   
    531000   486.81819      1337.4005      1824.2187      132.53258      299.31298      0.10942774   
    532000   465.31755      1365.0644      1830.382       128.29472      305.50422      0.1109787    
    533000   504.05881      1346.0721      1850.1309      90.276091      301.2537       0.11436475   
    534000   509.50094      1377.1233      1886.6242      76.891157      308.20302      0.11818926   
    535000   491.09379      1418.3397      1909.4335      72.281181      317.42733      0.11965033   
    536000   482.3265       1345.1071      1827.4336      59.727251      301.03774      0.11803054   
    537000   474.15404      1342.7062      1816.8602      66.551744      300.5004       0.11476404   
    538000   496.41882      1350.9741      1847.3929      72.215681      302.35078      0.11227104   
    539000   509.75857      1341.7882      1851.5467      71.257141      300.29495      0.11107372   
    540000   486.85924      1360.5953      1847.4546      98.300297      304.50403      0.11057863   
    541000   516.77967      1330.8564      1847.636       96.913119      297.84839      0.11150147   
    542000   473.13982      1294.9703      1768.1101      76.622177      289.81701      0.11431252   
    543000   470.74121      1298.1441      1768.8853      59.739251      290.52731      0.11755434   
    544000   479.20618      1310.232       1789.4382      43.551782      293.23262      0.11919337   
    545000   481.52381      1323.0481      1804.5719      31.854572      296.10088      0.11838425   
    546000   507.72079      1312.2307      1819.9515      44.873174      293.67993      0.11684783   
    547000   505.68859      1355.4103      1861.0989      108.32996      303.3436       0.11297642   
    548000   516.33171      1333.3651      1849.6968      129.09229      298.40985      0.10850693   
    549000   507.73818      1354.7984      1862.5366      148.03721      303.20667      0.10699945   
    550000   512.22386      1341.118       1853.3419      143.61497      300.14497      0.10790691   
    551000   474.92941      1348.0028      1822.9322      119.73987      301.6858       0.11036997   
    552000   513.93199      1375.6667      1889.5987      88.460475      307.87703      0.11425948   
    553000   489.54684      1327.5035      1817.0504      67.093232      297.09802      0.11627416   
    554000   481.51118      1335.0463      1816.5575      48.638738      298.7861       0.11603478   
    555000   482.92834      1341.2612      1824.1895      57.567855      300.17701      0.1137769    
    556000   482.32887      1309.3239      1791.6528      46.961851      293.02938      0.11005999   
    557000   520.54428      1315.295       1835.8392      74.28446       294.36571      0.10825702   
    558000   492.1136       1332.4435      1824.5571      122.62992      298.20359      0.10816483   
    559000   469.83542      1316.3415      1786.1769      128.94373      294.59994      0.10752275   
    560000   491.63003      1326.1386      1817.7686      120.02317      296.79253      0.10760548   
    561000   497.29881      1333.9563      1831.2552      110.33871      298.54217      0.1082508    
    562000   471.17232      1346.4436      1817.6159      81.553002      301.33684      0.10924309   
    563000   495.78768      1355.4406      1851.2283      90.368567      303.3504       0.11276089   
    564000   522.68873      1344.4678      1867.1565      79.443919      300.89465      0.11915608   
    565000   482.53506      1361.5864      1844.1214      108.65573      304.72582      0.12150047   
    566000   465.30519      1364.2831      1829.5883      133.78952      305.32936      0.11936976   
    567000   494.15752      1369.1795      1863.3371      128.92997      306.42519      0.1171988    
    568000   500.2981       1352.535       1852.8331      117.06958      302.70011      0.11472953   
    569000   500.70169      1368.9025      1869.6042      111.97891      306.36319      0.11164782   
    570000   498.26593      1327.9167      1826.1826      107.49981      297.19048      0.10968103   
    571000   508.15384      1326.9737      1835.1276      121.00018      296.97945      0.11045134   
    572000   498.80096      1333.2718      1832.0727      116.07318      298.38896      0.1122295    
    573000   498.02599      1301.2632      1799.2892      77.697359      291.22538      0.11482627   
    574000   479.60077      1323.9386      1803.5393      49.054565      296.30017      0.1172023    
    575000   493.89643      1300.9892      1794.8856      56.626816      291.16404      0.11941318   
    576000   461.56325      1339.5779      1801.1412      102.19065      299.80029      0.12082308   
    577000   453.25028      1312.2576      1765.5079      170.89611      293.68595      0.12054017   
    578000   476.04171      1330.0841      1806.1258      175.71501      297.67555      0.1163783    
    579000   491.70833      1334.4679      1826.1762      157.66431      298.65665      0.11125241   
    580000   488.1526       1339.8655      1828.0181      130.59574      299.86464      0.10830119   
    581000   470.78645      1272.9115      1743.6979      47.318599      284.8802       0.10693192   
    582000   483.32135      1315.6503      1798.9716     -0.47850969     294.44523      0.10845521   
    583000   492.4435       1333.819       1826.2625     -6.0466842      298.51143      0.11101969   
    584000   478.37552      1317.9346      1796.3101      30.290423      294.95647      0.11441528   
    585000   497.70257      1337.1824      1834.8849      62.953451      299.26416      0.11684782   
    586000   495.93386      1367.0895      1863.0234      99.462909      305.95744      0.11762088   
    587000   493.58353      1357.2196      1850.8031      147.172        303.74853      0.11705336   
    588000   475.79233      1367.7019      1843.4942      163.34108      306.09449      0.11488369   
    589000   496.66902      1342.437       1839.106       181.92348      300.44015      0.11241939   
    590000   495.78649      1350.4169      1846.2034      154.99109      302.22607      0.11117826   
    591000   489.79759      1410.0355      1899.8331      106.51441      315.56884      0.11112772   
    592000   497.73651      1402.5807      1900.3172      101.13281      313.90044      0.11173321   
    593000   504.11063      1367.8254      1871.9361      71.516249      306.12214      0.11221463   
    594000   495.86204      1351.5226      1847.3846      99.466383      302.47353      0.11513601   
    595000   468.53426      1362.7218      1831.2561      123.54805      304.97994      0.11958897   
    596000   474.67036      1375.4877      1850.1581      116.03056      307.83697      0.12035873   
    597000   515.31217      1402.1071      1917.4193      105.99771      313.79445      0.11754085   
    598000   505.49712      1375.3923      1880.8894      80.308413      307.81561      0.11350521   
    599000   521.91853      1347.2609      1869.1795      69.221184      301.51976      0.11097981   
    600000   490.10055      1356.44        1846.5405      114.52665      303.57405      0.11066163   
    601000   486.93948      1360.6173      1847.5567      168.14758      304.50893      0.11186465   
    602000   483.59903      1375.4844      1859.0834      201.18631      307.83624      0.11304449   
    603000   491.67549      1347.8727      1839.5481      147.33642      301.65667      0.11156849   
    604000   517.70719      1367.5143      1885.2215      111.18229      306.0525       0.10608534   
    605000   496.87768      1318.3264      1815.204       51.895068      295.04415      0.10131792   
    606000   513.27423      1332.982       1846.2562      32.063167      298.32411      0.1020294    
    607000   515.2116       1336.9435      1852.1551      21.586009      299.21069      0.10484258   
    608000   520.2119       1329.6175      1849.8294      52.275329      297.57113      0.10781111   
    609000   503.04679      1334.7883      1837.8351      116.22982      298.72836      0.11016045   
    610000   503.3001       1334.7328      1838.0329      150.95884      298.71593      0.11145339   
    611000   516.01475      1333.4929      1849.5077      164.45187      298.43845      0.11271857   
    612000   494.4504       1363.7125      1858.1629      149.7565       305.20166      0.11386827   
    613000   483.16975      1406.2158      1889.3856      125.11174      314.71399      0.11551826   
    614000   472.87947      1376.0791      1848.9586      77.652172      307.96933      0.11499211   
    615000   467.56868      1358.3202      1825.8889      64.335508      303.99486      0.11169245   
    616000   493.70258      1336.6792      1830.3817      80.829028      299.15154      0.10719268   
    617000   483.86371      1326.9056      1810.7693      137.87035      296.9642       0.10511242   
    618000   518.15253      1319.3822      1837.5348      163.71035      295.28045      0.10468199   
    619000   480.5163       1307.0346      1787.5509      159.55521      292.51702      0.10626119   
    620000   477.06914      1289.6614      1766.7305      118.8056       288.62886      0.10975701   
    621000   466.59968      1320.4114      1787.0111      108.54764      295.51078      0.11454447   
    622000   456.81079      1343.5805      1800.3913      76.419583      300.69608      0.11732663   
    623000   503.32737      1323.5778      1826.9052      61.264399      296.21944      0.1169511    
    624000   482.99017      1281.0031      1763.9933      34.005174      286.69112      0.11418754   
    625000   476.6371       1303.9277      1780.5648      23.880515      291.8217       0.11138899   
    626000   486.10831      1309.7173      1795.8256      43.727998      293.11741      0.1098742    
    627000   477.62275      1348.4146      1826.0373      68.589396      301.77795      0.10849866   
    628000   486.8576       1318.5772      1805.4348      92.849561      295.10027      0.10863676   
    629000   475.34538      1309.1029      1784.4483      139.58327      292.97992      0.11175364   
    630000   471.95274      1330.3453      1802.2981      159.96698      297.73402      0.11515968   
    631000   479.58303      1326.0663      1805.6493      131.34406      296.77636      0.11688988   
    632000   462.39084      1349.8734      1812.2642      92.098906      302.10443      0.11769892   
    633000   499.87521      1333.2549      1833.1301      52.930239      298.38518      0.11848682   
    634000   495.71239      1334.6064      1830.3188      41.989786      298.68766      0.11871689   
    635000   480.99167      1334.8583      1815.8499      78.833572      298.74402      0.11978231   
    636000   491.9829       1400.1831      1892.166       103.99132      313.36386      0.12089039   
    637000   484.24076      1379.4191      1863.6598      115.54793      308.71682      0.12118657   
    638000   511.58239      1342.2777      1853.8601      106.86089      300.40451      0.11931826   
    639000   484.45314      1356.247       1840.7001      81.167983      303.53086      0.1162984    
    640000   479.36024      1381.352       1860.7123      92.904108      309.14941      0.1137237    
    641000   524.17675      1377.5647      1901.7415      86.593835      308.30181      0.11299405   
    642000   521.05882      1310.8712      1831.9301      88.839633      293.37568      0.11300087   
    643000   477.51196      1351.7541      1829.2661      89.358606      302.52535      0.11421331   
    644000   446.9134       1385.2946      1832.208       105.01424      310.03178      0.12086658   
    645000   464.67821      1352.0755      1816.7537      90.329152      302.59727      0.12554999   
    646000   450.28383      1361.3393      1811.6232      110.65218      304.67054      0.1265804    
    647000   461.6715       1379.7606      1841.4321      175.02072      308.79326      0.1249268    
    648000   497.96701      1328.381       1826.3481      198.86617      297.2944       0.12039625   
    649000   489.91743      1333.3219      1823.2393      192.56745      298.40017      0.11713823   
    650000   501.42918      1400.7009      1902.1301      150.50159      313.47975      0.11530897   
    651000   497.72888      1373.711       1871.4399      104.22556      307.43934      0.11420439   
    652000   501.28618      1355.9675      1857.2536      85.859164      303.4683       0.11485597   
    653000   480.91141      1357.0707      1837.9821      86.77611       303.7152       0.11796655   
    654000   504.79284      1352.5167      1857.3096      95.096888      302.69602      0.12033867   
    655000   503.23201      1345.4181      1848.6501      107.34749      301.10732      0.12073296   
    656000   498.379        1322.5648      1820.9438      107.74008      295.99273      0.11936201   
    657000   481.96471      1327.9026      1809.8673      112.28619      297.18734      0.11826487   
    658000   458.82946      1335.518       1794.3475      106.60634      298.89167      0.11687395   
    659000   493.67282      1291.5304      1785.2032      105.22527      289.04716      0.11528955   
    660000   484.79965      1318.7609      1803.5605      119.16541      295.14139      0.11403398   
    661000   484.23661      1351.2999      1835.5366      122.9713       302.4237       0.11391697   
    662000   471.20291      1374.891       1846.0939      101.13074      307.70343      0.11327661   
    663000   504.18678      1373.9262      1878.113       77.392668      307.48751      0.11393728   
    664000   504.94253      1365.4937      1870.4362      79.674338      305.60029      0.11515147   
    665000   463.48909      1350.0884      1813.5775      71.247706      302.15256      0.11664027   
    666000   471.59178      1329.2851      1800.8769      64.786781      297.49674      0.12055633   
    667000   472.71117      1307.5468      1780.258       104.73801      292.63166      0.12442461   
    668000   466.60063      1290.3716      1756.9723      113.97385      288.78782      0.1252759    
    669000   424.78546      1324.3931      1749.1786      127.85795      296.4019       0.12342347   
    670000   466.97653      1289.802       1756.7785      76.388529      288.66033      0.11846773   
    671000   484.59086      1343.3229      1827.9138      78.495021      300.63842      0.11491275   
    672000   462.30933      1371.6033      1833.9126      102.5781       306.96763      0.11303334   
    673000   485.86649      1340.6441      1826.5106      88.97544       300.03889      0.11210538   
    674000   477.06474      1355.4257      1832.4905      110.73113      303.34706      0.11414985   
    675000   475.2341       1332.7638      1807.9979      100.56976      298.27527      0.11831831   
    676000   475.07397      1324.6579      1799.7319      90.275796      296.46117      0.12192946   
    677000   496.191        1331.7016      1827.8926      66.022161      298.03756      0.12350667   
    678000   463.79562      1374.4528      1838.2484      89.324387      307.60536      0.12285782   
    679000   473.69454      1397.4632      1871.1577      115.54048      312.75512      0.12033991   
    680000   501.77182      1334.4163      1836.1881      108.98534      298.64511      0.11619268   
    681000   491.48541      1340.9725      1832.4579      100.06972      300.1124       0.11451017   
    682000   488.29931      1321.8675      1810.1668      80.731772      295.83666      0.11496911   
    683000   502.97639      1339.877       1842.8534      66.47065       299.86723      0.1165978    
    684000   481.5646       1359.9973      1841.5619      66.189887      304.37019      0.11860986   
    685000   479.45648      1307.477       1786.9335      82.44561       292.61604      0.12249382   
    686000   482.70005      1328.7096      1811.4096      121.09326      297.36793      0.12634227   
    687000   468.61596      1335.4425      1804.0585      133.54326      298.87478      0.12724546   
    688000   472.0183       1292.8873      1764.9056      152.58234      289.35084      0.1246432    
    689000   474.05584      1320.6903      1794.7461      136.95694      295.5732       0.11907561   
    690000   465.93853      1333.1518      1799.0903      89.43406       298.36211      0.11448202   
    691000   469.87565      1272.6848      1742.5605      56.682421      284.82948      0.11299833   
    692000   476.58051      1297.0447      1773.6252      55.698934      290.28126      0.11417453   
    693000   483.39077      1326.0621      1809.4528      81.798743      296.77541      0.1161333    
    694000   478.92779      1331.8833      1810.811       122.0436       298.07821      0.11782219   
    695000   479.52162      1293.1347      1772.6563      132.50865      289.4062       0.11881509   
    696000   470.89306      1263.6696      1734.5627      124.96351      282.81186      0.12011571   
    697000   443.34905      1324.2258      1767.5749      112.23695      296.36446      0.12171141   
    698000   460.3057       1330.0165      1790.3222      83.539626      297.66042      0.12128795   
    699000   482.20911      1315.4892      1797.6983      51.426565      294.40917      0.11663501   
    700000   467.91337      1286.3332      1754.2466      75.286737      287.88402      0.11171559   
    701000   508.52898      1268.0284      1776.5574      80.301107      283.78737      0.10998182   
    702000   480.06029      1331.5412      1811.6015      113.32571      298.00166      0.11097185   
    703000   490.1833       1341.1837      1831.367       145.87126      300.15966      0.11381391   
    704000   498.43435      1342.5808      1841.0152      149.5664       300.47235      0.11700585   
    705000   460.14239      1382.1975      1842.3398      120.89935      309.33863      0.11969898   
    706000   492.76622      1368.7694      1861.5356      118.73117      306.33339      0.12148954   
    707000   505.29072      1342.3936      1847.6843      90.603585      300.43043      0.12184883   
    708000   482.0363       1357.2589      1839.2952      79.652406      303.75733      0.12187845   
    709000   466.57708      1395.8306      1862.4077      117.66627      312.38976      0.12185317   
    710000   479.14633      1350.1108      1829.2571      122.6484       302.15756      0.12092094   
    711000   460.22222      1340.5401      1800.7624      131.94321      300.01563      0.11941506   
    712000   478.56417      1313.4051      1791.9692      154.8843       293.94275      0.11906841   
    713000   479.65492      1327.5126      1807.1675      171.13036      297.10003      0.11910856   
    714000   477.31498      1302.0734      1779.3884      130.85441      291.40671      0.11975548   
    715000   501.82891      1315.4599      1817.2888      100.55778      294.40263      0.11913495   
    716000   460.73996      1341.7786      1802.5186      48.316517      300.29281      0.1155819    
    717000   502.83302      1402.4344      1905.2674      22.272962      313.8677       0.1122499    
    718000   504.22976      1390.7817      1895.0115      29.887455      311.2598       0.10991976   
    719000   500.41295      1365.5156      1865.9286      39.809363      305.6052       0.10829827   
    720000   480.27946      1362.0835      1842.363       67.637136      304.83709      0.1100232    
    721000   506.42648      1381.2976      1887.7241      76.142182      309.13724      0.11513509   
    722000   487.44129      1387.6192      1875.0605      117.10106      310.55202      0.1185471    
    723000   490.04484      1364.5881      1854.633       130.68831      305.39763      0.11851364   
    724000   510.88595      1374.1383      1885.0242      137.92512      307.53497      0.11801827   
    725000   460.21011      1374.691       1834.9011      127.67201      307.65867      0.116636     
    726000   467.39224      1374.8765      1842.2688      99.050638      307.70019      0.1163777    
    727000   483.27302      1355.4525      1838.7256      86.482009      303.35306      0.11670283   
    728000   487.74534      1362.9573      1850.7027      24.778444      305.03265      0.11716103   
    729000   467.2457       1379.8202      1847.0659      42.087877      308.8066       0.11819141   
    730000   481.80813      1301.5411      1783.3492      56.532582      291.28757      0.11789189   
    731000   476.28661      1320.6821      1796.9687      73.261117      295.57136      0.11520222   
    732000   494.47767      1318.8227      1813.3003      88.219632      295.15522      0.11271933   
    733000   501.27183      1312.0243      1813.2961      78.249492      293.63372      0.11021575   
    734000   488.01804      1337.5665      1825.5846      79.006538      299.35014      0.10848218   
    735000   486.47471      1321.9419      1808.4167      71.737223      295.85332      0.10911668   
    736000   500.68597      1333.3186      1834.0046      72.604573      298.39944      0.11283581   
    737000   499.96677      1366.3348      1866.3016      99.238383      305.78854      0.11887458   
    738000   481.44619      1350.6978      1832.144       89.906617      302.28894      0.12069268   
    739000   476.88353      1361.2543      1838.1379      91.436297      304.65152      0.11925692   
    740000   520.73062      1349.965       1870.6956      101.88865      302.12494      0.11709007   
    741000   508.98099      1360.6565      1869.6375      121.53481      304.51772      0.11556834   
    742000   484.81106      1331.8322      1816.6433      133.46872      298.06679      0.1148226    
    743000   478.26796      1289.3286      1767.5966      123.39164      288.55439      0.11711557   
    744000   476.4734       1326.3196      1802.793       107.48665      296.83306      0.12041008   
    745000   471.53943      1331.6832      1803.2226      141.79249      298.03343      0.12265589   
    746000   458.35635      1323.9906      1782.3469      115.81927      296.31181      0.1216263    
    747000   478.07995      1276.9619      1755.0418      93.991461      285.78669      0.11937908   
    748000   491.41332      1283.9668      1775.3801      98.125333      287.35441      0.11698836   
    749000   484.93596      1301.5331      1786.469       84.551309      291.28578      0.11332837   
    750000   493.44122      1353.4086      1846.8499      74.054589      302.89563      0.10872715   
    751000   496.07671      1361.0746      1857.1513      77.105928      304.61129      0.10751013   
    752000   500.92521      1360.9501      1861.8753      76.625848      304.58343      0.11041227   
    753000   504.82487      1392.1187      1896.9436      56.930031      311.55903      0.1137177    
    754000   520.93556      1352.0223      1872.9579      60.192264      302.58537      0.11634321   
    755000   495.80944      1361.3557      1857.1651      88.269863      304.67419      0.11780969   
    756000   498.93982      1353.5348      1852.4747      107.7766       302.92388      0.11750007   
    757000   492.32727      1382.4203      1874.7476      142.01637      309.3885       0.11697402   
    758000   497.06491      1343.5633      1840.6282      159.93861      300.69223      0.11649956   
    759000   490.45782      1359.4521      1849.9099      141.8897       304.24816      0.11520332   
    760000   501.5977       1357.4637      1859.0614      114.86874      303.80316      0.11379334   
    761000   538.29519      1380.5306      1918.8258      69.970833      308.96559      0.11261826   
    762000   523.81133      1375.11        1898.9214      36.574498      307.75245      0.11253632   
    763000   476.70036      1368.448       1845.1483      77.200469      306.26147      0.11509557   
    764000   481.69128      1343.7243      1825.4156      137.41356      300.72826      0.12052379   
    765000   490.51075      1342.4285      1832.9393      174.24769      300.43825      0.12419757   
    766000   457.11964      1349.8398      1806.9594      180.63351      302.09692      0.12627376   
    767000   476.66354      1359.1917      1835.8552      125.80627      304.18989      0.12711689   
    768000   474.48953      1363.2199      1837.7095      88.921489      305.09142      0.12577975   
    769000   487.93933      1335.432       1823.3713      13.649979      298.87242      0.12084636   
    770000   494.55131      1309.762       1804.3133      24.306535      293.12743      0.11660011   
    771000   465.10492      1287.1675      1752.2724      59.512772      288.07072      0.11507476   
    772000   458.24713      1330.3687      1788.6159      94.912886      297.73925      0.11436201   
    773000   476.33076      1319.5706      1795.9013      150.23726      295.3226       0.11560461   
    774000   460.97224      1294.6694      1755.6416      175.55517      289.74967      0.11877255   
    775000   458.48111      1325.4963      1783.9775      191.70117      296.6488       0.12301518   
    776000   485.9724       1324.2466      1810.219       147.92678      296.3691       0.12244058   
    777000   462.20983      1317.5142      1779.724       75.447773      294.86238      0.12121202   
    778000   444.49835      1244.6953      1689.1937      46.730459      278.56537      0.12065598   
    779000   468.28347      1319.3035      1787.587       61.068432      295.26284      0.1207305    
    780000   489.41367      1317.055       1806.4687      119.5029       294.75962      0.11910188   
    781000   493.10831      1304.5667      1797.675       113.68956      291.96471      0.11591565   
    782000   477.0209       1314.1636      1791.1845      72.028821      294.11252      0.11455797   
    783000   471.80189      1281.4127      1753.2146      21.223718      286.7828       0.11593023   
    784000   502.96477      1320.8851      1823.8499      6.975626       295.6168       0.11850626   
    785000   504.59175      1315.8157      1820.4074     -1.7395602      294.48225      0.11948706   
    786000   483.01528      1332.2224      1815.2377      30.64966       298.15411      0.11928164   
    787000   488.70807      1342.2196      1830.9277      53.498133      300.39151      0.11847326   
    788000   495.49903      1394.0327      1889.5318      102.47507      311.98739      0.11819548   
    789000   488.7347       1384.7633      1873.498       127.14471      309.91286      0.11703557   
    790000   503.76051      1349.0662      1852.8267      110.66499      301.92378      0.11512974   
    791000   486.87282      1322.3511      1809.2239      89.669521      295.94488      0.11188861   
    792000   470.22399      1299.5176      1769.7416      52.881236      290.83471      0.10816019   
    793000   514.40002      1289.3305      1803.7305      5.8910202      288.5548       0.10631495   
    794000   484.48253      1354.8637      1839.3462      28.394589      303.22128      0.10911415   
    795000   509.52037      1339.4603      1848.9807      52.476887      299.77396      0.11375003   
    796000   499.25728      1360.9022      1860.1595      111.2685       304.5727       0.11793001   
    797000   492.57605      1356.7178      1849.2938      139.97466      303.63623      0.12098918   
    798000   495.81896      1335.8016      1831.6206      143.01863      298.95514      0.12211797   
    799000   460.82416      1302.955       1763.7791      131.89269      291.60399      0.12179387   
    800000   440.42703      1295.5567      1735.9837      123.7209       289.94824      0.12158682   
    801000   458.3364       1337.8767      1796.2131      103.655        299.41956      0.11860031   
    802000   490.40602      1335.6818      1826.0878      91.293813      298.92833      0.11394189   
    803000   461.455        1333.0547      1794.5097      74.454273      298.34039      0.11166473   
    804000   502.00741      1331.7128      1833.7202      101.52994      298.04006      0.11166944   
    805000   521.58314      1353.0415      1874.6246      84.580342      302.81345      0.11305905   
    806000   496.20651      1349.7784      1845.9849      85.991177      302.08318      0.11483248   
    807000   467.80512      1369.755       1837.5601      104.98241      306.55399      0.11748185   
    808000   484.32343      1370.8905      1855.2139      119.37316      306.80811      0.11960881   
    809000   510.14561      1339.9644      1850.11        123.28574      299.88678      0.11985988   
    810000   481.29136      1368.7968      1850.0881      114.97344      306.33953      0.11801418   
    811000   490.28035      1391.4265      1881.7068      141.18542      311.4041       0.11813597   
    812000   486.77567      1348.0138      1834.7894      143.88397      301.68825      0.11848751   
    813000   491.57783      1323.8325      1815.4103      147.64885      296.27642      0.12005832   
    814000   498.90246      1326.3768      1825.2792      155.44017      296.84584      0.12386561   
    815000   479.82284      1372.9263      1852.7491      139.42947      307.26372      0.12582997   
    816000   485.36009      1339.3974      1824.7575      101.51936      299.75988      0.12329255   
    817000   483.735        1352.1508      1835.8858      81.944338      302.61412      0.11847355   
    818000   484.57713      1352.4235      1837.0007      74.008965      302.67516      0.115191     
    819000   488.37156      1325.9838      1814.3554      77.990101      296.7579       0.1147983    
    820000   475.91326      1300.694       1776.6073      102.11672      291.098        0.1148581    
    821000   489.27517      1292.2507      1781.5258      111.49479      289.20835      0.11440218   
    822000   454.65893      1337.6353      1792.2942      132.94055      299.36552      0.11430086   
    823000   479.09404      1335.5573      1814.6514      152.4691       298.90047      0.11472117   
    824000   480.39399      1313.8598      1794.2538      135.1469       294.04452      0.11488218   
    825000   458.07187      1314.6211      1772.6929      107.00815      294.21489      0.11501882   
    826000   456.11108      1291.6711      1747.7822      72.304236      289.07864      0.11625653   
    827000   480.06045      1322.4932      1802.5537      86.824203      295.9767       0.11817918   
    828000   500.76962      1329.2262      1829.9959      99.137206      297.48356      0.1186307    
    829000   499.26201      1317.4503      1816.7123      108.79342      294.84809      0.11530345   
    830000   490.52435      1257.6095      1748.1338      88.953709      281.45559      0.10920404   
    831000   493.75811      1292.4269      1786.185       77.091176      289.24778      0.10653074   
    832000   490.91956      1336.5817      1827.5012      35.651723      299.12972      0.10646183   
    833000   493.87976      1322.7667      1816.6465      13.578182      296.03791      0.10832411   
    834000   486.73156      1319.5268      1806.2584      19.434976      295.31281      0.1107277    
    835000   492.05105      1340.4401      1832.4912      63.017114      299.99325      0.11301833   
    836000   492.05261      1361.7049      1853.7575      109.59928      304.75235      0.11389908   
    837000   512.87476      1367.1315      1880.0063      119.9931       305.96684      0.11320046   
    838000   521.473        1370.1412      1891.6142      116.90715      306.64041      0.11271219   
    839000   495.5249       1390.9097      1886.4346      92.145879      311.28845      0.11219621   
    840000   502.07013      1360.6529      1862.723       74.453274      304.51691      0.11210868   
    841000   467.28901      1372.357       1839.646       83.425021      307.13631      0.11285142   
    842000   510.55625      1373.5705      1884.1267      105.73393      307.40789      0.11555015   
    843000   489.58608      1381.5049      1871.091       128.92224      309.18363      0.11861204   
    844000   468.50807      1325.6571      1794.1651      118.7111       296.68477      0.11953865   
    845000   494.49645      1331.9559      1826.4523      84.861265      298.09446      0.11876269   
    846000   486.97136      1316.9353      1803.9067      48.980306      294.73283      0.1147172    
    847000   493.49588      1338.5503      1832.0462      54.090555      299.57031      0.11182296   
    848000   494.24921      1340.3845      1834.6337      50.022232      299.9808       0.11105115   
    849000   490.50762      1313.0398      1803.5475      63.905768      293.86101      0.11153022   
    850000   511.63951      1293.2101      1804.8496      61.550524      289.42308      0.11286544   
    851000   479.33472      1312.3929      1791.7276      79.796186      293.71622      0.11499903   
    852000   489.66725      1336.75        1826.4173      98.633279      299.1674       0.1174239    
    853000   488.27571      1349.3741      1837.6498      93.56836       301.99269      0.11864557   
    854000   491.05773      1365.1747      1856.2324      132.558        305.5289       0.11987721   
    855000   484.5962       1360.975       1845.5712      132.56         304.589        0.11921827   
    856000   496.34188      1393.283       1889.6249      129.09985      311.81959      0.11553225   
    857000   504.28002      1321.788       1826.068       110.59239      295.81887      0.1113844    
    858000   485.15844      1360.9495      1846.108       96.90836       304.58329      0.11156481   
    859000   483.24347      1356.5942      1839.8377      96.064079      303.60857      0.11498552   
    860000   459.81145      1383.4214      1843.2329      65.193451      309.61255      0.11610183   
    861000   487.76991      1344.7826      1832.5525      40.166108      300.96511      0.1163396    
    862000   468.85875      1353.935       1822.7938      58.858736      303.01344      0.11538794   
    863000   501.20319      1345.9295      1847.1327      98.068385      301.22179      0.11072363   
    864000   486.11594      1314.9918      1801.1078      108.69959      294.29787      0.10648064   
    865000   526.10737      1276.0002      1802.1076      110.97173      285.57146      0.10600295   
    866000   494.24955      1314.4504      1808.7         140.93271      294.1767       0.10849768   
    867000   482.45916      1326.6242      1809.0834      156.06981      296.90122      0.11077511   
    868000   469.32837      1344.258       1813.5864      169.49652      300.8477       0.11325552   
    869000   477.36078      1372.8084      1850.1692      162.5422       307.23734      0.11623209   
    870000   504.33784      1320.6398      1824.9777      120.61829      295.56191      0.11832354   
    871000   476.86515      1350.715       1827.5801      57.997804      302.29278      0.11846426   
    872000   478.05227      1361.295       1839.3473      84.523587      304.66062      0.11861677   
    873000   502.40782      1369.4758      1871.8837      107.04285      306.4915       0.11627847   
    874000   509.04115      1337.1575      1846.1987      106.27968      299.2586       0.11061377   
    875000   513.15197      1330.6304      1843.7823      85.845873      297.79781      0.10696211   
    876000   499.74223      1347.2116      1846.9538      106.83376      301.50872      0.10725586   
    877000   485.18488      1338.832       1824.0169      101.81071      299.63336      0.10884462   
    878000   504.52451      1324.4868      1829.0113      120.35494      296.42286      0.11196302   
    879000   495.57204      1348.9892      1844.5613      126.72695      301.90656      0.11536217   
    880000   457.31842      1371.9207      1829.2391      77.305805      307.03867      0.11758125   
    881000   493.56971      1364.5656      1858.1353      48.903919      305.39258      0.11896509   
    882000   504.52903      1365.4593      1869.9883      37.578412      305.59259      0.11649567   
    883000   515.01773      1360.7966      1875.8144      49.869636      304.54908      0.11337749   
    884000   532.58412      1361.1326      1893.7167      85.190339      304.62426      0.11211199   
    885000   512.08881      1347.0218      1859.1106      90.959017      301.46625      0.11175633   
    886000   488.37508      1366.0038      1854.3789      62.118802      305.71446      0.11205863   
    887000   479.67529      1415.1225      1894.7978      30.228266      316.70731      0.11321619   
    888000   497.86187      1390.2341      1888.096       16.052637      311.13725      0.11604941   
    889000   479.47624      1365.124       1844.6002      32.725098      305.51755      0.11923632   
    890000   467.67814      1342.895       1810.5732      103.49407      300.54266      0.12119777   
    891000   518.71144      1334.2062      1852.9176      185.07641      298.59809      0.12121269   
    892000   493.93023      1351.8665      1845.7967      195.4795       302.55049      0.11802162   
    893000   496.1987       1334.3327      1830.5314      148.13042      298.62639      0.11385709   
    894000   478.47433      1334.232       1812.7063      85.684526      298.60386      0.11094819   
    895000   474.17241      1299.6722      1773.8446      51.052419      290.86931      0.11116804   
    896000   475.7078       1283.7334      1759.4412      23.367887      287.30218      0.11543185   
    897000   479.86148      1349.3158      1829.1772      51.780632      301.97964      0.11969783   
    898000   493.18814      1357.9009      1851.089       93.671233      303.90101      0.12036821   
    899000   481.6524       1355.7312      1837.3836      121.60295      303.41541      0.12012622   
    900000   493.97809      1360.4409      1854.419       134.39534      304.46946      0.12009961   
    901000   488.20244      1365.636       1853.8384      146.1898       305.63213      0.12050005   
    902000   479.93829      1394.7754      1874.7137      123.35337      312.15359      0.12001138   
    903000   491.53599      1370.39        1861.926       77.648362      306.69609      0.11551116   
    904000   502.33822      1343.0204      1845.3586      48.649601      300.57071      0.11020431   
    905000   495.34665      1325.0387      1820.3853      56.761522      296.54637      0.1092312    
    906000   474.46263      1354.6645      1829.1271      98.2348        303.17669      0.11100563   
    907000   473.29783      1330.6206      1803.9184      140.09287      297.79562      0.11442502   
    908000   477.75092      1318.4704      1796.2213      151.36403      295.07639      0.1168843    
    909000   477.91402      1274.4383      1752.3524      135.78837      285.22192      0.11859386   
    910000   480.42566      1287.2074      1767.6331      125.72273      288.07966      0.11943645   
    911000   448.99309      1347.7665      1796.7596      118.39769      301.6329       0.11943909   
    912000   492.00696      1332.517       1824.5239      84.614514      298.22004      0.11697993   
    913000   504.34041      1332.6375      1836.9779      84.326569      298.24701      0.11173923   
    914000   484.74988      1394.5755      1879.3254      118.24497      312.10886      0.10881076   
    915000   499.71785      1384.7434      1884.4613      146.89983      309.90842      0.10862153   
    916000   489.11888      1343.1608      1832.2796      141.08596      300.60213      0.10981378   
    917000   481.49568      1361.8571      1843.3527      140.39569      304.78641      0.11143037   
    918000   494.59195      1304.5925      1799.1845      87.358859      291.97049      0.11267975   
    919000   498.15305      1308.3365      1806.4895      25.500713      292.80839      0.11389397   
    920000   494.57655      1340.5998      1835.1763      31.754436      300.02898      0.11537445   
    921000   466.58378      1381.5984      1848.1822      51.818703      309.20456      0.11658967   
    922000   479.51172      1342.4513      1821.963       89.412628      300.44335      0.11656942   
    923000   495.93371      1333.2381      1829.1719      123.96681      298.38143      0.11545132   
    924000   496.07996      1359.2985      1855.3784      142.3006       304.21379      0.11291337   
    925000   496.05618      1340.7468      1836.803       122.81772      300.06188      0.1100262    
    926000   521.06247      1337.9037      1858.9662      90.219353      299.4256       0.10779055   
    927000   510.34232      1372.7845      1883.1268      80.160516      307.23198      0.10754686   
    928000   484.78721      1344.9225      1829.7097      34.164488      300.99642      0.10994478   
    929000   490.02663      1335.5698      1825.5965      25.913417      298.90327      0.11489537   
    930000   495.36401      1316.9906      1812.3546      41.891057      294.74521      0.11870625   
    931000   486.07606      1329.6677      1815.7437      69.984974      297.58235      0.11857005   
    932000   486.70704      1295.7116      1782.4186      66.94856       289.98291      0.1153261    
    933000   504.73666      1326.5391      1831.2758      118.15362      296.88218      0.11422718   
    934000   510.73752      1324.8156      1835.5531      158.3103       296.49645      0.11359204   
    935000   499.84462      1310.4803      1810.3249      199.65529      293.28819      0.11266659   
    936000   494.91861      1333.6012      1828.5199      184.81316      298.4627       0.11240716   
    937000   467.82876      1334.6348      1802.4635      163.42519      298.694        0.11227918   
    938000   486.16224      1319.6067      1805.769       126.14924      295.3307       0.11264347   
    939000   496.73802      1294.9719      1791.71        105.4772       289.81738      0.1128672    
    940000   496.35471      1322.1067      1818.4614      104.24026      295.8902       0.11357868   
    941000   505.10216      1311.6515      1816.7537      102.27989      293.5503       0.11556972   
    942000   466.55209      1313.7232      1780.2753      77.090701      294.01394      0.11794024   
    943000   499.35339      1302.3712      1801.7246      47.628941      291.47335      0.11852702   
    944000   486.71006      1314.4502      1801.1603      64.137819      294.17666      0.11635965   
    945000   494.1721       1324.8472      1819.0193      59.847574      296.50353      0.11166377   
    946000   477.23507      1350.5015      1827.7366      108.35948      302.245        0.10855627   
    947000   489.14076      1302.7486      1791.8894      148.7755       291.55781      0.10705701   
    948000   513.50594      1331.7879      1845.2938      157.84439      298.05686      0.10737577   
    949000   505.45242      1319.8794      1825.3318      144.06062      295.39172      0.10752834   
    950000   489.29269      1343.121       1832.4137      110.94132      300.59324      0.10806252   
    951000   526.31856      1318.4694      1844.788       75.420447      295.07617      0.11256447   
    952000   495.63454      1395.7718      1891.4064      93.904134      312.3766       0.11998133   
    953000   482.35102      1386.0984      1868.4494      84.991378      310.21167      0.12075282   
    954000   488.04899      1363.0886      1851.1376      113.43205      305.06203      0.11865715   
    955000   510.10042      1351.554       1861.6544      105.95579      302.48056      0.11422496   
    956000   512.19766      1342.9944      1855.192       88.299225      300.5649       0.10998349   
    957000   518.75975      1313.5723      1832.3321      60.526874      293.98018      0.10794416   
    958000   504.01234      1361.5287      1865.5411      54.968669      304.71293      0.10831539   
    959000   536.05114      1383.0071      1919.0583      64.734109      309.51983      0.10961024   
    960000   502.20876      1346.0057      1848.2145      58.878685      301.23884      0.10961715   
    961000   528.25649      1365.1639      1893.4204      69.27137       305.52648      0.11089246   
    962000   487.23995      1344.878       1832.1179      87.127971      300.98645      0.11462226   
    963000   466.89148      1346.2063      1813.0978      122.03061      301.28373      0.1196914    
    964000   493.4025       1345.9524      1839.3549      156.22653      301.22691      0.12220712   
    965000   479.75248      1341.4852      1821.2377      130.8739       300.22714      0.11889671   
    966000   481.70589      1313.0582      1794.7641      92.777977      293.86512      0.11530903   
    967000   492.15124      1332.2377      1824.389       59.361313      298.15754      0.11316044   
    968000   529.95819      1304.275       1834.2332      47.761917      291.89942      0.11218935   
    969000   491.63103      1349.0272      1840.6582      89.075076      301.91505      0.11199826   
    970000   517.62694      1369.9886      1887.6155      111.1934       306.60626      0.11184407   
    971000   514.00292      1391.0194      1905.0223      159.50416      311.31299      0.11212216   
    972000   500.9878       1351.8948      1852.8826      168.11538      302.55684      0.11218862   
    973000   496.71771      1340.924       1837.6417      155.32284      300.10154      0.11446265   
    974000   467.91414      1340.2089      1808.1231      138.96037      299.94151      0.11855901   
    975000   466.67979      1299.7748      1766.4546      105.41688      290.89227      0.12118833   
    976000   477.82198      1326.4621      1804.2841      87.142919      296.86495      0.12202582   
    977000   483.84035      1305.7759      1789.6163      51.943554      292.23533      0.12011465   
    978000   473.75784      1327.109       1800.8668      69.703956      297.00972      0.11674574   
    979000   487.73175      1336.8283      1824.56        65.625973      299.18492      0.11276406   
    980000   483.18965      1313.7077      1796.8973      76.290866      294.01047      0.11013975   
    981000   497.81783      1327.7604      1825.5783      93.751241      297.15551      0.10989414   
    982000   473.07685      1324.9298      1798.0066      139.41122      296.522        0.11099761   
    983000   474.1007       1320.784       1794.8847      159.48178      295.59418      0.11248812   
    984000   475.94902      1311.5903      1787.5393      160.13572      293.5366       0.11482129   
    985000   490.73095      1352.379       1843.11        157.00048      302.66521      0.11725168   
    986000   495.98939      1370.7345      1866.7239      125.28748      306.7732       0.11887207   
    987000   475.30217      1364.6928      1839.995       134.60401      305.42105      0.12143096   
    988000   479.08621      1382.3511      1861.4373      130.06357      309.37301      0.12337559   
    989000   481.48411      1361.8335      1843.3176      88.059205      304.78113      0.12283314   
    990000   445.30801      1371.5255      1816.8335      123.76445      306.95022      0.1218578    
    991000   481.29759      1363.6115      1844.9091      135.42205      305.17906      0.11861385   
    992000   501.56847      1352.1696      1853.7381      135.81827      302.61834      0.11529105   
    993000   469.6502       1364.8337      1834.4839      159.56011      305.45258      0.11481457   
    994000   495.39578      1351.5125      1846.9082      153.45637      302.47126      0.11552846   
    995000   478.21661      1350.8879      1829.1045      127.69914      302.33149      0.11787305   
    996000   463.59874      1347.28        1810.8787      84.812307      301.52403      0.11985106   
    997000   483.49939      1331.9742      1815.4736      87.292312      298.09856      0.12104738   
    998000   487.4794       1300.2936      1787.773       63.631841      291.00838      0.11955755   
    999000   463.70086      1316.3273      1780.0281      69.877582      294.59674      0.11615848   
   1000000   497.68455      1316.6882      1814.3727      72.289214      294.67751      0.11256241   
   1001000   479.75812      1300.4273      1780.1854      106.78892      291.03829      0.1107338    
   1002000   494.52223      1320.7685      1815.2907      72.264507      295.5907       0.11074227   
   1003000   496.37872      1302.2333      1798.612       45.018987      291.44248      0.11284868   
   1004000   492.17179      1311.4914      1803.6632      14.435842      293.51447      0.11558632   
   1005000   503.07047      1301.394       1804.4644      19.605955      291.25464      0.1183211    
   1006000   460.79159      1323.7404      1784.5319      57.334471      296.25581      0.12035714   
   1007000   478.56182      1308.9817      1787.5435      134.22185      292.95279      0.12172823   
   1008000   478.3916       1303.2833      1781.6749      163.98804      291.67747      0.11859117   
   1009000   486.90998      1370.1463      1857.0563      144.92876      306.64155      0.11129619   
   1010000   510.27557      1354.4463      1864.7219      122.57528      303.12787      0.10859141   
   1011000   498.31537      1396.3801      1894.6954      131.30675      312.51272      0.10905238   
   1012000   488.32445      1376.9204      1865.2448      105.98253      308.15761      0.10898474   
   1013000   487.14277      1360.0781      1847.2209      80.1556        304.38827      0.11024239   
   1014000   500.68545      1345.5253      1846.2107      63.053626      301.13132      0.11349246   
   1015000   482.86452      1352.6103      1835.4749      74.470385      302.71697      0.11646872   
   1016000   478.17197      1362.9604      1841.1324      79.173441      305.03334      0.11821898   
   1017000   467.54473      1305.4119      1772.9566      108.08775      292.15386      0.11980823   
   1018000   471.99595      1315.5665      1787.5625      137.70251      294.42648      0.12372126   
   1019000   474.90431      1323.4588      1798.3631      132.93645      296.1928       0.12891056   
   1020000   464.54235      1349.911       1814.4534      158.33782      302.11286      0.12977886   
   1021000   483.15373      1311.3521      1794.5058      116.70779      293.48329      0.12405865   
   1022000   464.63646      1331.2113      1795.8478      101.50394      297.92783      0.11946759   
   1023000   485.1444       1323.225       1808.3694      103.60722      296.14048      0.11692447   
   1024000   464.49476      1319.1969      1783.6917      104.248        295.23898      0.1168223    
   1025000   473.13868      1277.2294      1750.3681      127.34263      285.84656      0.11890862   
   1026000   470.46361      1301.3364      1771.8         140.19793      291.24175      0.12057675   
   1027000   489.23415      1313.8411      1803.0752      151.66078      294.04033      0.12094859   
   1028000   477.1345       1336.8719      1814.0064      127.24813      299.19467      0.11901437   
   1029000   462.6305       1304.9131      1767.5436      109.60442      292.04223      0.11483679   
   1030000   496.43349      1336.5798      1833.0133      66.47622       299.1293       0.11149886   
   1031000   508.13274      1322.9055      1831.0383      30.812652      296.06897      0.11216372   
   1032000   489.57992      1299.4644      1789.0443      24.830394      290.8228       0.11663601   
   1033000   486.7395       1329.2215      1815.961       57.720444      297.48251      0.12050506   
   1034000   467.76064      1325.8049      1793.5655      99.51536       296.71785      0.12090609   
   1035000   445.16034      1300.5907      1745.7511      117.4288       291.07487      0.12033928   
   1036000   493.31943      1291.961       1785.2804      162.92222      289.14351      0.12079455   
   1037000   487.835        1352.6196      1840.4546      149.47743      302.71905      0.12053565   
   1038000   465.5278       1379.0761      1844.6039      133.52079      308.64005      0.11862715   
   1039000   512.85071      1354.3627      1867.2134      70.289254      303.10915      0.11596558   
   1040000   519.31311      1349.5294      1868.8425      38.771209      302.02746      0.11394531   
   1041000   509.70751      1414.7798      1924.4873      72.140078      316.63062      0.11182947   
   1042000   512.90096      1377.7504      1890.6514      94.377275      308.34337      0.10852993   
   1043000   505.11669      1344.1142      1849.2309      138.57504      300.81552      0.10687259   
   1044000   516.36362      1355.6003      1871.9639      120.55838      303.38613      0.10870298   
   1045000   479.82407      1400.8883      1880.7124      132.62898      313.52169      0.11336262   
   1046000   507.79626      1385.5707      1893.367       114.69842      310.09357      0.11571295   
   1047000   505.58924      1330.9449      1836.5341      92.047178      297.86819      0.11702361   
   1048000   505.5435       1314.8019      1820.3454      117.14099      294.25537      0.11918863   
   1049000   456.72615      1356.2033      1812.9294      94.064228      303.52107      0.11982212   
   1050000   485.28792      1336.8694      1822.1574      61.512102      299.19413      0.119338     
   1051000   491.67518      1307.6903      1799.3654      57.55665       292.66376      0.11648211   
   1052000   481.34859      1299.1484      1780.497       62.996346      290.75208      0.10949002   
   1053000   474.86071      1310.9111      1785.7718      85.064873      293.3846       0.10668043   
   1054000   498.68575      1351.2527      1849.9384      114.28684      302.41312      0.10792777   
   1055000   494.24495      1327.1774      1821.4224      149.73883      297.02504      0.11105509   
   1056000   483.01828      1337.1794      1820.1977      170.86585      299.2635       0.11380672   
   1057000   507.74666      1337.5303      1845.277       149.41988      299.34203      0.11723226   
   1058000   500.5441       1327.9536      1828.4977      83.135069      297.19874      0.1191671    
   1059000   505.43211      1326.5555      1831.9876      57.79729       296.88584      0.11903865   
   1060000   525.33287      1348.5132      1873.846       59.890615      301.80001      0.11846449   
   1061000   499.58955      1394.1441      1893.7336      89.725991      312.01231      0.11576679   
   1062000   496.28032      1409.2894      1905.5698      110.92767      315.40187      0.11193555   
   1063000   499.02425      1361.4832      1860.5075      143.26043      304.70274      0.11107335   
   1064000   519.65332      1355.2954      1874.9488      132.6778       303.3179       0.11146079   
   1065000   517.47065      1368.3918      1885.8625      122.98624      306.2489       0.11274877   
   1066000   490.39097      1374.7478      1865.1388      90.702216      307.67138      0.11393204   
   1067000   498.3669       1366.4048      1864.7717      70.881416      305.8042       0.11594533   
   1068000   471.98856      1380.7285      1852.717       52.243747      309.00986      0.11672552   
   1069000   503.22613      1344.0779      1847.304       96.905928      300.80739      0.11437971   
   1070000   508.11284      1333.6149      1841.7277      122.00947      298.46575      0.10770747   
   1071000   492.72294      1329.8803      1822.6033      146.27702      297.62995      0.10488541   
   1072000   516.24273      1320.404       1836.6467      147.75083      295.50913      0.10646388   
   1073000   502.02341      1320.9161      1822.9395      123.72117      295.62373      0.11067652   
   1074000   478.74779      1318.8299      1797.5777      89.693324      295.15683      0.11377111   
   1075000   491.60097      1368.1679      1859.7688      73.454742      306.19878      0.11616643   
   1076000   526.80489      1299.4723      1826.2772      55.598303      290.82457      0.11697841   
   1077000   503.35798      1335.3672      1838.7251      36.554121      298.85791      0.11627964   
   1078000   507.93966      1342.6967      1850.6364      61.741915      300.49828      0.11554953   
   1079000   506.62806      1337.6902      1844.3183      110.38465      299.37782      0.11503672   
   1080000   489.92619      1358.3241      1848.2503      143.72686      303.99572      0.11303696   
   1081000   500.3086       1368.243       1868.5516      129.3786       306.2156       0.10890702   
   1082000   517.08233      1346.0153      1863.0976      125.36806      301.24099      0.10760232   
   1083000   534.26717      1376.671       1910.9382      129.89888      308.1018       0.11084919   
   1084000   487.14027      1363.5528      1850.693       121.04851      305.16591      0.11528003   
   1085000   493.70057      1363.5227      1857.2233      91.898324      305.15918      0.11809911   
   1086000   517.06953      1350.8833      1867.9528      90.408906      302.33046      0.11966902   
   1087000   469.14955      1391.3624      1860.512       80.096101      311.38976      0.11795217   
   1088000   501.1639       1370.4996      1871.6635      112.68178      306.72062      0.11668309   
   1089000   520.08425      1383.1952      1903.2795      133.1399       309.56193      0.11569535   
   1090000   511.8236       1342.5585      1854.3821      135.88758      300.46735      0.11445813   
   1091000   498.57114      1330.3794      1828.9506      135.36325      297.74165      0.1147591    
   1092000   494.80576      1331.0752      1825.881       122.649        297.89737      0.11794748   
   1093000   481.44029      1340.4439      1821.8842      127.04977      299.99409      0.12131896   
   1094000   473.04899      1360.8741      1833.9231      111.57168      304.56642      0.12182388   
   1095000   499.26142      1339.432       1838.6934      83.583599      299.76763      0.12003622   
   1096000   504.48181      1356.1471      1860.629       50.581923      303.50852      0.11689683   
   1097000   516.87138      1288.4871      1805.3584      12.023345      288.36605      0.11355703   
   1098000   483.37775      1330.9858      1814.3636      19.244294      297.87736      0.11373596   
   1099000   486.14339      1323.5221      1809.6655      34.268325      296.20696      0.11748643   
   1100000   471.53968      1263.0819      1734.6216      55.188656      282.68033      0.12063202   
   1101000   480.0717       1308.2468      1788.3185      63.532522      292.78832      0.12194308   
   1102000   493.38754      1314.6134      1808.0009      82.738296      294.21317      0.12092334   
   1103000   478.01144      1320.0148      1798.0262      105.1726       295.42202      0.11913123   
   1104000   482.99241      1304.1063      1787.0988      93.935632      291.86168      0.11757766   
   1105000   484.91619      1273.9359      1758.8521      60.046341      285.10947      0.11660464   
   1106000   472.82873      1336.5644      1809.3931      43.355226      299.12585      0.11632107   
   1107000   480.18106      1343.8535      1824.0346      62.245017      300.75717      0.11511056   
   1108000   479.10344      1336.4787      1815.5822      94.341406      299.10668      0.11227574   
   1109000   497.5475       1339.2038      1836.7513      177.83256      299.71656      0.11151177   
   1110000   480.53146      1365.2942      1845.8257      209.37543      305.55565      0.1122628    
   1111000   494.00163      1394.7238      1888.7254      225.34061      312.14205      0.11449653   
   1112000   499.10011      1330.1913      1829.2914      179.26412      297.69955      0.11724422   
   1113000   490.58554      1344.2749      1834.8604      145.65238      300.85148      0.1197061    
   1114000   495.4377       1360.2192      1855.6569      110.64297      304.41985      0.12119381   
   1115000   468.82971      1397.6429      1866.4726      79.873218      312.79536      0.12005315   
   1116000   494.35807      1341.9436      1836.3017      12.428288      300.32973      0.11559007   
   1117000   519.62051      1329.5105      1849.131       20.087153      297.54719      0.11088093   
   1118000   489.4798       1307.7846      1797.2644      35.83244       292.68488      0.10842012   
   1119000   483.13134      1326.0005      1809.1319      104.37354      296.76164      0.1102591    
   1120000   464.44686      1335.5249      1799.9718      147.20578      298.89322      0.11334571   
   1121000   479.3045       1339.3172      1818.6217      151.74153      299.74195      0.11543842   
   1122000   489.4441       1330.1855      1819.6296      138.05769      297.69824      0.11738088   
   1123000   470.50979      1355.3746      1825.8844      90.419158      303.33562      0.1174912    
   1124000   497.70641      1300.592       1798.2984      46.494135      291.07516      0.11498011   
   1125000   497.04031      1360.0648      1857.1051      82.809633      304.3853       0.11206994   
   1126000   482.17799      1351.4137      1833.5917      137.46235      302.44917      0.11082004   
   1127000   468.28297      1334.4992      1802.7822      208.1827       298.66366      0.11338824   
   1128000   483.36325      1262.2805      1745.6438      214.96175      282.50097      0.11743674   
   1129000   473.37963      1318.5958      1791.9754      154.48758      295.10444      0.12049152   
   1130000   479.71177      1311.4963      1791.2081      67.49761       293.51556      0.12136436   
   1131000   503.74437      1319.4853      1823.2297     -2.1616011      295.30352      0.12093875   
   1132000   485.38431      1322.0829      1807.4672     -34.098852      295.88487      0.11941578   
   1133000   467.35042      1346.8785      1814.2289     -12.644472      301.43418      0.11795994   
   1134000   478.96247      1339.1514      1818.1138      18.017616      299.70482      0.11649137   
   1135000   494.07429      1314.0649      1808.1392      94.052976      294.09043      0.11422808   
   1136000   495.79787      1335.5681      1831.366       125.97304      298.90288      0.11132825   
   1137000   518.56253      1294.9506      1813.5132      168.55407      289.81261      0.11018809   
   1138000   504.68258      1333.0845      1837.767       139.93466      298.34704      0.11130932   
   1139000   472.54879      1318.3944      1790.9432      150.74665      295.05937      0.11581285   
   1140000   466.88528      1325.3751      1792.2604      127.71024      296.62167      0.11867671   
   1141000   489.92974      1376.9216      1866.8514      122.0623       308.15789      0.1190481    
   1142000   502.31119      1373.2756      1875.5868      114.23057      307.34191      0.11700281   
   1143000   513.05154      1362.9493      1876.0008      77.430604      305.03085      0.11507713   
   1144000   486.85247      1383.5984      1870.4509      52.600255      309.65216      0.11312889   
   1145000   484.37709      1341.2089      1825.586       80.339344      300.16531      0.11144851   
   1146000   480.30371      1353.1001      1833.4038      121.43045      302.82659      0.11116283   
   1147000   461.18989      1349.7879      1810.9778      170.49545      302.08529      0.11416746   
   1148000   485.69893      1336.8013      1822.5002      205.91982      299.17888      0.11808569   
   1149000   471.46406      1320.5355      1791.9996      180.46374      295.53856      0.11969329   
   1150000   459.11794      1348.545       1807.663       121.86733      301.80714      0.11977172   
   1151000   493.74037      1310.942       1804.6823      65.321429      293.3915       0.11759149   
   1152000   488.56622      1285.068       1773.6342      57.192892      287.60086      0.114986     
   1153000   465.51013      1300.4166      1765.9267      73.761212      291.03589      0.11319218   
   1154000   506.04435      1301.6893      1807.7337      123.66471      291.32074      0.11303765   
   1155000   504.25523      1314.7972      1819.0524      126.24525      294.25431      0.11277253   
   1156000   513.75227      1334.6676      1848.4198      132.17087      298.70134      0.11241088   
   1157000   470.98799      1378.1168      1849.1048      136.20668      308.42537      0.11320796   
   1158000   510.55826      1369.1595      1879.7178      108.05243      306.42071      0.11421591   
   1159000   512.80542      1357.1236      1869.929       63.580928      303.72705      0.11404273   
   1160000   492.39866      1357.8754      1850.274       63.372365      303.8953       0.1136672    
   1161000   500.73664      1357.4958      1858.2325      28.527936      303.81035      0.11252003   
   1162000   495.28281      1344.3472      1839.63        34.256436      300.86767      0.11020577   
   1163000   502.8835       1293.5115      1796.395       60.282162      289.49053      0.10817529   
   1164000   496.57976      1279.6229      1776.2026      119.82397      286.38223      0.10833768   
   1165000   497.2802       1312.6674      1809.9476      146.73896      293.77767      0.11118404   
   1166000   478.64264      1345.2107      1823.8533      130.04475      301.06091      0.1153429    
   1167000   492.50234      1356.5994      1849.1018      67.506263      303.60973      0.11842838   
   1168000   470.0908       1360.3589      1830.4497      32.903983      304.45112      0.11975832   
   1169000   485.06434      1355.6123      1840.6767      27.603478      303.38882      0.11876855   
   1170000   482.94803      1346.3888      1829.3369      72.062524      301.32459      0.1170134    
   1171000   472.67057      1342.3822      1815.0528      131.40197      300.42789      0.11403301   
   1172000   486.64656      1348.4132      1835.0597      145.44237      301.77764      0.11049424   
   1173000   499.81945      1324.2921      1824.1116      149.22107      296.37929      0.10844657   
   1174000   477.87453      1332.7553      1810.6298      106.1141       298.27336      0.1091812    
   1175000   472.21286      1317.7713      1789.9841      71.382541      294.91992      0.11397924   
   1176000   478.40685      1313.5823      1791.9891      104.83873      293.98241      0.11909212   
   1177000   490.10906      1353.2658      1843.3749      152.40936      302.86367      0.12063197   
   1178000   453.82703      1399.8611      1853.6881      173.4348       313.29179      0.12057404   
   1179000   503.94538      1343.1848      1847.1302      175.76727      300.60752      0.11951903   
   1180000   500.31318      1353.9763      1854.2895      129.52593      303.02268      0.11648268   
   1181000   493.3119       1383.8385      1877.1504      101.71808      309.70589      0.11329317   
   1182000   512.3595       1364.5433      1876.9028      64.289081      305.3876       0.11110464   
   1183000   506.14376      1372.7452      1878.8889      41.399073      307.22319      0.11086845   
   1184000   481.21235      1349.4607      1830.6731      37.55135       302.01208      0.11255676   
   1185000   501.20713      1326.4048      1827.6119      49.399015      296.85211      0.11695221   
   1186000   476.07618      1349.0667      1825.1429      60.100935      301.92389      0.12176878   
   1187000   479.48615      1343.9539      1823.44        83.280866      300.77964      0.12338326   
   1188000   459.37445      1340.4221      1799.7966      130.06187      299.98922      0.12129507   
   1189000   503.47745      1326.4827      1829.9601      131.80982      296.86954      0.11493451   
   1190000   501.95424      1340.6766      1842.6309      164.32566      300.04618      0.11108813   
   1191000   493.91837      1298.0374      1791.9558      107.50166      290.50344      0.10914533   
   1192000   508.87967      1302.6519      1811.5316      99.325421      291.53618      0.10984015   
   1193000   491.12466      1316.3738      1807.4984      18.940306      294.60715      0.11065555   
   1194000   501.44541      1327.0259      1828.4713      1.0237671      296.99112      0.11305723   
   1195000   475.97853      1336.0036      1811.9822      46.805112      299.00036      0.11692201   
   1196000   463.89234      1343.5737      1807.466       100.49756      300.69455      0.11875741   
   1197000   494.07667      1311.1328      1805.2094      155.36342      293.4342       0.11632399   
   1198000   491.5827       1302.7395      1794.3222      189.35036      291.55576      0.1142341    
   1199000   487.87374      1357.5374      1845.4112      167.06137      303.81966      0.11373135   
   1200000   507.41691      1343.9471      1851.364       86.426657      300.77811      0.1145329    
   1201000   507.9806       1375.5874      1883.568       34.554987      307.85928      0.11557299   
   1202000   479.1779       1323.7446      1802.9225     -5.5776152      296.25677      0.11676838   
   1203000   434.92248      1324.9676      1759.8901      56.79731       296.53047      0.11905616   
   1204000   494.93797      1306.6689      1801.6068      88.561457      292.43517      0.11968633   
   1205000   492.41993      1309.9407      1802.3606      155.04819      293.16742      0.11805774   
   1206000   482.87253      1296.0215      1778.894       153.6311       290.05227      0.11246845   
   1207000   485.2914       1303.5447      1788.8361      123.93095      291.73599      0.10964229   
   1208000   483.51528      1317.5806      1801.0959      100.29721      294.87724      0.10989942   
   1209000   519.82536      1309.8808      1829.7061      66.954007      293.154        0.11129391   
   1210000   499.99439      1319.0268      1819.0212      59.868721      295.2009       0.11368716   
   1211000   497.83758      1324.2602      1822.0977      85.495793      296.37214      0.11831957   
   1212000   512.59729      1325.7686      1838.3659      145.91043      296.70974      0.12108637   
   1213000   480.84304      1349.6177      1830.4607      203.17467      302.0472       0.12072492   
   1214000   479.87802      1352.0096      1831.8876      213.05863      302.58252      0.11862035   
   1215000   497.26176      1373.0873      1870.3491      197.23058      307.29977      0.11617912   
   1216000   504.69117      1386.106       1890.7972      149.7358       310.21336      0.11380705   
   1217000   492.50148      1375.3304      1867.8319      89.066165      307.80178      0.11181424   
   1218000   498.26316      1369.1169      1867.3801      75.782782      306.41118      0.11146127   
   1219000   489.79973      1362.6772      1852.4769      104.60023      304.96996      0.11283894   
   1220000   520.0399       1333.7753      1853.8152      107.01374      298.50165      0.11489443   
   1221000   506.9024       1384.5386      1891.441       106.59195      309.86258      0.11767164   
   1222000   484.579        1373.1707      1857.7497      47.295844      307.31842      0.11884847   
   1223000   501.83413      1351.1856      1853.0197      8.6842642      302.39811      0.11840599   
   1224000   533.19086      1356.3015      1889.4924      40.996117      303.54306      0.11713493   
   1225000   497.11008      1378.1836      1875.2936      109.88766      308.44031      0.11425031   
   1226000   490.88088      1391.9497      1882.8306      152.86698      311.5212       0.11041327   
   1227000   527.56199      1376.7847      1904.3467      163.02403      308.12723      0.10796507   
   1228000   497.59458      1368.6381      1866.2327      160.7563       306.30403      0.10721766   
   1229000   499.84894      1373.8263      1873.6753      100.59961      307.46516      0.10911912   
   1230000   499.86098      1391.2312      1891.0921      110.08622      311.36039      0.1156379    
   1231000   504.53848      1334.9046      1839.4431      71.176667      298.7544       0.1176801    
   1232000   498.76013      1325.9797      1824.7398      74.219405      296.75698      0.11594089   
   1233000   520.0747       1305.3362      1825.4109      72.140233      292.13692      0.11354774   
   1234000   485.48883      1321.7428      1807.2316      106.31157      295.80875      0.11251911   
   1235000   479.80238      1326.7293      1806.5317      131.99783      296.92473      0.11326111   
   1236000   462.09386      1289.0118      1751.1056      146.03621      288.48348      0.11343563   
   1237000   467.36474      1316.297       1783.6617      170.83616      294.58996      0.11311849   
   1238000   482.01346      1337.0207      1819.0342      160.12859      299.22799      0.11250106   
   1239000   471.54851      1311.9795      1783.528       139.17173      293.62371      0.11236044   
   1240000   483.91501      1324.5889      1808.5039      134.31802      296.44572      0.11389632   
   1241000   475.57533      1304.574       1780.1493      102.02845      291.96633      0.11432118   
   1242000   497.63248      1350.0271      1847.6595      79.297571      302.13883      0.11455892   
   1243000   491.77216      1349.1115      1840.8837      72.308519      301.93392      0.11445961   
   1244000   492.90828      1372.3054      1865.2137      112.14012      307.12476      0.11498099   
   1245000   488.75415      1360.1938      1848.9479      104.95295      304.41416      0.11514247   
   1246000   502.16533      1364.5445      1866.7098      107.40885      305.38785      0.11370385   
   1247000   555.62038      1375.783       1931.4034      120.39253      307.90307      0.11203929   
   1248000   501.34605      1401.0324      1902.3785      144.49738      313.55393      0.11123079   
   1249000   511.92193      1330.2892      1842.2112      106.47137      297.72146      0.1114849    
   1250000   480.14175      1325.2739      1805.4157      91.313902      296.59902      0.11499608   
   1251000   472.02996      1319.3904      1791.4203      69.251661      295.28227      0.11923076   
   1252000   462.00768      1318.0493      1780.057       52.87871       294.98215      0.12183451   
   1253000   471.19319      1329.4993      1800.6925      102.49448      297.54468      0.12248127   
   1254000   473.67539      1358.3049      1831.9802      127.42038      303.99141      0.11878467   
   1255000   479.66902      1352.9681      1832.6371      142.04663      302.79703      0.11566683   
   1256000   496.46021      1347.5318      1843.992       139.66026      301.58039      0.11477766   
   1257000   508.53565      1361.345       1869.8807      119.76669      304.67182      0.11398078   
   1258000   506.95738      1382.5598      1889.5171      111.7279       309.41971      0.11470086   
   1259000   485.63412      1365.0186      1850.6527      73.410235      305.49397      0.11579398   
   1260000   471.12663      1350.4402      1821.5668      60.603143      302.23129      0.11635189   
   1261000   491.64031      1337.3857      1829.026       35.059806      299.30967      0.11379085   
   1262000   475.41769      1295.7635      1771.1812      62.263098      289.99453      0.10910119   
   1263000   479.9354       1315.4552      1795.3906      128.75319      294.40156      0.10583435   
   1264000   506.78191      1326.1518      1832.9337      177.24899      296.79549      0.10528686   
   1265000   498.80641      1349.3976      1848.204       208.99669      301.99795      0.10750086   
   1266000   521.59504      1343.2896      1864.8846      196.96355      300.63097      0.1104408    
   1267000   478.46023      1321.7739      1800.2341      178.71203      295.81572      0.11258161   
   1268000   512.95906      1372.907       1885.8661      120.01109      307.2594       0.11456969   
   1269000   523.38987      1365.0553      1888.4452      61.85955       305.50217      0.11567286   
   1270000   500.54457      1372.4722      1873.0168      35.047093      307.1621       0.11568746   
   1271000   503.88835      1350.644       1854.5324      8.7067813      302.27691      0.11461989   
   1272000   512.01842      1350.9563      1862.9747      23.959084      302.34679      0.11341208   
   1273000   498.70929      1388.4356      1887.1449      82.087578      310.73473      0.11373425   
   1274000   483.98133      1350.0995      1834.0808      132.74058      302.15504      0.11768834   
   1275000   451.68949      1348.0492      1799.7387      131.50639      301.69617      0.12295309   
   1276000   482.61496      1317.605       1800.22        118.18963      294.88271      0.12483642   
   1277000   474.00228      1297.246       1771.2483      82.555283      290.32632      0.12186868   
   1278000   460.58109      1275.1832      1735.7643      53.643922      285.38862      0.11759844   
   1279000   462.84944      1321.2665      1784.116       54.211536      295.70217      0.11616613   
   1280000   466.63426      1334.0734      1800.7077      59.250213      298.56837      0.11621987   
   1281000   476.90839      1324.7926      1801.701       86.822525      296.49131      0.11754596   
   1282000   487.72296      1295.6811      1783.4041      142.02379      289.97609      0.11981629   
   1283000   511.94609      1330.4677      1842.4138      137.69345      297.7614       0.12087795   
   1284000   498.96934      1304.6719      1803.6412      149.8817       291.98824      0.12031797   
   1285000   474.83922      1325.8952      1800.7344      143.3664       296.73806      0.11862269   
   1286000   486.15939      1295.1267      1781.2861      144.25593      289.85201      0.11844135   
   1287000   496.0662       1351.1193      1847.1855      137.61916      302.38327      0.11892064   
   1288000   496.25537      1336.0207      1832.2761      89.906949      299.00418      0.11881153   
   1289000   474.66438      1352.8866      1827.551       43.58547       302.7788       0.11897208   
   1290000   473.48622      1361.709       1835.1952      8.2850115      304.75327      0.12069184   
   1291000   478.42761      1359.3386      1837.7662      32.809502      304.22277      0.12504457   
   1292000   452.18027      1357.5071      1809.6873      49.951537      303.81287      0.1269369    
   1293000   470.62527      1354.8733      1825.4986      73.967756      303.22343      0.12466678   
   1294000   492.14691      1361.6124      1853.7593      102.59236      304.73165      0.11878654   
   1295000   496.43743      1386.2482      1882.6856      122.80985      310.24519      0.11470404   
   1296000   474.47195      1360.6743      1835.1463      162.40818      304.52171      0.11338784   
   1297000   524.18022      1372.0815      1896.2617      172.48744      307.07466      0.11330231   
   1298000   490.75954      1360.3779      1851.1374      149.30446      304.45536      0.11320052   
   1299000   505.10213      1354.2929      1859.3951      120.92974      303.09354      0.11397338   
   1300000   495.76962      1372.9702      1868.7398      98.662334      307.27355      0.11644986   
   1301000   512.26425      1410.2361      1922.5004      75.778539      315.61374      0.11852909   
   1302000   453.22875      1401.4522      1854.6809      81.052515      313.64787      0.11820798   
   1303000   502.13394      1352.5331      1854.667       59.119164      302.69968      0.1169485    
   1304000   523.41718      1345.9503      1869.3675      51.840804      301.22644      0.11283826   
   1305000   496.68136      1382.8247      1879.5061      54.807278      309.47901      0.10938966   
   1306000   526.67125      1331.1349      1857.8062      62.09285       297.91073      0.1084748    
   1307000   508.65028      1349.9719      1858.6222      63.027587      302.12648      0.11002835   
   1308000   492.7457       1349.1745      1841.9202      99.306072      301.94802      0.11502679   
   1309000   488.15607      1370.2861      1858.4421      99.433188      306.67283      0.11766783   
   1310000   501.4549       1405.4936      1906.9485      136.494        314.55234      0.11926877   
   1311000   486.64753      1392.1273      1878.7749      136.32607      311.56095      0.11785669   
   1312000   474.97149      1369.2523      1844.2238      94.131988      306.44147      0.11624603   
   1313000   476.94275      1336.4489      1813.3916      76.671488      299.1          0.11565598   
   1314000   471.56614      1313.5512      1785.1173      52.575991      293.97546      0.11552891   
   1315000   453.38363      1304.8747      1758.2583      93.433246      292.03364      0.11816778   
   1316000   471.90312      1312.1718      1784.075       103.14475      293.66675      0.121071     
   1317000   465.94387      1326.0098      1791.9537      104.34539      296.76372      0.1223634    
   1318000   449.88087      1309.409       1759.2898      54.960783      293.04841      0.12081155   
   1319000   463.62914      1306.2475      1769.8766      42.16969       292.34087      0.11651853   
   1320000   468.11368      1286.1097      1754.2234      50.504254      287.83399      0.11126198   
   1321000   497.72967      1299.5786      1797.3082      102.03659      290.84835      0.10957492   
   1322000   486.96744      1339.7679      1826.7354      141.67648      299.84281      0.11019667   
   1323000   492.44588      1328.8336      1821.2795      156.82337      297.39569      0.11122059   
   1324000   483.68602      1326.5784      1810.2645      118.11043      296.89098      0.11208338   
   1325000   468.3789       1348.3432      1816.7221      115.01684      301.76197      0.1141399    
   1326000   469.9515       1335.1691      1805.1206      119.38729      298.81358      0.11649237   
   1327000   498.86901      1361.4368      1860.3058      85.954109      304.69234      0.11628207   
   1328000   501.54443      1350.3623      1851.9067      79.601912      302.21385      0.11369797   
   1329000   485.69446      1362.3546      1848.0491      94.848312      304.89775      0.11122897   
   1330000   503.51028      1385.6428      1889.1531      77.466251      310.1097       0.10902277   
   1331000   498.37606      1348.8656      1847.2417      62.482252      301.8789       0.1063295    
   1332000   512.41433      1336.8964      1849.3107      55.565656      299.20016      0.10518573   
   1333000   510.7679       1361.5432      1872.3111      94.686843      304.71617      0.10894698   
   1334000   497.03196      1340.37        1837.402       125.58765      299.97756      0.11508521   
   1335000   498.66258      1329.8521      1828.5147      115.75435      297.62363      0.11748703   
   1336000   486.70832      1335.0909      1821.7992      108.60575      298.79609      0.11819023   
   1337000   476.31823      1294.1112      1770.4295      80.870982      289.62475      0.11699306   
   1338000   475.35755      1344.9353      1820.2928      85.127498      300.99928      0.11412829   
   1339000   511.33711      1365.1943      1876.5314      100.24553      305.53328      0.11154657   
   1340000   493.47542      1328.756       1822.2314      123.84332      297.37833      0.11136413   
   1341000   500.24582      1339.005       1839.2508      118.56576      299.67206      0.11260519   
   1342000   491.08395      1360.0784      1851.1623      114.40549      304.38833      0.11831887   
   1343000   471.05917      1367.3847      1838.4439      112.57632      306.02351      0.12410439   
   1344000   502.40351      1365.4092      1867.8127      91.563695      305.58137      0.12568362   
   1345000   469.0053       1368.0369      1837.0422      112.93264      306.16946      0.12479791   
   1346000   480.96998      1348.742       1829.712       121.35381      301.85123      0.12168521   
   1347000   491.91317      1331.5363      1823.4495      105.57901      298.00056      0.11736724   
   1348000   491.87958      1362.353       1854.2326      108.21835      304.89739      0.11491893   
   1349000   487.73987      1382.7031      1870.4429      101.77901      309.45178      0.11413829   
   1350000   494.21847      1331.2969      1825.5154      95.179348      297.94699      0.11454505   
   1351000   494.83923      1328.7081      1823.5473      61.809739      297.36759      0.1163583    
   1352000   473.67301      1348.0548      1821.7279      104.67662      301.69744      0.11989804   
   1353000   485.0702       1312.0448      1797.1151      126.48042      293.63833      0.12174351   
   1354000   459.60416      1292.1582      1751.7624      122.29389      289.18765      0.12206376   
   1355000   455.83116      1343.3178      1799.149       157.52619      300.63729      0.12012951   
   1356000   483.7371       1312.5924      1796.3295      141.06689      293.76087      0.11655002   
   1357000   486.16762      1300.6241      1786.7917      153.69174      291.08235      0.1147714    
   1358000   483.68064      1321.7346      1805.4152      171.46681      295.80692      0.11483407   
   1359000   473.33401      1335.4348      1808.7688      118.34789      298.87304      0.11493031   
   1360000   498.31468      1318.3931      1816.7078      89.68668       295.05909      0.11675314   
   1361000   469.44855      1348.1093      1817.5578      97.107475      301.70963      0.12057535   
   1362000   457.25062      1351.3511      1808.6017      118.31383      302.43514      0.12519196   
   1363000   466.32098      1338.5598      1804.8808      135.44777      299.57243      0.12797565   
   1364000   475.18304      1341.5512      1816.7342      87.678852      300.24191      0.12708574   
   1365000   484.17044      1355.5311      1839.7015      32.837446      303.37063      0.12391822   
   1366000   493.75227      1342.1159      1835.8682      1.9963944      300.36829      0.12026962   
   1367000   501.88025      1305.4796      1807.3598      25.843744      292.16901      0.11720326   
   1368000   498.33015      1309.1023      1807.4325      91.499769      292.97978      0.11585145   
   1369000   468.19067      1291.4517      1759.6424      149.53839      289.02955      0.11585239   
   1370000   463.86171      1315.7896      1779.6513      178.94057      294.47641      0.1166356    
   1371000   474.43243      1339.5151      1813.9475      172.04152      299.78622      0.11970789   
   1372000   447.62613      1279.4388      1727.065       123.70949      286.34103      0.12405108   
   1373000   456.20192      1301.8516      1758.0535      66.155055      291.35705      0.12671731   
   1374000   462.71551      1323.3798      1786.0953     -10.042582      296.17511      0.12408199   
   1375000   476.75846      1331.6093      1808.3678     -30.155657      298.0169       0.11792817   
   1376000   515.485        1319.8037      1835.2887     -6.7014693      295.37477      0.11420092   
   1377000   487.9817       1310.4525      1798.4342      54.127301      293.28197      0.11357996   
   1378000   496.61204      1326.5901      1823.2022      96.751724      296.89359      0.11485215   
   1379000   464.10958      1335.9251      1800.0347      131.15218      298.98278      0.11748294   
   1380000   477.75069      1331.4585      1809.2092      149.33583      297.98315      0.12040249   
   1381000   471.90777      1389.8035      1861.7113      131.94816      311.04088      0.12193902   
   1382000   489.51721      1361.0683      1850.5855      123.8694       304.60988      0.12186372   
   1383000   506.47254      1347.4957      1853.9682      90.687379      301.57231      0.11992381   
   1384000   488.28409      1351.478       1839.7621      77.548509      302.46355      0.11800461   
   1385000   502.70696      1340.6669      1843.3739      101.00782      300.044        0.11630224   
   1386000   497.10354      1366.5628      1863.6663      81.651479      305.83955      0.11392743   
   1387000   499.42014      1346.4345      1845.8547      86.017973      301.33481      0.11287089   
   1388000   481.23346      1346.5818      1827.8152      94.131154      301.36776      0.11311271   
   1389000   503.06568      1327.7779      1830.8436      91.392683      297.15942      0.11463841   
   1390000   498.29783      1334.498       1832.7958      92.112238      298.66339      0.11609791   
   1391000   510.71366      1313.7713      1824.485       95.472226      294.02471      0.11722928   
   1392000   488.90304      1322.015       1810.9181      79.371474      295.86968      0.11758117   
   1393000   480.34574      1304.3481      1784.6939      99.886498      291.91579      0.11982544   
   1394000   450.40736      1322.7905      1773.1978      109.08066      296.04322      0.12480867   
   1395000   481.18777      1333.1073      1814.295       122.95324      298.35214      0.12921786   
   1396000   477.57611      1369.1587      1846.7348      78.248952      306.42054      0.12920394   
   1397000   503.15914      1366.7762      1869.9354      48.061976      305.88733      0.12637326   
   1398000   490.04957      1353.9723      1844.0218      75.891392      303.02177      0.12086963   
   1399000   486.69556      1375.2401      1861.9356      138.43541      307.78155      0.11785365   
   1400000   491.72374      1417.1857      1908.9095      198.22862      317.16908      0.11668737   
   1401000   502.8785       1398.0939      1900.9724      164.22087      312.89629      0.11440335   
   1402000   509.58649      1348.9327      1858.5192      102.59921      301.8939       0.11300971   
   1403000   519.97352      1346.1439      1866.1174      50.228058      301.26977      0.11237126   
   1404000   505.53891      1340.9105      1846.4494      18.759899      300.09852      0.11271127   
   1405000   494.20794      1351.078       1845.286       36.574732      302.37404      0.11423555   
   1406000   490.87785      1342.3898      1833.2677      68.43185       300.4296       0.11640213   
   1407000   501.9063       1335.5871      1837.4934      86.609036      298.90713      0.11836043   
   1408000   467.20731      1345.9928      1813.2001      132.18906      301.23595      0.12010628   
   1409000   449.00514      1308.3293      1757.3344      133.79857      292.80678      0.11998765   
   1410000   499.50768      1303.3798      1802.8875      133.27149      291.69908      0.11878684   
   1411000   496.40139      1329.0998      1825.5012      126.20647      297.45526      0.11507219   
   1412000   480.82958      1381.5828      1862.4124      109.14371      309.20107      0.11149032   
   1413000   528.62949      1362.7319      1891.3614      88.724363      304.9822       0.11074833   
   1414000   518.24461      1397.436       1915.6806      61.83172       312.74904      0.11095147   
   1415000   488.26554      1403.6713      1891.9369      57.662877      314.14452      0.11377479   
   1416000   479.38695      1357.2172      1836.6042      92.078008      303.748        0.1202633    
   1417000   480.90643      1337.3462      1818.2527      128.93953      299.30083      0.12318326   
   1418000   497.13274      1344.6128      1841.7455      143.35183      300.9271       0.1229034    
   1419000   493.24148      1369.4947      1862.7362      126.48817      306.49573      0.11949224   
   1420000   513.17101      1342.6698      1855.8408      88.157698      300.49226      0.1163058    
   1421000   478.57539      1354.68        1833.2554      83.999537      303.18016      0.11550667   
   1422000   483.44548      1364.2684      1847.7139      105.46141      305.32608      0.11602183   
   1423000   477.87077      1354.7285      1832.5993      124.52729      303.19102      0.11567316   
   1424000   486.40428      1312.3212      1798.7254      141.80747      293.70017      0.11499189   
   1425000   515.09059      1298.3011      1813.3917      113.55362      290.56245      0.11442215   
   1426000   487.42717      1333.7716      1821.1988      90.034191      298.50083      0.1140395    
   1427000   499.46326      1322.3452      1821.8085      80.407972      295.94358      0.11418447   
   1428000   479.45502      1297.859       1777.3141      105.82962      290.46352      0.11551165   
   1429000   469.06348      1336.0985      1805.1619      126.41862      299.02158      0.11548722   
   1430000   495.88615      1338.2972      1834.1833      155.74784      299.51366      0.11325676   
   1431000   497.79793      1335.4986      1833.2965      140.47509      298.88733      0.11035688   
   1432000   491.93409      1372.8455      1864.7796      127.6045       307.24564      0.11010388   
   1433000   495.7772       1363.8349      1859.6121      73.594716      305.22904      0.11152445   
   1434000   501.39374      1359.6089      1861.0026      58.985242      304.28326      0.11510115   
   1435000   467.36161      1368.8057      1836.1673      95.966144      306.34152      0.11956674   
   1436000   502.50166      1369.0587      1871.5603      100.51158      306.39814      0.12053798   
   1437000   478.19752      1345.6552      1823.8527      124.2261       301.1604       0.11808079   
   1438000   496.46136      1349.2707      1845.7321      120.07587      301.96956      0.11012308   
   1439000   515.45127      1332.6499      1848.1012      118.11075      298.24978      0.10672425   
   1440000   501.4082       1345.7365      1847.1447      104.10146      301.17859      0.10679679   
   1441000   510.21482      1346.7707      1856.9855      94.604448      301.41004      0.10845877   
   1442000   465.56752      1371.3508      1836.9183      99.528811      306.91112      0.11122846   
   1443000   496.67162      1278.9271      1775.5987      86.901094      286.22651      0.11401554   
   1444000   496.83849      1301.382       1798.2205      94.541041      291.25196      0.11584701   
   1445000   478.40319      1337.2829      1815.6861      90.929335      299.28667      0.11564092   
   1446000   506.95824      1318.2953      1825.2535      59.576812      295.03719      0.11229178   
   1447000   506.2128       1320.476       1826.6888      52.749464      295.52524      0.10918475   
   1448000   533.35421      1372.1938      1905.548       72.4944        307.0998       0.10875436   
   1449000   499.2558       1370.1509      1869.4067      74.40235       306.64259      0.10868046   
   1450000   510.11298      1363.1472      1873.2602      93.404545      305.07515      0.10937919   
   1451000   519.81694      1350.4864      1870.3033      81.63925       302.24162      0.10914421   
   1452000   530.45907      1347.6813      1878.1403      92.535861      301.61384      0.1094701    
   1453000   540.16259      1369.0544      1909.217       112.15519      306.39719      0.11199289   
   1454000   494.79513      1369.8606      1864.6558      116.6172       306.57762      0.11479749   
   1455000   481.35811      1368.1463      1849.5044      128.1141       306.19395      0.11913728   
   1456000   458.36015      1319.5284      1777.8885      106.10729      295.31316      0.12162245   
   1457000   505.64471      1324.6219      1830.2666      113.96294      296.4531       0.12223564   
   1458000   486.68654      1335.8916      1822.5781      94.234963      298.97527      0.11860742   
   1459000   511.73911      1360.2598      1871.9989      72.84262       304.42893      0.11387924   
   1460000   499.94545      1373.3795      1873.325       119.59966      307.36515      0.11168309   
   1461000   491.29448      1418.7629      1910.0574      153.21262      317.52206      0.11072481   
   1462000   527.43882      1365.5645      1893.0033      143.89471      305.61614      0.11170795   
   1463000   510.79745      1367.3001      1878.0975      146.8034       306.00456      0.11414051   
   1464000   489.19024      1352.837       1842.0272      123.04776      302.7677       0.11618398   
   1465000   478.34053      1371.481       1849.8215      88.037018      306.94026      0.11764318   
   1466000   480.34669      1353.4341      1833.7808      70.901871      302.90132      0.11958634   
   1467000   479.00698      1328.4565      1807.4635      67.084325      297.31129      0.12148767   
   1468000   475.51687      1316.9212      1792.4381      97.965817      294.72966      0.12233744   
   1469000   479.63592      1333.304       1812.94        79.024974      298.39618      0.12040897   
   1470000   478.30079      1354.1637      1832.4645      46.275924      303.06461      0.11507586   
   1471000   502.09186      1354.8777      1856.9695      25.90674       303.2244       0.11125603   
   1472000   512.69169      1372.0954      1884.7871      50.498479      307.07778      0.11106547   
   1473000   506.67221      1430.5103      1937.1825      110.44843      320.15114      0.11231483   
   1474000   469.51322      1370.687       1840.2002      109.8479       306.76256      0.11313488   
   1475000   504.15785      1392.944       1897.1019      150.3447       311.74373      0.116758     
   1476000   499.85008      1373.802       1873.652       126.02269      307.4597       0.11785757   
   1477000   506.96202      1365.2207      1872.1827      112.8076       305.53919      0.11708568   
   1478000   484.41666      1358.9615      1843.3781      115.97609      304.13837      0.11550142   
   1479000   510.76768      1363.0611      1873.8288      105.32676      305.05587      0.1141317    
   1480000   497.44592      1342.3296      1839.7755      88.599164      300.41612      0.11288755   
   1481000   491.56117      1356.9864      1848.5475      88.987265      303.69634      0.11347551   
   1482000   478.48821      1349.4527      1827.9409      100.12618      302.01028      0.11523312   
   1483000   477.37688      1285.8829      1763.2598      104.86684      287.78323      0.11860822   
   1484000   480.70314      1306.2041      1786.9073      89.921855      292.33116      0.12109331   
   1485000   484.84624      1313.3978      1798.244       89.69111       293.94112      0.12145173   
   1486000   481.56736      1336.6543      1818.2216      83.588708      299.14597      0.12035275   
   1487000   481.51291      1341.8881      1823.401       92.577255      300.31732      0.11925288   
   1488000   489.76719      1356.7315      1846.4987      97.838673      303.63929      0.11824628   
   1489000   498.18296      1381.0789      1879.2618      125.24612      309.08829      0.11856613   
   1490000   507.56724      1402.4915      1910.0587      142.12721      313.88047      0.11963782   
   1491000   530.77465      1354.4405      1885.2151      134.93073      303.12656      0.11807323   
   1492000   501.17369      1345.2038      1846.3775      133.24498      301.05938      0.11159267   
   1493000   498.68677      1384.7618      1883.4486      103.18365      309.91253      0.10789344   
   1494000   514.39207      1351.0569      1865.449       87.258386      302.36931      0.10795162   
   1495000   537.79844      1346.5816      1884.38        96.030571      301.36772      0.11019443   
   1496000   536.93051      1333.2314      1870.162       102.25051      298.37993      0.11152645   
   1497000   500.2211       1353.1985      1853.4196      125.98933      302.8486       0.11281846   
   1498000   495.73264      1394.408       1890.1407      136.1362       312.07138      0.11472503   
   1499000   496.89353      1349.5451      1846.4387      130.84141      302.03097      0.11836162   
   1500000   503.27189      1369.2512      1872.5231      75.676665      306.44123      0.12525681   
   1501000   478.51849      1322.589       1801.1075      64.115972      295.99813      0.12939694   
   1502000   474.43713      1322.1421      1796.5792      33.473977      295.89811      0.12825051   
   1503000   478.25144      1325.7939      1804.0453      18.314512      296.71539      0.12411905   
   1504000   489.62363      1310.4533      1800.077       31.665341      293.28214      0.12048205   
   1505000   514.79063      1314.6466      1829.4372      73.850685      294.2206       0.1178525    
   1506000   475.29025      1394.3258      1869.616       119.45166      312.05297      0.11608629   
   1507000   481.5982       1374.4739      1856.0721      129.53342      307.61008      0.11620701   
   1508000   497.52872      1364.5597      1862.0885      130.52771      305.39127      0.11756748   
   1509000   494.8298       1359.8213      1854.6511      128.29841      304.33079      0.11969237   
   1510000   502.31556      1343.2596      1845.5751      120.43325      300.62425      0.12176604   
   1511000   469.78166      1366.1277      1835.9094      101.06383      305.74219      0.12334705   
   1512000   476.79588      1369.2156      1846.0114      102.76603      306.43325      0.12376844   
   1513000   491.94598      1347.5997      1839.5457      68.606782      301.59557      0.12177372   
   1514000   497.60752      1332.6848      1830.2923      41.37706       298.25759      0.11694808   
   1515000   481.29628      1368.6275      1849.9238      33.889116      306.30165      0.11360135   
   1516000   509.23722      1334.467       1843.7043      8.864006       298.65646      0.11256895   
   1517000   508.83435      1320.8884      1829.7228      41.540066      295.61754      0.11262344   
   1518000   483.76406      1304.9754      1788.7394      62.94911       292.05617      0.11129661   
   1519000   476.33135      1344.0408      1820.3722      52.177333      300.7991       0.11012371   
   1520000   502.41788      1337.9977      1840.4156      31.621536      299.44664      0.11212746   
   1521000   513.54548      1341.2701      1854.8155      14.004102      300.17899      0.11752706   
   1522000   480.15083      1352.4389      1832.5897      50.476021      302.6786       0.12102322   
   1523000   496.041        1382.4029      1878.4439      105.88725      309.3846       0.12138509   
   1524000   491.52861      1349.4255      1840.9541      125.13199      302.0042       0.11868875   
   1525000   496.29388      1338.6879      1834.9817      168.35372      299.60109      0.11648941   
   1526000   481.12276      1359.2039      1840.3266      182.89701      304.19262      0.11512995   
   1527000   485.86153      1362.6526      1848.5142      160.21343      304.96445      0.11523217   
   1528000   501.74925      1379.0639      1880.8132      132.20389      308.63734      0.11770547   
   1529000   465.03989      1361.0208      1826.0607      112.9169       304.59924      0.12405973   
   1530000   496.1017       1347.141       1843.2427      87.639477      301.49292      0.12724222   
   1531000   468.3185       1362.5378      1830.8563      108.87051      304.93876      0.12642559   
   1532000   471.96788      1340.2559      1812.2238      141.21382      299.95202      0.12376954   
   1533000   487.25969      1304.3938      1791.6534      131.04812      291.926        0.11970038   
   1534000   489.84175      1283.905       1773.7468      105.81632      287.34058      0.11720577   
   1535000   489.67324      1312.3272      1802.0004      93.868183      293.70152      0.11715287   
   1536000   497.42482      1310.5663      1807.9911      60.245018      293.30743      0.11733413   
   1537000   469.31658      1316.6473      1785.9639      83.667565      294.66838      0.11778995   
   1538000   480.1826       1320.0924      1800.275       100.73433      295.43939      0.11892384   
   1539000   494.1396       1318.1462      1812.2858      90.683463      295.00382      0.1175347    
   1540000   466.42903      1309.8402      1776.2692      94.141748      293.14492      0.1126107    
   1541000   503.54312      1331.5015      1835.0446      73.317427      297.99277      0.10656559   
   1542000   497.59132      1340.8557      1838.447       76.995042      300.08626      0.10576547   
   1543000   503.59909      1304.5022      1808.1013      58.944227      291.95028      0.10910782   
   1544000   506.95354      1331.528       1838.4816      95.505284      297.99871      0.11410701   
   1545000   492.84371      1340.3751      1833.2188      120.2286       299.9787       0.11742136   
   1546000   467.61158      1332.2528      1799.8644      128.94043      298.16091      0.11974285   
   1547000   465.77255      1346.0078      1811.7803      145.91579      301.2393       0.12102736   
   1548000   491.59127      1303.5847      1795.176       130.95678      291.74494      0.12077784   
   1549000   514.35397      1315.8776      1830.2316      128.64266      294.49611      0.11827211   
   1550000   478.3749       1326.3482      1804.7231      103.62968      296.83945      0.11379535   
   1551000   465.38744      1288.9196      1754.3071      87.36327       288.46286      0.11124858   
   1552000   517.97383      1285.4948      1803.4686      99.512114      287.69638      0.11152731   
   1553000   508.11103      1314.0836      1822.1946      118.11575      294.0946       0.11293628   
   1554000   465.53417      1350.3684      1815.9026      142.77494      302.21522      0.11452709   
   1555000   491.88968      1357.1658      1849.0555      103.13196      303.73648      0.11541041   
   1556000   488.4832       1341.6703      1830.1535      50.454239      300.26858      0.11585257   
   1557000   502.07101      1340.7932      1842.8642      57.386051      300.07227      0.11625302   
   1558000   489.57535      1387.0229      1876.5983      75.376451      310.41858      0.11473897   
   1559000   509.33205      1408.8575      1918.1896      96.522518      315.30521      0.10911694   
   1560000   521.9612       1389.1868      1911.148       125.1298       310.90286      0.10439558   
   1561000   498.80461      1376.4648      1875.2694      123.39384      308.05564      0.10475081   
   1562000   524.80092      1376.5126      1901.3135      95.438544      308.06635      0.10931847   
   1563000   479.5106       1368.6362      1848.1468      86.792249      306.30359      0.11407534   
   1564000   498.72589      1379.5693      1878.2952      85.515981      308.75044      0.11672826   
   1565000   456.46321      1361.5327      1817.996       81.821974      304.71382      0.11720248   
   1566000   481.0949       1332.6455      1813.7404      74.576328      298.2488       0.11735022   
   1567000   508.75925      1310.0284      1818.7876      60.479329      293.18704      0.11631431   
   1568000   497.73831      1327.0439      1824.7822      36.243107      296.99515      0.11389931   
   1569000   492.52354      1263.1486      1755.6721      38.634025      282.69524      0.11082681   
   1570000   514.36115      1307.3026      1821.6637      58.518341      292.57701      0.10966189   
   1571000   503.75822      1317.6456      1821.4038      89.789417      294.89179      0.10965466   
   1572000   487.94129      1336.6058      1824.5471      95.711853      299.13512      0.11254113   
   1573000   471.39061      1328.8203      1800.2109      116.00605      297.39271      0.11781686   
   1574000   470.02408      1347.7428      1817.7669      163.04206      301.62761      0.1210814    
   1575000   505.06735      1337.8206      1842.888       185.17161      299.407        0.12092645   
   1576000   493.46257      1336.9033      1830.3659      200.43829      299.2017       0.11779056   
   1577000   490.87416      1355.6998      1846.574       165.86259      303.4084       0.11431024   
   1578000   492.47724      1339.3109      1831.7882      105.68347      299.74054      0.11310066   
   1579000   498.15425      1309.3199      1807.4741      68.584126      293.02847      0.11546028   
   1580000   480.70512      1346.4163      1827.1215      104.5023       301.33074      0.11834866   
   1581000   468.80602      1362.8444      1831.6504      128.17982      305.00737      0.1200855    
   1582000   515.92949      1328.0912      1844.0207      161.90803      297.22953      0.12262586   
   1583000   509.12031      1332.1762      1841.2965      192.27359      298.14376      0.12453873   
   1584000   461.90854      1301.6192      1763.5277      147.52076      291.30504      0.12472964   
   1585000   486.57274      1289.8892      1776.4619      76.821583      288.67984      0.12508152   
   1586000   454.50307      1322.8856      1777.3887      52.475099      296.06452      0.12597388   
   1587000   486.67201      1314.4165      1801.0885      12.633773      294.16911      0.12497396   
   1588000   483.23916      1318.062       1801.3012      29.342434      294.98498      0.12059455   
   1589000   503.49019      1355.3081      1858.7983      39.205064      303.32074      0.11581777   
   1590000   503.8623       1346.4703      1850.3326      77.602165      301.34282      0.11433879   
   1591000   477.71137      1384.3425      1862.0539      82.963969      309.8187       0.11579922   
   1592000   506.70307      1393.1534      1899.8565      105.79181      311.79059      0.12098669   
   1593000   476.88602      1358.827       1835.713       113.15898      304.10828      0.12399845   
   1594000   462.61483      1378.5774      1841.1923      101.58955      308.52846      0.12461473   
   1595000   453.18377      1378.0905      1831.2743      95.220222      308.41948      0.12393419   
   1596000   499.86891      1332.7842      1832.6531      100.08738      298.27984      0.12242179   
   1597000   479.63796      1334.0426      1813.6806      127.8009       298.56148      0.11904139   
   1598000   499.10529      1331.9941      1831.0994      162.47964      298.10301      0.11559581   
   1599000   483.76166      1316.2896      1800.0512      151.84719      294.58831      0.11357149   
   1600000   438.71452      1308.0894      1746.804       132.09469      292.7531       0.11442167   
   1601000   472.09906      1328.6182      1800.7172      82.252472      297.34748      0.12047295   
   1602000   459.23421      1318.6695      1777.9037      93.959895      295.12093      0.1264906    
   1603000   482.40561      1337.1268      1819.5324      133.93135      299.25171      0.12590547   
   1604000   467.8817       1308.6256      1776.5073      197.9346       292.87308      0.12212883   
   1605000   517.4994       1330.8633      1848.3627      161.0994       297.84994      0.11881174   
   1606000   514.68179      1332.6783      1847.3601      136.99118      298.25615      0.11665714   
   1607000   488.08363      1356.2516      1844.3353      88.293677      303.5319       0.11493846   
   1608000   511.05435      1339.2916      1850.3459      39.407001      299.7362       0.11450961   
   1609000   494.39272      1334.4404      1828.8331      36.577971      298.65049      0.11539332   
   1610000   497.65031      1322.2005      1819.8508      60.304658      295.91119      0.11726153   
   1611000   475.66316      1315.612       1791.2752      78.043656      294.43667      0.12201733   
   1612000   479.97359      1308.941       1788.9146      101.4848       292.94369      0.12602213   
   1613000   464.4018       1299.3483      1763.7501      93.031744      290.79682      0.1270466    
   1614000   473.9385       1285.9         1759.8385      73.902762      287.78706      0.12362277   
   1615000   464.75477      1298.222       1762.9768      67.482665      290.54474      0.11820802   
   1616000   489.20846      1315.1699      1804.3784      97.540102      294.33772      0.11711157   
   1617000   488.55986      1332.1177      1820.6776      120.37114      298.13068      0.1169217    
   1618000   481.38774      1365.9127      1847.3005      123.25376      305.69407      0.11705233   
   1619000   489.61653      1353.1053      1842.7218      118.087        302.82774      0.11760756   
   1620000   503.233        1386.889       1890.122       57.329169      310.3886       0.11779024   
   1621000   500.04205      1373.4407      1873.4827      45.331147      307.37884      0.1179433    
   1622000   511.81281      1362.4716      1874.2844      47.439102      304.92393      0.1164288    
   1623000   467.9616       1373.0248      1840.9864      98.271369      307.28576      0.11621747   
   1624000   474.57516      1390.3357      1864.9109      126.00266      311.15999      0.11692573   
   1625000   523.70202      1349.732       1873.434       106.18115      302.07279      0.11790232   
   1626000   512.10808      1360.8816      1872.9897      101.90011      304.56811      0.11880404   
   1627000   503.42045      1418.9771      1922.3976      87.452258      317.56999      0.11905489   
   1628000   508.89631      1357.0853      1865.9816      62.550654      303.71848      0.11753448   
   1629000   500.29891      1332.9868      1833.2857      60.159901      298.32519      0.11426637   
   1630000   507.27767      1330.7755      1838.0531      61.851979      297.83028      0.11134169   
   1631000   503.01537      1347.7929      1850.8083      103.97924      301.63882      0.11016079   
   1632000   516.03139      1353.3828      1869.4142      129.28833      302.88985      0.10945039   
   1633000   538.27084      1328.8667      1867.1376      136.07957      297.4031       0.10891774   
   1634000   503.59326      1340.0021      1843.5954      117.05427      299.89523      0.108988     
   1635000   493.15603      1297.399       1790.555       90.587267      290.36056      0.11218832   
   1636000   499.98086      1279.7709      1779.7518      66.354031      286.41536      0.11619585   
   1637000   475.46629      1317.39        1792.8563      90.080472      294.83459      0.1177926    
   1638000   487.7703       1320.2564      1808.0267      82.836003      295.47609      0.1172684    
   1639000   475.79889      1328.3522      1804.1511      115.34312      297.28794      0.11538341   
   1640000   479.82345      1323.5985      1803.4219      114.3996       296.22406      0.1142305    
   1641000   482.18181      1340.0043      1822.1862      115.03402      299.89572      0.11490199   
   1642000   525.34219      1348.003       1873.3452      111.54808      301.68584      0.11831402   
   1643000   478.51046      1331.3966      1809.9071      130.97946      297.9693       0.12356445   
   1644000   456.50585      1361.2666      1817.7724      132.60819      304.65426      0.12666813   
   1645000   457.90505      1346.0424      1803.9474      123.66277      301.24705      0.1273819    
   1646000   508.92523      1336.8806      1845.8058      122.30253      299.19662      0.12660635   
   1647000   498.90229      1381.7073      1880.6096      121.53558      309.22893      0.12278715   
   1648000   507.36418      1385.1141      1892.4783      121.70737      309.99138      0.11694819   
   1649000   479.50267      1382.8668      1862.3695      128.39161      309.48844      0.11378476   
   1650000   507.60791      1354.5261      1862.134       96.274332      303.14573      0.11334139   
   1651000   510.05772      1360.7953      1870.853       86.90615       304.54878      0.11500103   
   1652000   524.5667       1378.9191      1903.4858      57.309673      308.60492      0.11699206   
   1653000   495.05216      1398.7411      1893.7932      61.977714      313.04113      0.11735793   
   1654000   509.78669      1350.255       1860.0417      41.10126       302.18984      0.11560169   
   1655000   510.70892      1353.6432      1864.3522      54.687847      302.94814      0.11480134   
   1656000   487.54876      1369.0297      1856.5785      50.85514       306.39166      0.11356311   
   1657000   505.20285      1358.2253      1863.4281      38.920506      303.9736       0.11113244   
   1658000   519.71736      1395.9889      1915.7063      46.967457      312.42519      0.10805245   
   1659000   499.89807      1358.8337      1858.7317      96.182489      304.10976      0.107005     
   1660000   490.05544      1358.0846      1848.14        143.4098       303.94211      0.10856414   
   1661000   502.15448      1364.6657      1866.8202      182.27883      305.41499      0.11273627   
   1662000   519.1238       1355.5769      1874.7007      239.25483      303.3809       0.11604752   
   1663000   500.67775      1387.9149      1888.5927      251.4915       310.61821      0.11644405   
   1664000   483.75824      1371.4345      1855.1927      220.57792      306.92985      0.11568298   
   1665000   494.97789      1347.2697      1842.2476      126.43436      301.52173      0.1142469    
   1666000   514.22088      1353.8124      1868.0333      23.314259      302.986        0.11115702   
   1667000   529.47717      1381.5388      1911.0159     -1.4673922      309.19121      0.10785048   
   1668000   540.91351      1339.246       1880.1595      8.3178824      299.726        0.10478227   
   1669000   519.5566       1368.9981      1888.5547      75.891781      306.38459      0.10296387   
   1670000   520.93515      1426.4533      1947.3884      157.94353      319.24318      0.10322584   
   1671000   497.84669      1401.5176      1899.3643      203.19239      313.66252      0.10701596   
   1672000   500.94883      1344.0948      1845.0436      209.22791      300.81118      0.11234789   
   1673000   511.50787      1327.6051      1839.113       159.5062       297.12075      0.11534544   
   1674000   486.22635      1366.6216      1852.848       122.17004      305.85272      0.11627583   
   1675000   460.62073      1362.3502      1822.9709      86.97795       304.89677      0.11516279   
   1676000   495.48081      1310.45        1805.9308      46.24634       293.2814       0.11185443   
   1677000   496.53957      1304.0385      1800.578       35.189748      291.84649      0.10865919   
   1678000   504.08142      1325.1823      1829.2637      40.066257      296.57852      0.10778674   
   1679000   497.01525      1333.071       1830.0863      78.423293      298.34403      0.10845084   
   1680000   487.50774      1305.9004      1793.4081      101.45517      292.26319      0.11052299   
   1681000   488.78324      1334.9295      1823.7127      126.74884      298.75996      0.11514278   
   1682000   486.54306      1328.9704      1815.5134      144.08523      297.4263       0.11990775   
   1683000   493.74457      1321.2186      1814.9631      76.048247      295.69143      0.12036377   
   1684000   513.86729      1312.9334      1826.8007      20.153921      293.83719      0.11945213   
   1685000   489.92014      1300.9372      1790.8573      16.70526       291.15242      0.1180912    
   1686000   481.94644      1341.5318      1823.4783      50.90431       300.23758      0.11562096   
   1687000   501.1613       1337.7822      1838.9436      74.22561       299.39841      0.11241859   
   1688000   506.09591      1314.7141      1820.81        108.09887      294.23571      0.11032089   
   1689000   513.81045      1359.9763      1873.7868      102.62873      304.36549      0.11097966   
   1690000   498.53774      1351.5334      1850.0711      121.65811      302.47594      0.11596926   
   1691000   493.48371      1345.1352      1838.6189      120.37467      301.04402      0.12101696   
   1692000   489.38163      1355.9307      1845.3123      133.03782      303.46007      0.12174524   
   1693000   480.26009      1362.5476      1842.8077      144.42912      304.94095      0.11932754   
   1694000   478.13589      1376.8         1854.9359      134.83462      308.13066      0.11669043   
   1695000   497.7394       1372.2297      1869.9692      115.08944      307.10783      0.11496198   
   1696000   509.18698      1369.8259      1879.0129      108.05542      306.56985      0.11360067   
   1697000   499.54965      1311.8947      1811.4443      77.023583      293.60473      0.11345474   
   1698000   495.5002       1322.3434      1817.8436      107.86864      295.94316      0.11447279   
   1699000   482.04041      1310.8452      1792.8856      113.54116      293.36985      0.1159756    
   1700000   503.29039      1317.8957      1821.1861      97.084784      294.94776      0.1161727    
   1701000   500.37226      1307.6638      1808.0361      91.496214      292.65785      0.11657837   
   1702000   477.66075      1347.1052      1824.7659      108.78217      301.48491      0.11662701   
   1703000   503.59913      1326.6893      1830.2885      107.54023      296.9158       0.1162934    
   1704000   506.45269      1312.6446      1819.0973      108.81258      293.77256      0.11625273   
   1705000   488.79872      1336.2487      1825.0474      102.69141      299.05519      0.11604814   
   1706000   467.35943      1304.5952      1771.9546      125.79841      291.97108      0.11662139   
   1707000   457.13318      1284.8019      1741.9351      120.22045      287.54131      0.1180353    
   1708000   497.12031      1301.1048      1798.2251      152.95278      291.18993      0.12072068   
   1709000   474.41711      1338.3623      1812.7794      136.55547      299.52823      0.12194018   
   1710000   472.84515      1324.2688      1797.114       87.82927       296.37409      0.12052239   
   1711000   496.78341      1327.1515      1823.9349      62.235867      297.01922      0.11796485   
   1712000   504.66746      1307.8842      1812.5517      43.959924      292.70717      0.11295575   
   1713000   488.88897      1327.5703      1816.4593      61.604523      297.11297      0.10932689   
   1714000   507.74         1344.4412      1852.1811      98.345686      300.88869      0.10905484   
   1715000   502.76838      1358.1376      1860.906       123.0943       303.95398      0.10994388   
   1716000   526.3796       1342.0811      1868.4607      136.11136      300.36051      0.11170222   
   1717000   491.50828      1365.0352      1856.5435      103.07316      305.49767      0.11456055   
   1718000   496.40495      1351.1646      1847.5695      65.728271      302.39341      0.11725923   
   1719000   499.99346      1342.7501      1842.7436      37.910388      300.51023      0.11863492   
   1720000   504.81221      1308.0628      1812.875       48.636911      292.74715      0.12122389   
   1721000   491.11184      1323.165       1814.2769      109.10172      296.12705      0.12402593   
   1722000   486.79167      1321.9369      1808.7286      101.65705      295.8522       0.12292025   
   1723000   485.52868      1348.3247      1833.8533      53.78736       301.75783      0.11606094   
   1724000   540.20464      1368.9887      1909.1934      18.659754      306.38249      0.11245202   
   1725000   504.97862      1359.3933      1864.3719      40.933045      304.23501      0.1122772    
   1726000   518.01273      1362.2792      1880.2919      75.862931      304.88088      0.11259501   
   1727000   479.79204      1357.6627      1837.4547      130.56473      303.8477       0.11447424   
   1728000   501.84356      1362.432       1864.2755      175.6216       304.91507      0.11748246   
   1729000   496.17928      1368.9864      1865.1657      177.31651      306.38196      0.11987604   
   1730000   486.9266       1374.6512      1861.5778      160.78481      307.64977      0.12110897   
   1731000   516.5964       1352.5942      1869.1906      104.10355      302.71336      0.11604485   
   1732000   498.12322      1398.3577      1896.4809      83.44614       312.95532      0.10980464   
   1733000   480.84387      1369.7741      1850.6179      89.030125      306.55825      0.10794944   
   1734000   481.73341      1364.0112      1845.7446      102.61064      305.2685       0.10858404   
   1735000   500.06508      1307.7338      1807.7989      112.53647      292.6735       0.11082088   
   1736000   479.70924      1284.7106      1764.4198      138.10164      287.52087      0.11354643   
   1737000   502.23014      1325.7871      1828.0172      101.21822      296.71387      0.11640469   
   1738000   495.80175      1324.828       1820.6297      109.1315       296.49922      0.11897743   
   1739000   474.80496      1321.4346      1796.2395      99.51193       295.73977      0.1195502    
   1740000   503.64797      1323.5983      1827.2463      113.46308      296.22402      0.11714638   
   1741000   488.50154      1322.1294      1810.6309      117.77146      295.89527      0.11297281   
   1742000   502.68123      1335.1142      1837.7955      122.56521      298.80131      0.11032712   
   1743000   480.45042      1337.0041      1817.4545      134.9002       299.22426      0.10932912   
   1744000   483.40006      1354.6899      1838.09        86.03731       303.18239      0.10965288   
   1745000   491.09635      1335.3201      1826.4164      80.699866      298.84737      0.11254065   
   1746000   470.074        1367.5058      1837.5798      89.223812      306.05061      0.11652401   
   1747000   493.62564      1351.6928      1845.3184      100.48782      302.51162      0.11811856   
   1748000   490.30206      1351.0184      1841.3205      91.302082      302.36069      0.11806114   
   1749000   502.49928      1353.0985      1855.5978      85.965294      302.82622      0.11830502   
   1750000   501.56583      1360.6543      1862.2201      38.987213      304.51723      0.11953935   
   1751000   504.82277      1376.1252      1880.948       68.292397      307.97965      0.12147736   
   1752000   491.08964      1364.7163      1855.8059      90.362071      305.42631      0.12121881   
   1753000   484.01312      1368.1914      1852.2045      135.41006      306.20405      0.11776936   
   1754000   518.89505      1322.0561      1840.9511      142.75782      295.87887      0.11300592   
   1755000   533.49349      1362.2283      1895.7218      158.86112      304.86949      0.11090769   
   1756000   492.98053      1362.8464      1855.827       137.87397      305.00783      0.1103504    
   1757000   505.89821      1347.1491      1853.0473      85.546053      301.49473      0.11309268   
   1758000   508.95859      1307.4595      1816.4181      64.844618      292.61213      0.11708233   
   1759000   494.25545      1286.232       1780.4874      43.432807      287.86136      0.11798965   
   1760000   464.33992      1289.1288      1753.4687      43.609649      288.50966      0.11824891   
   1761000   478.88195      1363.9955      1842.8774      51.698875      305.26499      0.11831501   
   1762000   506.26614      1347.4778      1853.744       38.9021        301.5683       0.11734191   
   1763000   513.06457      1366.3886      1879.4531      54.576951      305.80057      0.11622458   
   1764000   484.82626      1353.776       1838.6023      66.512988      302.97785      0.11579968   
   1765000   504.06485      1348.5162      1852.581       97.814112      301.80069      0.11684034   
   1766000   534.83809      1357.0284      1891.8665      144.88878      303.70574      0.12012611   
   1767000   499.57745      1416.71        1916.2875      166.35322      317.06261      0.1244373    
   1768000   485.16753      1366.3014      1851.4689      121.64178      305.78105      0.12598996   
   1769000   481.69977      1376.0437      1857.7434      68.094254      307.96139      0.12552696   
   1770000   506.70693      1372.6874      1879.3944      32.53584       307.21026      0.12086534   
   1771000   478.22682      1366.9223      1845.1491      64.273296      305.92002      0.11603368   
   1772000   493.63454      1359.8337      1853.4682      117.89662      304.33357      0.11448472   
   1773000   504.72428      1363.5381      1868.2623      167.19989      305.16262      0.115306     
   1774000   494.83157      1348.3667      1843.1982      201.84748      301.76723      0.11719595   
   1775000   484.62966      1386.8733      1871.5029      178.7847       310.38508      0.11860568   
   1776000   511.71568      1331.3095      1843.0251      96.390993      297.94979      0.11902869   
   1777000   493.25699      1361.4224      1854.6794      93.258377      304.68912      0.12016384   
   1778000   520.95293      1335.2317      1856.1847      84.267443      298.8276       0.11780639   
   1779000   535.80007      1300.9466      1836.7467      100.57112      291.15452      0.11169006   
   1780000   509.87036      1326.2211      1836.0915      120.25997      296.811        0.10798008   
   1781000   479.21882      1322.4047      1801.6235      109.13623      295.95688      0.10693146   
   1782000   511.84926      1317.7192      1829.5685      98.704074      294.90827      0.10880652   
   1783000   478.33323      1329.7697      1808.1029      85.786855      297.60519      0.11247988   
   1784000   478.35275      1331.24        1809.5927      73.604551      297.93424      0.11508444   
   1785000   486.72962      1317.5055      1804.2351      84.71236       294.86044      0.11662935   
   1786000   476.67779      1379.3162      1855.994       139.05513      308.6938       0.11874182   
   1787000   479.98363      1378.6841      1858.6677      146.4784       308.55233      0.12004048   
   1788000   502.09418      1339.6916      1841.7858      162.82315      299.82574      0.12096995   
   1789000   470.87666      1387.4065      1858.2832      151.53877      310.50443      0.12004333   
   1790000   504.06145      1379.2304      1883.2919      111.59699      308.6746       0.11573141   
   1791000   527.73857      1345.0435      1872.7821      45.956045      301.0235       0.11040723   
   1792000   509.31455      1386.7257      1896.0403      48.823826      310.35207      0.10957821   
   1793000   518.59672      1354.1572      1872.7539      55.014109      303.06317      0.11088033   
   1794000   498.33155      1327.8446      1826.1761      80.629163      297.17435      0.11399413   
   1795000   492.14654      1328.4091      1820.5556      140.68371      297.30068      0.11827722   
   1796000   475.34818      1317.5124      1792.8606      153.59208      294.86198      0.12053021   
   1797000   474.2337       1303.3056      1777.5393      122.27134      291.68247      0.12200437   
   1798000   469.80412      1278.8413      1748.6454      49.399846      286.20731      0.12122857   
   1799000   492.46612      1304.6921      1797.1582      46.955068      291.99276      0.12007576   
   1800000   487.41942      1353.3538      1840.7732      80.629249      302.88336      0.11689169   
   1801000   502.30357      1327.4617      1829.7652      123.08587      297.08864      0.11415515   
   1802000   522.26089      1326.3212      1848.5821      173.85139      296.8334       0.11300814   
   1803000   487.47754      1314.0088      1801.4863      184.56831      294.07786      0.1130077    
   1804000   510.64902      1299.4312      1810.0802      153.65448      290.81537      0.11315636   
   1805000   499.44044      1336.0934      1835.5339      116.72883      299.02046      0.11290977   
   1806000   498.65211      1322.2547      1820.9068      82.844477      295.92331      0.11350778   
   1807000   481.92246      1315.1925      1797.115       41.025271      294.34279      0.11493379   
   1808000   495.49394      1328.138       1823.632       42.643577      297.24002      0.11913362   
   1809000   463.29622      1328.0864      1791.3827      76.733852      297.22847      0.12348044   
   1810000   490.31646      1304.1944      1794.5109      100.988        291.88138      0.12330291   
   1811000   496.49764      1368.2673      1864.7649      111.38978      306.22103      0.11993122   
   1812000   503.59092      1387.8988      1891.4897      135.35073      310.6146       0.11474702   
   1813000   519.63645      1372.3815      1892.0179      124.29808      307.14179      0.11167877   
   1814000   488.73106      1366.9615      1855.6925      104.90102      305.92878      0.11121428   
   1815000   503.63609      1382.4501      1886.0862      101.24792      309.39518      0.1123104    
   1816000   493.7587       1363.143       1856.9017      101.03934      305.0742       0.11340801   
   1817000   475.48041      1389.1784      1864.6588      128.79597      310.90097      0.11600213   
   1818000   501.17903      1312.1355      1813.3145      156.29942      293.65861      0.11917949   
   1819000   496.26491      1312.7174      1808.9823      147.9725       293.78884      0.12100703   
   1820000   484.2104       1344.033       1828.2434      120.33011      300.79733      0.12135034   
   1821000   486.32966      1307.4139      1793.7436      78.503848      292.60192      0.11828739   
   1822000   506.80335      1312.8637      1819.6671      65.086544      293.8216       0.11247135   
   1823000   514.19645      1312.4896      1826.686       89.830424      293.73787      0.1104229    
   1824000   494.50506      1315.8076      1810.3127      129.20873      294.48044      0.11131296   
   1825000   512.5316       1307.5788      1820.1104      156.77093      292.63882      0.11347959   
   1826000   498.73541      1319.2869      1818.0223      120.56971      295.25912      0.11555633   
   1827000   509.55853      1327.6142      1837.1728      86.819406      297.12279      0.11801408   
   1828000   511.76186      1332.2589      1844.0208      56.845651      298.16228      0.12145891   
   1829000   488.95568      1312.3151      1801.2707      48.758295      293.6988       0.12473912   
   1830000   490.99745      1332.1215      1823.119       32.066827      298.13154      0.12393118   
   1831000   501.90006      1331.0208      1832.9208      52.397153      297.88518      0.11829825   
   1832000   501.05308      1377.9721      1879.0252      101.39447      308.39299      0.11347984   
   1833000   526.41241      1345.7805      1872.1929      124.35222      301.18844      0.11202177   
   1834000   507.19079      1396.6273      1903.8181      160.86711      312.56806      0.11328269   
   1835000   519.28569      1351.6506      1870.9363      154.87637      302.50219      0.1171525    
   1836000   485.03437      1355.9823      1841.0167      123.08786      303.47163      0.12058591   
   1837000   511.12702      1374.6126      1885.7397      87.699303      307.64113      0.12302411   
   1838000   509.21319      1392.0127      1901.2259      49.654001      311.5353       0.12286813   
   1839000   496.44352      1343.4849      1839.9285      15.871263      300.67469      0.12111182   
   1840000   509.13573      1359.5266      1868.6623      56.325778      304.26484      0.11968791   
   1841000   483.45102      1373.4896      1856.9407      129.85055      307.3898       0.11990787   
   1842000   509.72818      1343.7677      1853.4959      154.96695      300.73798      0.12106611   
   1843000   469.75366      1330.9572      1800.7109      159.25475      297.87095      0.12313968   
   1844000   459.56217      1345.4539      1805.0161      148.3604       301.11535      0.12532314   
   1845000   506.11851      1322.5185      1828.637       93.247078      295.98236      0.12476614   
   1846000   498.80128      1307.8471      1806.6484      37.776471      292.69886      0.12112438   
   1847000   506.44362      1315.7176      1822.1613      57.387456      294.46031      0.11831253   
   1848000   504.21454      1337.4614      1841.676       84.986608      299.32661      0.1158567    
   1849000   516.69483      1318.5746      1835.2695      141.17435      295.09971      0.11501506   
   1850000   484.58979      1349.5748      1834.1646      178.17705      302.0376       0.11558697   
   1851000   517.59489      1349.9894      1867.5842      139.13076      302.13039      0.11580352   
   1852000   485.25         1365.0343      1850.2843      101.78385      305.49749      0.11779454   
   1853000   483.58778      1391.5789      1875.1667      100.78211      311.43821      0.12171179   
   1854000   500.85967      1357.7915      1858.6512      142.37373      303.87652      0.1237239    
   1855000   482.87627      1353.3754      1836.2517      176.56933      302.88819      0.12310313   
   1856000   494.9052       1325.8476      1820.7528      196.98224      296.72741      0.12026467   
   1857000   502.83245      1337.4601      1840.2925      201.26309      299.32631      0.11536301   
   1858000   506.85389      1304.2943      1811.1482      176.0044       291.90375      0.11136746   
   1859000   480.23435      1281.9488      1762.1832      121.30165      286.90278      0.11048764   
   1860000   517.36356      1320.2066      1837.5701      70.667284      295.46494      0.11181257   
   1861000   501.03111      1300.4427      1801.4738      28.258681      291.04174      0.11320172   
   1862000   485.49813      1286.8632      1772.3613      43.981495      288.00262      0.11588906   
   1863000   477.04077      1276.8595      1753.9003      59.752113      285.76379      0.11812993   
   1864000   496.64732      1313.3776      1810.025       53.618844      293.93661      0.11861572   
   1865000   497.04409      1343.1112      1840.1553      44.510932      300.59104      0.11926658   
   1866000   474.39843      1387.2898      1861.6882      66.362113      310.47831      0.12360062   
   1867000   479.53357      1351.9898      1831.5234      83.335113      302.5781       0.12922493   
   1868000   464.21         1359.6952      1823.9052      124.75913      304.30258      0.12857997   
   1869000   461.57624      1357.2595      1818.8358      160.92615      303.75747      0.12411081   
   1870000   491.23988      1320.8278      1812.0677      182.15148      295.60397      0.11917422   
   1871000   483.55803      1306.9089      1790.4669      201.94533      292.48889      0.11705948   
   1872000   492.24161      1316.5222      1808.7638      178.82493      294.64037      0.11605585   
   1873000   485.41563      1335.5017      1820.9174      130.44652      298.88803      0.11516396   
   1874000   496.24307      1305.8788      1802.1218      71.854251      292.25835      0.11487309   
   1875000   463.71159      1260.9074      1724.6189      38.107789      282.19365      0.1154196    
   1876000   489.85916      1322.3535      1812.2126      47.484681      295.94542      0.11864934   
   1877000   468.80934      1348.0874      1816.8968      109.02072      301.70473      0.12260161   
   1878000   483.49719      1299.3781      1782.8753      136.73374      290.8035       0.12294238   
   1879000   514.75954      1320.1667      1834.9262      108.822        295.45602      0.11795838   
   1880000   498.94403      1356.2996      1855.2437      107.89019      303.54264      0.11210554   
   1881000   506.03856      1345.5335      1851.5721      119.8446       301.13316      0.11111826   
   1882000   535.36268      1365.1336      1900.4963      135.22904      305.51971      0.11337612   
   1883000   488.8036       1365.2479      1854.0515      162.86047      305.54529      0.1160016    
   1884000   520.244        1336.2549      1856.4989      147.50689      299.05659      0.11768605   
   1885000   504.6099       1342.3228      1846.9327      98.19221       300.4146       0.11833671   
   1886000   470.3271       1348.7468      1819.0739      27.311774      301.85231      0.1180336    
   1887000   481.67532      1332.2201      1813.8954     -8.8019284      298.15359      0.11716892   
   1888000   481.12856      1324.6973      1805.8259      21.257521      296.46997      0.11596524   
   1889000   488.76894      1315.2608      1804.0297      114.37912      294.35806      0.11402805   
   1890000   539.72195      1315.7739      1855.4958      195.3166       294.4729       0.11073479   
   1891000   512.46407      1314.9074      1827.3714      228.35625      294.27896      0.10735787   
   1892000   503.46597      1365.1317      1868.5977      190.03208      305.51928      0.1073419    
   1893000   494.72039      1374.3502      1869.0706      99.205316      307.5824       0.11071978   
   1894000   512.60263      1363.138       1875.7406     -11.883239      305.07308      0.11475207   
   1895000   513.0107       1345.1528      1858.1635     -34.643502      301.04796      0.11782132   
   1896000   487.91358      1353.9687      1841.8823      8.5059705      303.02098      0.11921983   
   1897000   500.80107      1373.0727      1873.8737      64.894305      307.29648      0.11870913   
   1898000   469.4241       1359.0621      1828.4862      157.67387      304.1609       0.11810241   
   1899000   499.34523      1354.9915      1854.3367      193.51968      303.24987      0.1188838    
   1900000   482.03252      1370.9207      1852.9532      138.22149      306.81486      0.12035774   
   1901000   488.30603      1365.9516      1854.2577      74.261918      305.70278      0.12036772   
   1902000   471.40755      1395.3572      1866.7647      51.934535      312.2838       0.11850784   
   1903000   491.37839      1356.532       1847.9104      13.644196      303.59465      0.11465667   
   1904000   514.47098      1321.0393      1835.5102      42.760208      295.6513       0.11124347   
   1905000   515.76046      1325.8884      1841.6489      76.438024      296.73655      0.10995898   
   1906000   487.22023      1290.9378      1778.158       106.83472      288.91453      0.11041709   
   1907000   513.20036      1283.2818      1796.4822      121.10594      287.20111      0.11331396   
   1908000   487.72904      1315.9104      1803.6395      145.38761      294.50346      0.1172167    
   1909000   496.23692      1342.6798      1838.9167      128.9793       300.49449      0.11827458   
   1910000   464.02867      1376.7053      1840.734       124.77261      308.10948      0.11633144   
   1911000   521.19902      1371.7182      1892.9172      135.79102      306.99335      0.11448209   
   1912000   483.90811      1375.5675      1859.4756      132.02239      307.85483      0.113486     
   1913000   491.72231      1353.2191      1844.9414      124.62125      302.85322      0.11356565   
   1914000   526.71281      1310.9212      1837.634       76.955795      293.38685      0.11394716   
   1915000   499.11922      1282.762       1781.8812      51.670649      287.08477      0.11304005   
   1916000   495.79385      1292.6839      1788.4778      44.642598      289.30532      0.11071335   
   1917000   507.9675       1317.2393      1825.2068      52.855288      294.80086      0.10761592   
   1918000   511.05379      1318.6891      1829.7429      100.0623       295.12533      0.10620213   
   1919000   509.02357      1342.1734      1851.1969      98.660677      300.38116      0.10709625   
   1920000   499.73852      1341.5091      1841.2476      121.93706      300.23248      0.11104919   
   1921000   483.88126      1330.9127      1814.7939      123.46123      297.86098      0.11529221   
   1922000   497.85984      1308.0448      1805.9046      126.59553      292.7431       0.1175556    
   1923000   495.45147      1252.9744      1748.4259      116.41274      280.41824      0.11893288   
   1924000   488.88603      1317.2579      1806.1439      128.21959      294.80502      0.12035465   
   1925000   497.06847      1318.8798      1815.9483      80.945228      295.16801      0.12053081   
   1926000   486.89236      1333.8896      1820.782       42.54882       298.52724      0.11938062   
   1927000   484.09284      1306.5284      1790.6212      33.013398      292.40374      0.11660335   
   1928000   517.55176      1301.553       1819.1048      29.803244      291.29023      0.11272471   
   1929000   499.62478      1303.0235      1802.6483      55.196699      291.61934      0.11017717   
   1930000   498.40559      1319.7023      1818.1079      42.479971      295.35209      0.10829528   
   1931000   497.63937      1341.1345      1838.7739      50.622727      300.14865      0.10967468   
   1932000   477.61854      1324.0628      1801.6813      54.242925      296.32797      0.11442922   
   1933000   501.09513      1339.4464      1840.5415      105.97424      299.77085      0.11922792   
   1934000   507.42147      1342.4074      1849.8289      166.76552      300.43353      0.12077021   
   1935000   504.55103      1389.1822      1893.7332      194.43401      310.90182      0.11941768   
   1936000   501.57751      1347.7643      1849.3418      175.22446      301.63241      0.11636862   
   1937000   507.03287      1371.8912      1878.9241      100.02648      307.03207      0.11461399   
   1938000   482.20067      1360.8156      1843.0163      57.679561      304.55333      0.11405376   
   1939000   502.36406      1381.3972      1883.7612      33.918622      309.15952      0.11399865   
   1940000   498.52223      1359.2024      1857.7246      44.347086      304.19228      0.11491666   
   1941000   510.68655      1340.0681      1850.7546      36.884573      299.90998      0.11610278   
   1942000   498.27457      1366.2955      1864.5701      89.132655      305.77974      0.12036096   
   1943000   466.66073      1339.0359      1805.6966      112.005        299.67898      0.12567148   
   1944000   481.52346      1331.2928      1812.8163      124.25406      297.94607      0.12867969   
   1945000   470.74092      1336.1733      1806.9142      128.45412      299.03833      0.12736981   
   1946000   479.14151      1330.7589      1809.9004      102.22407      297.82656      0.12373028   
   1947000   492.67234      1315.0109      1807.6832      86.358934      294.30214      0.11937268   
   1948000   498.99587      1314.1823      1813.1782      51.779408      294.1167       0.11632472   
   1949000   488.7228       1318.0167      1806.7395      74.278754      294.97484      0.11591762   
   1950000   476.3204       1326.5959      1802.9163      123.42878      296.89489      0.11640724   
   1951000   485.64211      1293.2246      1778.8667      143.53025      289.42631      0.11723887   
   1952000   500.45577      1306.2317      1806.6875      172.16187      292.33734      0.11930442   
   1953000   459.34989      1357.631       1816.9809      177.70104      303.84062      0.12313828   
   1954000   492.9244       1354.6368      1847.5611      142.71997      303.17049      0.12795942   
   1955000   508.44561      1372.7572      1881.2028      89.616915      307.22588      0.1288132    
   1956000   482.72264      1373.9514      1856.674       55.320448      307.49314      0.12546637   
   1957000   496.62749      1326.8335      1823.461       58.144515      296.94807      0.1219344    
   1958000   507.84846      1307.8426      1815.6911      78.212085      292.69786      0.11956376   
   1959000   516.52892      1327.438       1843.9669      114.32977      297.08334      0.11910936   
   1960000   493.62137      1322.0787      1815.7         128.09266      295.88392      0.11841618   
   1961000   481.91195      1350.3116      1832.2236      130.84717      302.20251      0.11722762   
   1962000   486.7514       1341.5142      1828.2656      139.27245      300.23362      0.11606971   
   1963000   482.60121      1329.0545      1811.6557      86.075652      297.44513      0.11507467   
   1964000   483.76768      1329.6986      1813.4663      57.008536      297.58927      0.11431361   
   1965000   481.9083       1331.9699      1813.8782      28.8039        298.0976       0.11379881   
   1966000   498.01093      1317.7177      1815.7287      52.125133      294.90793      0.11586202   
   1967000   489.71264      1349.668       1839.3807      116.11133      302.05848      0.12000717   
   1968000   477.77454      1350.2801      1828.0547      145.27535      302.19546      0.12144765   
   1969000   489.76026      1355.7675      1845.5277      150.4667       303.42354      0.12139861   
   1970000   500.96375      1392.6639      1893.6277      132.13157      311.68105      0.12068141   
   1971000   505.85031      1351.7195      1857.5699      117.66074      302.51761      0.11829011   
   1972000   492.21015      1365.0791      1857.2893      103.92457      305.50752      0.11593836   
   1973000   504.05188      1358.5447      1862.5966      108.85449      304.04509      0.11313021   
   1974000   519.09524      1342.3337      1861.4289      102.11704      300.41703      0.11121324   
   1975000   532.2288       1329.3257      1861.5545      114.15161      297.50581      0.11158785   
   1976000   486.09287      1310.339       1796.4318      141.76642      293.25655      0.11523154   
   1977000   496.77795      1274.6485      1771.4264      153.00255      285.26894      0.1197787    
   1978000   465.11933      1282.0555      1747.1748      153.873        286.92665      0.12283538   
   1979000   498.29802      1305.3106      1803.6086      121.23667      292.13118      0.12446875   
   1980000   496.40109      1328.9338      1825.3348      69.37247       297.4181       0.12408472   
   1981000   495.53137      1311.8896      1807.421       36.323664      293.60359      0.12243862   
   1982000   511.03281      1329.6251      1840.6579      59.10076       297.57283      0.11987615   
   1983000   510.88153      1325.866       1836.7475      62.955476      296.73153      0.11630346   
   1984000   492.79121      1351.7559      1844.5471      87.10687       302.52574      0.11354487   
   1985000   499.82904      1347.4054      1847.2344      81.366534      301.55209      0.11376362   
   1986000   513.1427       1338.4396      1851.5823      60.873674      299.54554      0.11606174   
   1987000   484.64765      1339.9385      1824.5862      64.320572      299.88099      0.11835129   
   1988000   488.57964      1335.7081      1824.2877      79.713828      298.93421      0.12040947   
   1989000   497.02083      1327.2951      1824.3159      67.158313      297.05136      0.12141593   
   1990000   487.32714      1306.1911      1793.5182      73.145581      292.32824      0.12061743   
   1991000   457.34564      1291.6343      1748.9799      97.658157      289.0704       0.11887591   
   1992000   508.42741      1302.6118      1811.0392      109.15593      291.52719      0.11731345   
   1993000   506.35491      1319.2098      1825.5647      75.06633       295.24186      0.11657535   
   1994000   517.98151      1317.6902      1835.6718      80.741188      294.90178      0.11755386   
   1995000   504.37345      1291.6832      1796.0566      106.08221      289.08135      0.12327913   
   1996000   473.42585      1342.6154      1816.0413      89.230088      300.48008      0.12906498   
   1997000   459.88578      1321.3415      1781.2273      82.606491      295.71894      0.13091434   
   1998000   473.77708      1268.625       1742.4021      81.32442       283.92088      0.1298049    
   1999000   481.07125      1310.8307      1791.9019      85.504648      293.3666       0.12606433   
   2000000   499.13663      1285.8909      1785.0275      76.551396      287.78502      0.12168051   
Loop time of 13675.1 on 8 procs for 2000000 steps with 1500 atoms

Performance: 6.318 ns/day, 3.799 hours/ns, 146.251 timesteps/s, 219.376 katom-step/s
99.3% CPU use with 8 MPI tasks x 1 OpenMP threads

MPI task timing breakdown:
Section |  min time  |  avg time  |  max time  |%varavg| %total
---------------------------------------------------------------
Pair    | 271.49     | 280.03     | 290.75     |  37.6 |  2.05
Bond    | 21.693     | 22.852     | 23.918     |  18.2 |  0.17
Kspace  | 6409.1     | 6420.4     | 6429.8     |   8.1 | 46.95
Neigh   | 5.3229     | 5.3325     | 5.3422     |   0.3 |  0.04
Comm    | 163.48     | 164.21     | 165.16     |   4.0 |  1.20
Output  | 0.34817    | 0.86321    | 4.4605     | 146.3 |  0.01
Modify  | 5859.8     | 6308.4     | 6734.2     | 356.9 | 46.13
Other   |            | 473.1      |            |       |  3.46

Nlocal:          187.5 ave         219 max         167 min
Histogram: 2 1 1 0 1 1 1 0 0 1
Nghost:         1408.5 ave        1430 max        1381 min
Histogram: 1 1 0 0 2 1 0 0 0 3
Neighs:        10566.4 ave       13225 max        8093 min
Histogram: 2 0 0 1 1 1 1 1 0 1

Total # of neighbors = 84531
Ave neighs/atom = 56.354
Ave special neighs/atom = 2
Neighbor list builds = 12483
Dangerous builds = 0
System init for write_data ...
PPPM initialization ...
  using 12-bit tables for long-range coulomb (src/kspace.cpp:342)
  G vector (1/distance) = 0.26950753
  grid = 54 54 54
  stencil order = 5
  estimated absolute RMS force accuracy = 0.0003205389
  estimated relative force accuracy = 9.6529337e-07
  using single precision FFTW3
  3d grid and FFT values/proc = 39304 20412
Generated 1 of 1 mixed pair_coeff terms from arithmetic mixing rule
Last active /omp style is kspace_style pppm/omp
