created by fftool

1500 atoms
1000 bonds
500 angles
2 atom types
1 bond types
1 angle types
0.000000 59.209276 xlo xhi
0.000000 59.209276 ylo yhi
0.000000 59.209276 zlo zhi

Atoms

      1       1    1  -0.482000  3.938412e+01  2.688495e+01  3.285450e+01  # N2 N2
      2       1    2   0.964000  3.974273e+01  2.682827e+01  3.326764e+01  # N2_X N2
      3       1    1  -0.482000  4.010134e+01  2.677160e+01  3.368078e+01  # N2 N2
      4       2    1  -0.482000  2.728173e+01  2.805684e+01  2.707384e+01  # N2 N2
      5       2    2   0.964000  2.682503e+01  2.835905e+01  2.702294e+01  # N2_X N2
      6       2    1  -0.482000  2.636833e+01  2.866127e+01  2.697204e+01  # N2 N2
      7       3    1  -0.482000  2.708805e+01  4.773832e+01  1.977725e+01  # N2 N2
      8       3    2   0.964000  2.656828e+01  4.770745e+01  1.995442e+01  # N2_X N2
      9       3    1  -0.482000  2.604851e+01  4.767658e+01  2.013159e+01  # N2 N2
     10       4    1  -0.482000  3.374823e+01  4.553651e+01  5.370148e+01  # N2 N2
     11       4    2   0.964000  3.415006e+01  4.558580e+01  5.407377e+01  # N2_X N2
     12       4    1  -0.482000  3.455189e+01  4.563510e+01  5.444606e+01  # N2 N2
     13       5    1  -0.482000  1.421295e+01  5.769876e+01  1.151880e+01  # N2 N2
     14       5    2   0.964000  1.386431e+01  5.728943e+01  1.140305e+01  # N2_X N2
     15       5    1  -0.482000  1.351567e+01  5.688010e+01  1.128730e+01  # N2 N2
     16       6    1  -0.482000  1.954156e+01  5.962584e+00  1.121049e+01  # N2 N2
     17       6    2   0.964000  1.908863e+01  6.107589e+00  1.093421e+01  # N2_X N2
     18       6    1  -0.482000  1.863570e+01  6.252594e+00  1.065794e+01  # N2 N2
     19       7    1  -0.482000  3.417123e+01  3.694344e+01  2.756355e+01  # N2 N2
     20       7    2   0.964000  3.377554e+01  3.656779e+01  2.749415e+01  # N2_X N2
     21       7    1  -0.482000  3.337984e+01  3.619215e+01  2.742476e+01  # N2 N2
     22       8    1  -0.482000  5.304053e+01  3.110320e+01  5.659083e+01  # N2 N2
     23       8    2   0.964000  5.338517e+01  3.153183e+01  5.659025e+01  # N2_X N2
     24       8    1  -0.482000  5.372981e+01  3.196046e+01  5.658966e+01  # N2 N2
     25       9    1  -0.482000  5.008243e+01  5.481841e+01  5.150850e+01  # N2 N2
     26       9    2   0.964000  4.955763e+01  5.481940e+01  5.134394e+01  # N2_X N2
     27       9    1  -0.482000  4.903282e+01  5.482038e+01  5.117938e+01  # N2 N2
     28      10    1  -0.482000  5.320597e+00  4.601708e+01  3.440614e+01  # N2 N2
     29      10    2   0.964000  4.957513e+00  4.639888e+01  3.456394e+01  # N2_X N2
     30      10    1  -0.482000  4.594429e+00  4.678067e+01  3.472175e+01  # N2 N2
     31      11    1  -0.482000  5.766030e+01  4.565703e+01  3.284548e+01  # N2 N2
     32      11    2   0.964000  5.756006e+01  4.572578e+01  3.230908e+01  # N2_X N2
     33      11    1  -0.482000  5.745982e+01  4.579454e+01  3.177268e+01  # N2 N2
     34      12    1  -0.482000  4.827040e+01  2.642463e+01  3.293058e+01  # N2 N2
     35      12    2   0.964000  4.857917e+01  2.599691e+01  3.308619e+01  # N2_X N2
     36      12    1  -0.482000  4.888794e+01  2.556919e+01  3.324180e+01  # N2 N2
     37      13    1  -0.482000  3.566982e+01  1.603315e+01  2.108144e+01  # N2 N2
     38      13    2   0.964000  3.549236e+01  1.632713e+01  2.065181e+01  # N2_X N2
     39      13    1  -0.482000  3.531489e+01  1.662111e+01  2.022218e+01  # N2 N2
     40      14    1  -0.482000  1.866509e+01  5.474139e+01  5.587944e+01  # N2 N2
     41      14    2   0.964000  1.878385e+01  5.527520e+01  5.593811e+01  # N2_X N2
     42      14    1  -0.482000  1.890261e+01  5.580901e+01  5.599678e+01  # N2 N2
     43      15    1  -0.482000  4.209829e+01  2.717203e+01  1.106920e+01  # N2 N2
     44      15    2   0.964000  4.241378e+01  2.723693e+01  1.062338e+01  # N2_X N2
     45      15    1  -0.482000  4.272926e+01  2.730183e+01  1.017756e+01  # N2 N2
     46      16    1  -0.482000  2.969460e+01  4.720723e+01  4.575181e+01  # N2 N2
     47      16    2   0.964000  2.954596e+01  4.684353e+01  4.613668e+01  # N2_X N2
     48      16    1  -0.482000  2.939732e+01  4.647984e+01  4.652156e+01  # N2 N2
     49      17    1  -0.482000  2.813872e+01  1.720290e+01  5.242932e+01  # N2 N2
     50      17    2   0.964000  2.774170e+01  1.740916e+01  5.210941e+01  # N2_X N2
     51      17    1  -0.482000  2.734469e+01  1.761541e+01  5.178950e+01  # N2 N2
     52      18    1  -0.482000  2.208905e+01  4.569338e+01  3.009092e+01  # N2 N2
     53      18    2   0.964000  2.164546e+01  4.601852e+01  3.009199e+01  # N2_X N2
     54      18    1  -0.482000  2.120186e+01  4.634367e+01  3.009306e+01  # N2 N2
     55      19    1  -0.482000  2.373947e+01  1.703793e+01  4.384709e+01  # N2 N2
     56      19    2   0.964000  2.403201e+01  1.746817e+01  4.402545e+01  # N2_X N2
     57      19    1  -0.482000  2.432456e+01  1.789841e+01  4.420380e+01  # N2 N2
     58      20    1  -0.482000  3.644782e+01  7.430178e+00  8.552388e+00  # N2 N2
     59      20    2   0.964000  3.698606e+01  7.463626e+00  8.444357e+00  # N2_X N2
     60      20    1  -0.482000  3.752431e+01  7.497074e+00  8.336326e+00  # N2 N2
     61      21    1  -0.482000  8.470207e+00  2.537862e+01  4.478658e+01  # N2 N2
     62      21    2   0.964000  8.082703e+00  2.502383e+01  4.462390e+01  # N2_X N2
     63      21    1  -0.482000  7.695200e+00  2.466904e+01  4.446123e+01  # N2 N2
     64      22    1  -0.482000  5.106797e+01  3.127981e+01  4.126503e+01  # N2 N2
     65      22    2   0.964000  5.109525e+01  3.088518e+01  4.164715e+01  # N2_X N2
     66      22    1  -0.482000  5.112252e+01  3.049053e+01  4.202927e+01  # N2 N2
     67      23    1  -0.482000  2.322338e+01  3.949077e+01  2.208545e+01  # N2 N2
     68      23    2   0.964000  2.269138e+01  3.938258e+01  2.199726e+01  # N2_X N2
     69      23    1  -0.482000  2.215939e+01  3.927439e+01  2.190906e+01  # N2 N2
     70      24    1  -0.482000  3.543569e+01  2.478215e+01  4.989736e+00  # N2 N2
     71      24    2   0.964000  3.525749e+01  2.440884e+01  4.627263e+00  # N2_X N2
     72      24    1  -0.482000  3.507929e+01  2.403554e+01  4.264790e+00  # N2 N2
     73      25    1  -0.482000  2.068695e+01  5.347355e+01  3.869622e+00  # N2 N2
     74      25    2   0.964000  2.051036e+01  5.300453e+01  4.096187e+00  # N2_X N2
     75      25    1  -0.482000  2.033377e+01  5.253550e+01  4.322752e+00  # N2 N2
     76      26    1  -0.482000  5.770679e+01  5.051642e+00  2.040613e+01  # N2 N2
     77      26    2   0.964000  5.724766e+01  5.298080e+00  2.058209e+01  # N2_X N2
     78      26    1  -0.482000  5.678852e+01  5.544518e+00  2.075805e+01  # N2 N2
     79      27    1  -0.482000  4.673628e+01  2.572711e+01  2.594791e+01  # N2 N2
     80      27    2   0.964000  4.692224e+01  2.524992e+01  2.614842e+01  # N2_X N2
     81      27    1  -0.482000  4.710820e+01  2.477272e+01  2.634893e+01  # N2 N2
     82      28    1  -0.482000  2.982592e+01  4.968947e+01  3.820973e+01  # N2 N2
     83      28    2   0.964000  2.972217e+01  4.915366e+01  3.827789e+01  # N2_X N2
     84      28    1  -0.482000  2.961841e+01  4.861785e+01  3.834604e+01  # N2 N2
     85      29    1  -0.482000  9.787922e+00  3.824824e+01  3.367875e+01  # N2 N2
     86      29    2   0.964000  9.306585e+00  3.851427e+01  3.368487e+01  # N2_X N2
     87      29    1  -0.482000  8.825247e+00  3.878031e+01  3.369099e+01  # N2 N2
     88      30    1  -0.482000  4.373973e+01  4.051751e+00  1.157489e+01  # N2 N2
     89      30    2   0.964000  4.369771e+01  3.508658e+00  1.165094e+01  # N2_X N2
     90      30    1  -0.482000  4.365570e+01  2.965564e+00  1.172699e+01  # N2 N2
     91      31    1  -0.482000  3.491416e+01  2.676731e+01  5.378665e+01  # N2 N2
     92      31    2   0.964000  3.539169e+01  2.671528e+01  5.351878e+01  # N2_X N2
     93      31    1  -0.482000  3.586923e+01  2.666325e+01  5.325092e+01  # N2 N2
     94      32    1  -0.482000  2.706098e+01  2.123821e+01  5.031697e+01  # N2 N2
     95      32    2   0.964000  2.738018e+01  2.134290e+01  4.988148e+01  # N2_X N2
     96      32    1  -0.482000  2.769938e+01  2.144759e+01  4.944599e+01  # N2 N2
     97      33    1  -0.482000  1.215932e+01  5.460462e+01  4.279661e+01  # N2 N2
     98      33    2   0.964000  1.223423e+01  5.411984e+01  4.304538e+01  # N2_X N2
     99      33    1  -0.482000  1.230913e+01  5.363507e+01  4.329415e+01  # N2 N2
    100      34    1  -0.482000  8.374397e+00  4.149614e+01  7.483432e+00  # N2 N2
    101      34    2   0.964000  8.826816e+00  4.126355e+01  7.274343e+00  # N2_X N2
    102      34    1  -0.482000  9.279235e+00  4.103096e+01  7.065253e+00  # N2 N2
    103      35    1  -0.482000  1.800514e+01  1.262295e+01  3.244666e+01  # N2 N2
    104      35    2   0.964000  1.780493e+01  1.313398e+01  3.241104e+01  # N2_X N2
    105      35    1  -0.482000  1.760471e+01  1.364500e+01  3.237542e+01  # N2 N2
    106      36    1  -0.482000  3.268312e+01  5.382228e+01  5.768138e+01  # N2 N2
    107      36    2   0.964000  3.305206e+01  5.341670e+01  5.763797e+01  # N2_X N2
    108      36    1  -0.482000  3.342100e+01  5.301111e+01  5.759456e+01  # N2 N2
    109      37    1  -0.482000  7.333491e+00  5.351023e+01  1.963344e+01  # N2 N2
    110      37    2   0.964000  7.871547e+00  5.343052e+01  1.971494e+01  # N2_X N2
    111      37    1  -0.482000  8.409603e+00  5.335080e+01  1.979643e+01  # N2 N2
    112      38    1  -0.482000  4.073977e+00  7.531838e+00  5.675092e+01  # N2 N2
    113      38    2   0.964000  4.088854e+00  8.077007e+00  5.667972e+01  # N2_X N2
    114      38    1  -0.482000  4.103731e+00  8.622177e+00  5.660853e+01  # N2 N2
    115      39    1  -0.482000  2.876211e+01  2.448964e+01  2.925622e+01  # N2 N2
    116      39    2   0.964000  2.838385e+01  2.440767e+01  2.886546e+01  # N2_X N2
    117      39    1  -0.482000  2.800558e+01  2.432570e+01  2.847469e+01  # N2 N2
    118      40    1  -0.482000  5.770836e+01  5.322472e+01  5.472717e+01  # N2 N2
    119      40    2   0.964000  5.754673e+01  5.318303e+01  5.420312e+01  # N2_X N2
    120      40    1  -0.482000  5.738509e+01  5.314133e+01  5.367906e+01  # N2 N2
    121      41    1  -0.482000  2.968972e+01  3.880903e+01  3.807603e+01  # N2 N2
    122      41    2   0.964000  3.011402e+01  3.847771e+01  3.818872e+01  # N2_X N2
    123      41    1  -0.482000  3.053831e+01  3.814639e+01  3.830142e+01  # N2 N2
    124      42    1  -0.482000  3.710634e+01  5.601915e+01  9.036475e+00  # N2 N2
    125      42    2   0.964000  3.693233e+01  5.640868e+01  9.383587e+00  # N2_X N2
    126      42    1  -0.482000  3.675832e+01  5.679821e+01  9.730700e+00  # N2 N2
    127      43    1  -0.482000  1.764337e+01  2.869892e+01  3.228941e+01  # N2 N2
    128      43    2   0.964000  1.736985e+01  2.913609e+01  3.248063e+01  # N2_X N2
    129      43    1  -0.482000  1.709632e+01  2.957326e+01  3.267186e+01  # N2 N2
    130      44    1  -0.482000  3.602610e+00  5.110570e+01  2.097079e+01  # N2 N2
    131      44    2   0.964000  3.252252e+00  5.084426e+01  2.130455e+01  # N2_X N2
    132      44    1  -0.482000  2.901895e+00  5.058282e+01  2.163832e+01  # N2 N2
    133      45    1  -0.482000  4.234768e+01  1.022019e+01  3.980711e+01  # N2 N2
    134      45    2   0.964000  4.210419e+01  1.022736e+01  4.030022e+01  # N2_X N2
    135      45    1  -0.482000  4.186069e+01  1.023452e+01  4.079333e+01  # N2 N2
    136      46    1  -0.482000  2.328361e+01  1.242112e+01  4.309501e+01  # N2 N2
    137      46    2   0.964000  2.375950e+01  1.268093e+01  4.300265e+01  # N2_X N2
    138      46    1  -0.482000  2.423538e+01  1.294074e+01  4.291028e+01  # N2 N2
    139      47    1  -0.482000  2.209477e+01  4.550067e+01  4.138336e+01  # N2 N2
    140      47    2   0.964000  2.259867e+01  4.529288e+01  4.145695e+01  # N2_X N2
    141      47    1  -0.482000  2.310256e+01  4.508509e+01  4.153054e+01  # N2 N2
    142      48    1  -0.482000  2.282837e+01  4.652933e+00  2.866789e+01  # N2 N2
    143      48    2   0.964000  2.231988e+01  4.512458e+00  2.882347e+01  # N2_X N2
    144      48    1  -0.482000  2.181139e+01  4.371984e+00  2.897904e+01  # N2 N2
    145      49    1  -0.482000  1.724676e+01  9.133258e+00  3.396721e+01  # N2 N2
    146      49    2   0.964000  1.679318e+01  9.367497e+00  3.376250e+01  # N2_X N2
    147      49    1  -0.482000  1.633961e+01  9.601736e+00  3.355780e+01  # N2 N2
    148      50    1  -0.482000  2.973823e+01  3.379320e+01  2.922383e+00  # N2 N2
    149      50    2   0.964000  3.009915e+01  3.367565e+01  3.320397e+00  # N2_X N2
    150      50    1  -0.482000  3.046008e+01  3.355810e+01  3.718411e+00  # N2 N2
    151      51    1  -0.482000  2.229077e+01  1.485417e+01  4.650969e+01  # N2 N2
    152      51    2   0.964000  2.247058e+01  1.434029e+01  4.643166e+01  # N2_X N2
    153      51    1  -0.482000  2.265039e+01  1.382640e+01  4.635363e+01  # N2 N2
    154      52    1  -0.482000  2.317850e+01  1.166472e+01  5.600656e+01  # N2 N2
    155      52    2   0.964000  2.355889e+01  1.152415e+01  5.637810e+01  # N2_X N2
    156      52    1  -0.482000  2.393929e+01  1.138358e+01  5.674964e+01  # N2 N2
    157      53    1  -0.482000  3.741530e+01  4.894967e+01  4.755359e+01  # N2 N2
    158      53    2   0.964000  3.691709e+01  4.883663e+01  4.775733e+01  # N2_X N2
    159      53    1  -0.482000  3.641888e+01  4.872360e+01  4.796108e+01  # N2 N2
    160      54    1  -0.482000  9.204529e+00  7.902165e+00  6.292829e+00  # N2 N2
    161      54    2   0.964000  9.010356e+00  8.384308e+00  6.472649e+00  # N2_X N2
    162      54    1  -0.482000  8.816182e+00  8.866451e+00  6.652468e+00  # N2 N2
    163      55    1  -0.482000  4.071237e+01  4.388969e+01  2.062473e+01  # N2 N2
    164      55    2   0.964000  4.125366e+01  4.379467e+01  2.060290e+01  # N2_X N2
    165      55    1  -0.482000  4.179495e+01  4.369966e+01  2.058108e+01  # N2 N2
    166      56    1  -0.482000  1.905306e+01  3.115945e+01  5.359745e+01  # N2 N2
    167      56    2   0.964000  1.935029e+01  3.074075e+01  5.379453e+01  # N2_X N2
    168      56    1  -0.482000  1.964752e+01  3.032205e+01  5.399161e+01  # N2 N2
    169      57    1  -0.482000  1.252616e+01  5.203915e+01  4.521674e+00  # N2 N2
    170      57    2   0.964000  1.276837e+01  5.172978e+01  4.906549e+00  # N2_X N2
    171      57    1  -0.482000  1.301057e+01  5.142041e+01  5.291424e+00  # N2 N2
    172      58    1  -0.482000  3.004325e+01  5.236081e+01  2.812187e+01  # N2 N2
    173      58    2   0.964000  2.976229e+01  5.258382e+01  2.853880e+01  # N2_X N2
    174      58    1  -0.482000  2.948134e+01  5.280683e+01  2.895573e+01  # N2 N2
    175      59    1  -0.482000  3.319630e+00  1.873600e+01  4.095089e+01  # N2 N2
    176      59    2   0.964000  3.445140e+00  1.873222e+01  4.148636e+01  # N2_X N2
    177      59    1  -0.482000  3.570650e+00  1.872844e+01  4.202184e+01  # N2 N2
    178      60    1  -0.482000  1.345577e+01  5.232956e+01  4.629360e+01  # N2 N2
    179      60    2   0.964000  1.394000e+01  5.244965e+01  4.652511e+01  # N2_X N2
    180      60    1  -0.482000  1.442423e+01  5.256974e+01  4.675662e+01  # N2 N2
    181      61    1  -0.482000  2.060092e+01  3.452876e+01  4.625659e+01  # N2 N2
    182      61    2   0.964000  2.047917e+01  3.506372e+01  4.629517e+01  # N2_X N2
    183      61    1  -0.482000  2.035742e+01  3.559869e+01  4.633375e+01  # N2 N2
    184      62    1  -0.482000  2.570499e+00  1.069360e+01  2.740452e+01  # N2 N2
    185      62    2   0.964000  2.652416e+00  1.117192e+01  2.714568e+01  # N2_X N2
    186      62    1  -0.482000  2.734334e+00  1.165024e+01  2.688683e+01  # N2 N2
    187      63    1  -0.482000  3.505493e+01  5.434858e+01  3.403183e+01  # N2 N2
    188      63    2   0.964000  3.532887e+01  5.398026e+01  3.433482e+01  # N2_X N2
    189      63    1  -0.482000  3.560281e+01  5.361195e+01  3.463781e+01  # N2 N2
    190      64    1  -0.482000  4.496303e+01  1.629602e+01  4.728166e+01  # N2 N2
    191      64    2   0.964000  4.496938e+01  1.574863e+01  4.722851e+01  # N2_X N2
    192      64    1  -0.482000  4.497574e+01  1.520124e+01  4.717536e+01  # N2 N2
    193      65    1  -0.482000  6.710826e+00  3.081532e+01  1.981950e+01  # N2 N2
    194      65    2   0.964000  7.234311e+00  3.093039e+01  1.969612e+01  # N2_X N2
    195      65    1  -0.482000  7.757796e+00  3.104545e+01  1.957273e+01  # N2 N2
    196      66    1  -0.482000  3.776524e+00  3.685978e+01  5.323754e+01  # N2 N2
    197      66    2   0.964000  3.324943e+00  3.684192e+01  5.355100e+01  # N2_X N2
    198      66    1  -0.482000  2.873361e+00  3.682405e+01  5.386445e+01  # N2 N2
    199      67    1  -0.482000  1.989964e+01  5.655272e+01  4.838800e+01  # N2 N2
    200      67    2   0.964000  1.939695e+01  5.677126e+01  4.843319e+01  # N2_X N2
    201      67    1  -0.482000  1.889426e+01  5.698980e+01  4.847837e+01  # N2 N2
    202      68    1  -0.482000  1.759986e+01  5.560246e+01  3.831712e+01  # N2 N2
    203      68    2   0.964000  1.796580e+01  5.519208e+01  3.832992e+01  # N2_X N2
    204      68    1  -0.482000  1.833176e+01  5.478169e+01  3.834272e+01  # N2 N2
    205      69    1  -0.482000  6.485681e+00  2.748924e+01  1.734113e+01  # N2 N2
    206      69    2   0.964000  6.206640e+00  2.796265e+01  1.731845e+01  # N2_X N2
    207      69    1  -0.482000  5.927599e+00  2.843606e+01  1.729576e+01  # N2 N2
    208      70    1  -0.482000  4.054106e+01  4.686795e+01  3.221827e+01  # N2 N2
    209      70    2   0.964000  4.040361e+01  4.712088e+01  3.174962e+01  # N2_X N2
    210      70    1  -0.482000  4.026615e+01  4.737380e+01  3.128097e+01  # N2 N2
    211      71    1  -0.482000  1.435773e+01  9.203629e+00  2.882154e+00  # N2 N2
    212      71    2   0.964000  1.477865e+01  8.850649e+00  2.855147e+00  # N2_X N2
    213      71    1  -0.482000  1.519957e+01  8.497670e+00  2.828140e+00  # N2 N2
    214      72    1  -0.482000  2.126739e+01  3.732463e+01  5.736077e+01  # N2 N2
    215      72    2   0.964000  2.082143e+01  3.709880e+01  5.713138e+01  # N2_X N2
    216      72    1  -0.482000  2.037548e+01  3.687297e+01  5.690198e+01  # N2 N2
    217      73    1  -0.482000  2.364353e+01  3.878978e+01  1.811347e+01  # N2 N2
    218      73    2   0.964000  2.392770e+01  3.923487e+01  1.795971e+01  # N2_X N2
    219      73    1  -0.482000  2.421187e+01  3.967996e+01  1.780595e+01  # N2 N2
    220      74    1  -0.482000  2.992473e+01  3.014614e+01  2.462262e+01  # N2 N2
    221      74    2   0.964000  2.998348e+01  3.053669e+01  2.500539e+01  # N2_X N2
    222      74    1  -0.482000  3.004223e+01  3.092725e+01  2.538816e+01  # N2 N2
    223      75    1  -0.482000  8.745451e+00  2.023954e+01  2.336128e+01  # N2 N2
    224      75    2   0.964000  8.234261e+00  2.037667e+01  2.351088e+01  # N2_X N2
    225      75    1  -0.482000  7.723070e+00  2.051380e+01  2.366048e+01  # N2 N2
    226      76    1  -0.482000  2.317548e+01  2.968931e+01  3.948373e+01  # N2 N2
    227      76    2   0.964000  2.328484e+01  2.915825e+01  3.939147e+01  # N2_X N2
    228      76    1  -0.482000  2.339419e+01  2.862718e+01  3.929921e+01  # N2 N2
    229      77    1  -0.482000  2.291414e+01  3.655088e+01  3.644732e+01  # N2 N2
    230      77    2   0.964000  2.260885e+01  3.614795e+01  3.666399e+01  # N2_X N2
    231      77    1  -0.482000  2.230356e+01  3.574502e+01  3.688065e+01  # N2 N2
    232      78    1  -0.482000  5.450432e+01  5.384303e+01  5.183113e+01  # N2 N2
    233      78    2   0.964000  5.492688e+01  5.419168e+01  5.187997e+01  # N2_X N2
    234      78    1  -0.482000  5.534944e+01  5.454034e+01  5.192882e+01  # N2 N2
    235      79    1  -0.482000  4.979208e+01  6.240789e+00  3.123906e+01  # N2 N2
    236      79    2   0.964000  5.009975e+01  5.805741e+00  3.110276e+01  # N2_X N2
    237      79    1  -0.482000  5.040741e+01  5.370694e+00  3.096647e+01  # N2 N2
    238      80    1  -0.482000  3.870636e+01  2.245325e+01  3.997854e+01  # N2 N2
    239      80    2   0.964000  3.855164e+01  2.284200e+01  3.962155e+01  # N2_X N2
    240      80    1  -0.482000  3.839691e+01  2.323074e+01  3.926457e+01  # N2 N2
    241      81    1  -0.482000  4.490052e+01  5.464602e+01  3.061118e+01  # N2 N2
    242      81    2   0.964000  4.457979e+01  5.443042e+01  3.100253e+01  # N2_X N2
    243      81    1  -0.482000  4.425907e+01  5.421482e+01  3.139387e+01  # N2 N2
    244      82    1  -0.482000  4.986598e+01  3.032326e+01  2.309023e+01  # N2 N2
    245      82    2   0.964000  5.029108e+01  3.006515e+01  2.332511e+01  # N2_X N2
    246      82    1  -0.482000  5.071618e+01  2.980704e+01  2.355999e+01  # N2 N2
    247      83    1  -0.482000  1.828433e+01  3.448208e+01  3.670121e+01  # N2 N2
    248      83    2   0.964000  1.873582e+01  3.479558e+01  3.668192e+01  # N2_X N2
    249      83    1  -0.482000  1.918732e+01  3.510908e+01  3.666264e+01  # N2 N2
    250      84    1  -0.482000  2.313062e+01  1.888485e+01  4.039503e+01  # N2 N2
    251      84    2   0.964000  2.258066e+01  1.889131e+01  4.039835e+01  # N2_X N2
    252      84    1  -0.482000  2.203071e+01  1.889777e+01  4.040166e+01  # N2 N2
    253      85    1  -0.482000  4.396615e+01  4.376024e+01  5.460663e+01  # N2 N2
    254      85    2   0.964000  4.384360e+01  4.403535e+01  5.506684e+01  # N2_X N2
    255      85    1  -0.482000  4.372106e+01  4.431046e+01  5.552705e+01  # N2 N2
    256      86    1  -0.482000  3.133295e+01  1.676079e+01  1.538191e+01  # N2 N2
    257      86    2   0.964000  3.115661e+01  1.670473e+01  1.486397e+01  # N2_X N2
    258      86    1  -0.482000  3.098028e+01  1.664866e+01  1.434603e+01  # N2 N2
    259      87    1  -0.482000  4.026306e+01  3.145094e+01  3.580865e+01  # N2 N2
    260      87    2   0.964000  4.021926e+01  3.149372e+01  3.526207e+01  # N2_X N2
    261      87    1  -0.482000  4.017547e+01  3.153649e+01  3.471549e+01  # N2 N2
    262      88    1  -0.482000  2.768120e+01  4.369245e+01  5.198477e+01  # N2 N2
    263      88    2   0.964000  2.819875e+01  4.386313e+01  5.205903e+01  # N2_X N2
    264      88    1  -0.482000  2.871629e+01  4.403380e+01  5.213329e+01  # N2 N2
    265      89    1  -0.482000  3.188512e+00  1.927799e+01  2.633311e+01  # N2 N2
    266      89    2   0.964000  3.200707e+00  1.902957e+01  2.682366e+01  # N2_X N2
    267      89    1  -0.482000  3.212903e+00  1.878116e+01  2.731422e+01  # N2 N2
    268      90    1  -0.482000  4.712785e+01  2.913191e+01  9.306410e+00  # N2 N2
    269      90    2   0.964000  4.678201e+01  2.907707e+01  8.882275e+00  # N2_X N2
    270      90    1  -0.482000  4.643617e+01  2.902222e+01  8.458141e+00  # N2 N2
    271      91    1  -0.482000  3.190184e+01  1.019762e+01  1.880292e+00  # N2 N2
    272      91    2   0.964000  3.155667e+01  9.773158e+00  1.823792e+00  # N2_X N2
    273      91    1  -0.482000  3.121150e+01  9.348697e+00  1.767293e+00  # N2 N2
    274      92    1  -0.482000  1.053960e+01  1.237138e+01  1.420173e+01  # N2 N2
    275      92    2   0.964000  1.064174e+01  1.212002e+01  1.372331e+01  # N2_X N2
    276      92    1  -0.482000  1.074389e+01  1.186865e+01  1.324490e+01  # N2 N2
    277      93    1  -0.482000  1.867110e+01  2.197066e+01  3.093433e+00  # N2 N2
    278      93    2   0.964000  1.865775e+01  2.147076e+01  3.322406e+00  # N2_X N2
    279      93    1  -0.482000  1.864441e+01  2.097087e+01  3.551379e+00  # N2 N2
    280      94    1  -0.482000  4.714154e+01  5.516272e+01  4.530745e+01  # N2 N2
    281      94    2   0.964000  4.660037e+01  5.507708e+01  4.535545e+01  # N2_X N2
    282      94    1  -0.482000  4.605921e+01  5.499143e+01  4.540346e+01  # N2 N2
    283      95    1  -0.482000  5.865604e+00  1.230438e+01  9.168047e+00  # N2 N2
    284      95    2   0.964000  5.650976e+00  1.278351e+01  9.331980e+00  # N2_X N2
    285      95    1  -0.482000  5.436349e+00  1.326263e+01  9.495912e+00  # N2 N2
    286      96    1  -0.482000  4.764908e+01  9.476922e+00  5.480946e+01  # N2 N2
    287      96    2   0.964000  4.726519e+01  9.115184e+00  5.465366e+01  # N2_X N2
    288      96    1  -0.482000  4.688130e+01  8.753446e+00  5.449786e+01  # N2 N2
    289      97    1  -0.482000  4.931655e+01  2.143469e+01  1.956862e+01  # N2 N2
    290      97    2   0.964000  4.970229e+01  2.134057e+01  1.918803e+01  # N2_X N2
    291      97    1  -0.482000  5.008803e+01  2.124644e+01  1.880745e+01  # N2 N2
    292      98    1  -0.482000  2.848072e+01  5.220334e+01  5.365580e+01  # N2 N2
    293      98    2   0.964000  2.899619e+01  5.239446e+01  5.363942e+01  # N2_X N2
    294      98    1  -0.482000  2.951166e+01  5.258558e+01  5.362304e+01  # N2 N2
    295      99    1  -0.482000  1.632257e+00  7.778290e+00  3.570005e+01  # N2 N2
    296      99    2   0.964000  2.155599e+00  7.713724e+00  3.585639e+01  # N2_X N2
    297      99    1  -0.482000  2.678942e+00  7.649158e+00  3.601274e+01  # N2 N2
    298     100    1  -0.482000  1.133616e+01  5.053471e+01  3.352689e+01  # N2 N2
    299     100    2   0.964000  1.096821e+01  5.015993e+01  3.336363e+01  # N2_X N2
    300     100    1  -0.482000  1.060025e+01  4.978516e+01  3.320037e+01  # N2 N2
    301     101    1  -0.482000  1.336260e+01  3.211967e+01  2.534163e+01  # N2 N2
    302     101    2   0.964000  1.356186e+01  3.236057e+01  2.488912e+01  # N2_X N2
    303     101    1  -0.482000  1.376111e+01  3.260146e+01  2.443661e+01  # N2 N2
    304     102    1  -0.482000  3.738381e+01  1.532372e+01  2.490908e+01  # N2 N2
    305     102    2   0.964000  3.766174e+01  1.490432e+01  2.468691e+01  # N2_X N2
    306     102    1  -0.482000  3.793967e+01  1.448492e+01  2.446474e+01  # N2 N2
    307     103    1  -0.482000  2.824085e+01  5.583635e+01  5.669598e+01  # N2 N2
    308     103    2   0.964000  2.871326e+01  5.561981e+01  5.687611e+01  # N2_X N2
    309     103    1  -0.482000  2.918566e+01  5.540328e+01  5.705623e+01  # N2 N2
    310     104    1  -0.482000  5.030233e+01  1.995000e+01  2.203520e+01  # N2 N2
    311     104    2   0.964000  4.985186e+01  2.018384e+01  2.224709e+01  # N2_X N2
    312     104    1  -0.482000  4.940140e+01  2.041769e+01  2.245899e+01  # N2 N2
    313     105    1  -0.482000  4.946362e+01  9.562337e+00  1.500594e+01  # N2 N2
    314     105    2   0.964000  4.952310e+01  9.036671e+00  1.515640e+01  # N2_X N2
    315     105    1  -0.482000  4.958257e+01  8.511004e+00  1.530685e+01  # N2 N2
    316     106    1  -0.482000  1.390433e+01  3.243055e+01  1.933148e+01  # N2 N2
    317     106    2   0.964000  1.428260e+01  3.212783e+01  1.907115e+01  # N2_X N2
    318     106    1  -0.482000  1.466087e+01  3.182511e+01  1.881082e+01  # N2 N2
    319     107    1  -0.482000  5.595520e+01  1.537897e+01  3.307040e+01  # N2 N2
    320     107    2   0.964000  5.626473e+01  1.537843e+01  3.352504e+01  # N2_X N2
    321     107    1  -0.482000  5.657426e+01  1.537789e+01  3.397967e+01  # N2 N2
    322     108    1  -0.482000  8.057110e+00  4.184095e+01  3.263423e+00  # N2 N2
    323     108    2   0.964000  8.023082e+00  4.172423e+01  2.727030e+00  # N2_X N2
    324     108    1  -0.482000  7.989055e+00  4.160750e+01  2.190637e+00  # N2 N2
    325     109    1  -0.482000  3.685123e+01  2.565749e+01  4.031735e+01  # N2 N2
    326     109    2   0.964000  3.685011e+01  2.617139e+01  4.012138e+01  # N2_X N2
    327     109    1  -0.482000  3.684900e+01  2.668529e+01  3.992541e+01  # N2 N2
    328     110    1  -0.482000  3.144421e+01  4.591640e+01  4.302674e+01  # N2 N2
    329     110    2   0.964000  3.190069e+01  4.566686e+01  4.284824e+01  # N2_X N2
    330     110    1  -0.482000  3.235716e+01  4.541732e+01  4.266975e+01  # N2 N2
    331     111    1  -0.482000  1.922322e+01  4.105954e+01  2.347699e+01  # N2 N2
    332     111    2   0.964000  1.957199e+01  4.140898e+01  2.371937e+01  # N2_X N2
    333     111    1  -0.482000  1.992076e+01  4.175842e+01  2.396176e+01  # N2 N2
    334     112    1  -0.482000  1.197558e+01  1.799153e+01  4.918697e+01  # N2 N2
    335     112    2   0.964000  1.145212e+01  1.784352e+01  4.910585e+01  # N2_X N2
    336     112    1  -0.482000  1.092866e+01  1.769551e+01  4.902474e+01  # N2 N2
    337     113    1  -0.482000  4.337024e+00  4.036134e+01  1.647231e+01  # N2 N2
    338     113    2   0.964000  4.635022e+00  4.081831e+01  1.654215e+01  # N2_X N2
    339     113    1  -0.482000  4.933020e+00  4.127528e+01  1.661198e+01  # N2 N2
    340     114    1  -0.482000  4.351208e+01  3.752994e+01  1.745180e+01  # N2 N2
    341     114    2   0.964000  4.358466e+01  3.698475e+01  1.745029e+01  # N2_X N2
    342     114    1  -0.482000  4.365724e+01  3.643956e+01  1.744878e+01  # N2 N2
    343     115    1  -0.482000  4.152699e+01  4.030502e+01  4.502405e+01  # N2 N2
    344     115    2   0.964000  4.177678e+01  4.007323e+01  4.459233e+01  # N2_X N2
    345     115    1  -0.482000  4.202656e+01  3.984143e+01  4.416061e+01  # N2 N2
    346     116    1  -0.482000  1.827097e+01  2.880297e+01  3.642798e+01  # N2 N2
    347     116    2   0.964000  1.781382e+01  2.905090e+01  3.624895e+01  # N2_X N2
    348     116    1  -0.482000  1.735667e+01  2.929882e+01  3.606991e+01  # N2 N2
    349     117    1  -0.482000  4.786439e+01  1.052733e+01  4.585289e+01  # N2 N2
    350     117    2   0.964000  4.731456e+01  1.053176e+01  4.584024e+01  # N2_X N2
    351     117    1  -0.482000  4.676472e+01  1.053619e+01  4.582758e+01  # N2 N2
    352     118    1  -0.482000  5.146514e+01  4.556680e+01  8.238551e+00  # N2 N2
    353     118    2   0.964000  5.110936e+01  4.514740e+01  8.234087e+00  # N2_X N2
    354     118    1  -0.482000  5.075357e+01  4.472801e+01  8.229623e+00  # N2 N2
    355     119    1  -0.482000  3.968374e+01  4.621609e+01  3.816722e+01  # N2 N2
    356     119    2   0.964000  4.014891e+01  4.612107e+01  3.844487e+01  # N2_X N2
    357     119    1  -0.482000  4.061408e+01  4.602605e+01  3.872252e+01  # N2 N2
    358     120    1  -0.482000  7.217035e+00  6.939324e+00  1.899546e+01  # N2 N2
    359     120    2   0.964000  6.792222e+00  6.611829e+00  1.887388e+01  # N2_X N2
    360     120    1  -0.482000  6.367409e+00  6.284333e+00  1.875231e+01  # N2 N2
    361     121    1  -0.482000  5.459876e+01  5.703283e+01  2.664281e+01  # N2 N2
    362     121    2   0.964000  5.486486e+01  5.664417e+01  2.692677e+01  # N2_X N2
    363     121    1  -0.482000  5.513097e+01  5.625551e+01  2.721072e+01  # N2 N2
    364     122    1  -0.482000  4.652965e+01  5.482861e+01  1.170482e+01  # N2 N2
    365     122    2   0.964000  4.685270e+01  5.439449e+01  1.180320e+01  # N2_X N2
    366     122    1  -0.482000  4.717575e+01  5.396037e+01  1.190159e+01  # N2 N2
    367     123    1  -0.482000  3.635477e+01  4.614599e+01  4.038244e+01  # N2 N2
    368     123    2   0.964000  3.584287e+01  4.600216e+01  4.052306e+01  # N2_X N2
    369     123    1  -0.482000  3.533098e+01  4.585833e+01  4.066368e+01  # N2 N2
    370     124    1  -0.482000  1.778428e+01  5.730776e+00  2.529795e+01  # N2 N2
    371     124    2   0.964000  1.832317e+01  5.624134e+00  2.527087e+01  # N2_X N2
    372     124    1  -0.482000  1.886205e+01  5.517492e+00  2.524378e+01  # N2 N2
    373     125    1  -0.482000  2.054134e+01  5.751114e+01  3.609222e+01  # N2 N2
    374     125    2   0.964000  2.037230e+01  5.708708e+01  3.639897e+01  # N2_X N2
    375     125    1  -0.482000  2.020326e+01  5.666302e+01  3.670573e+01  # N2 N2
    376     126    1  -0.482000  3.246142e+01  2.553406e+01  1.363705e+01  # N2 N2
    377     126    2   0.964000  3.268184e+01  2.574617e+01  1.317996e+01  # N2_X N2
    378     126    1  -0.482000  3.290225e+01  2.595827e+01  1.272287e+01  # N2 N2
    379     127    1  -0.482000  3.316714e+01  1.830217e+01  5.562295e+01  # N2 N2
    380     127    2   0.964000  3.283276e+01  1.786779e+01  5.566776e+01  # N2_X N2
    381     127    1  -0.482000  3.249838e+01  1.743342e+01  5.571256e+01  # N2 N2
    382     128    1  -0.482000  3.148073e+01  3.962101e+01  3.528025e+01  # N2 N2
    383     128    2   0.964000  3.202238e+01  3.969079e+01  3.534535e+01  # N2_X N2
    384     128    1  -0.482000  3.256404e+01  3.976057e+01  3.541045e+01  # N2 N2
    385     129    1  -0.482000  5.770053e+01  1.305709e+01  4.981507e+01  # N2 N2
    386     129    2   0.964000  5.749939e+01  1.254527e+01  4.980576e+01  # N2_X N2
    387     129    1  -0.482000  5.729825e+01  1.203346e+01  4.979645e+01  # N2 N2
    388     130    1  -0.482000  4.428501e+01  3.147466e+01  1.598755e+01  # N2 N2
    389     130    2   0.964000  4.473934e+01  3.175678e+01  1.585913e+01  # N2_X N2
    390     130    1  -0.482000  4.519368e+01  3.203889e+01  1.573071e+01  # N2 N2
    391     131    1  -0.482000  5.229268e+01  1.458776e+01  4.793587e+01  # N2 N2
    392     131    2   0.964000  5.186996e+01  1.427086e+01  4.808879e+01  # N2_X N2
    393     131    1  -0.482000  5.144724e+01  1.395396e+01  4.824170e+01  # N2 N2
    394     132    1  -0.482000  4.808269e+01  3.304423e+01  4.330150e+01  # N2 N2
    395     132    2   0.964000  4.835913e+01  3.284076e+01  4.373125e+01  # N2_X N2
    396     132    1  -0.482000  4.863556e+01  3.263730e+01  4.416101e+01  # N2 N2
    397     133    1  -0.482000  2.559584e+01  3.722319e+01  3.665992e+01  # N2 N2
    398     133    2   0.964000  2.606603e+01  3.734400e+01  3.640141e+01  # N2_X N2
    399     133    1  -0.482000  2.653622e+01  3.746481e+01  3.614290e+01  # N2 N2
    400     134    1  -0.482000  5.209474e+01  4.606546e+01  4.935939e+01  # N2 N2
    401     134    2   0.964000  5.234294e+01  4.638311e+01  4.898523e+01  # N2_X N2
    402     134    1  -0.482000  5.259114e+01  4.670076e+01  4.861107e+01  # N2 N2
    403     135    1  -0.482000  3.158154e+01  3.891324e+00  4.408676e+01  # N2 N2
    404     135    2   0.964000  3.131608e+01  3.433294e+00  4.423589e+01  # N2_X N2
    405     135    1  -0.482000  3.105062e+01  2.975263e+00  4.438501e+01  # N2 N2
    406     136    1  -0.482000  4.862191e+01  1.789577e+01  2.500017e+01  # N2 N2
    407     136    2   0.964000  4.842292e+01  1.821592e+01  2.459966e+01  # N2_X N2
    408     136    1  -0.482000  4.822392e+01  1.853607e+01  2.419916e+01  # N2 N2
    409     137    1  -0.482000  4.226024e+01  4.519065e+01  1.544897e+01  # N2 N2
    410     137    2   0.964000  4.210312e+01  4.472299e+01  1.569210e+01  # N2_X N2
    411     137    1  -0.482000  4.194600e+01  4.425534e+01  1.593523e+01  # N2 N2
    412     138    1  -0.482000  1.669574e+01  5.362595e+01  2.824498e+01  # N2 N2
    413     138    2   0.964000  1.704191e+01  5.380576e+01  2.863271e+01  # N2_X N2
    414     138    1  -0.482000  1.738807e+01  5.398558e+01  2.902044e+01  # N2 N2
    415     139    1  -0.482000  4.917553e+01  4.255659e+01  2.032385e+00  # N2 N2
    416     139    2   0.964000  4.932385e+01  4.209748e+01  1.768355e+00  # N2_X N2
    417     139    1  -0.482000  4.947217e+01  4.163836e+01  1.504324e+00  # N2 N2
    418     140    1  -0.482000  5.249631e+01  4.128992e+01  5.344139e+01  # N2 N2
    419     140    2   0.964000  5.254704e+01  4.182503e+01  5.355794e+01  # N2_X N2
    420     140    1  -0.482000  5.259776e+01  4.236014e+01  5.367448e+01  # N2 N2
    421     141    1  -0.482000  2.171054e+01  2.287424e+01  2.268394e+01  # N2 N2
    422     141    2   0.964000  2.204066e+01  2.247291e+01  2.286407e+01  # N2_X N2
    423     141    1  -0.482000  2.237078e+01  2.207157e+01  2.304420e+01  # N2 N2
    424     142    1  -0.482000  2.363842e+01  1.183955e+01  4.859705e+01  # N2 N2
    425     142    2   0.964000  2.415793e+01  1.200690e+01  4.852921e+01  # N2_X N2
    426     142    1  -0.482000  2.467744e+01  1.217426e+01  4.846137e+01  # N2 N2
    427     143    1  -0.482000  2.922326e+01  3.345256e+01  1.816163e+01  # N2 N2
    428     143    2   0.964000  2.918748e+01  3.391517e+01  1.786630e+01  # N2_X N2
    429     143    1  -0.482000  2.915170e+01  3.437777e+01  1.757098e+01  # N2 N2
    430     144    1  -0.482000  3.390762e+01  5.632041e+01  5.090220e+01  # N2 N2
    431     144    2   0.964000  3.438227e+01  5.641796e+01  5.064203e+01  # N2_X N2
    432     144    1  -0.482000  3.485692e+01  5.651551e+01  5.038186e+01  # N2 N2
    433     145    1  -0.482000  5.338950e+01  4.279987e+01  3.070455e+01  # N2 N2
    434     145    2   0.964000  5.328006e+01  4.226118e+01  3.068628e+01  # N2_X N2
    435     145    1  -0.482000  5.317061e+01  4.172249e+01  3.066802e+01  # N2 N2
    436     146    1  -0.482000  2.882680e+01  1.795110e+01  3.475261e+01  # N2 N2
    437     146    2   0.964000  2.917326e+01  1.752604e+01  3.471029e+01  # N2_X N2
    438     146    1  -0.482000  2.951972e+01  1.710098e+01  3.466797e+01  # N2 N2
    439     147    1  -0.482000  2.647109e+01  1.849073e+01  2.948997e+01  # N2 N2
    440     147    2   0.964000  2.619617e+01  1.819649e+01  2.986459e+01  # N2_X N2
    441     147    1  -0.482000  2.592125e+01  1.790225e+01  3.023922e+01  # N2 N2
    442     148    1  -0.482000  2.492403e+01  4.780185e+01  7.046660e+00  # N2 N2
    443     148    2   0.964000  2.489632e+01  4.816240e+01  6.632246e+00  # N2_X N2
    444     148    1  -0.482000  2.486860e+01  4.852294e+01  6.217832e+00  # N2 N2
    445     149    1  -0.482000  3.697841e+01  2.931915e+01  4.087277e+01  # N2 N2
    446     149    2   0.964000  3.661954e+01  2.972751e+01  4.078934e+01  # N2_X N2
    447     149    1  -0.482000  3.626068e+01  3.013587e+01  4.070591e+01  # N2 N2
    448     150    1  -0.482000  4.525977e+01  2.436845e+01  5.410611e+01  # N2 N2
    449     150    2   0.964000  4.572554e+01  2.410664e+01  5.423660e+01  # N2_X N2
    450     150    1  -0.482000  4.619130e+01  2.384484e+01  5.436709e+01  # N2 N2
    451     151    1  -0.482000  4.852238e+01  1.807427e+01  1.739995e+01  # N2 N2
    452     151    2   0.964000  4.803390e+01  1.825714e+01  1.757442e+01  # N2_X N2
    453     151    1  -0.482000  4.754541e+01  1.844001e+01  1.774889e+01  # N2 N2
    454     152    1  -0.482000  5.534284e+01  2.962972e+01  4.432290e+00  # N2 N2
    455     152    2   0.964000  5.480248e+01  2.968283e+01  4.344619e+00  # N2_X N2
    456     152    1  -0.482000  5.426211e+01  2.973595e+01  4.256948e+00  # N2 N2
    457     153    1  -0.482000  3.757435e+01  5.580455e+01  4.168095e+01  # N2 N2
    458     153    2   0.964000  3.800551e+01  5.572223e+01  4.134955e+01  # N2_X N2
    459     153    1  -0.482000  3.843667e+01  5.563990e+01  4.101815e+01  # N2 N2
    460     154    1  -0.482000  2.244025e+01  1.952078e+01  5.336335e+01  # N2 N2
    461     154    2   0.964000  2.221479e+01  1.992362e+01  5.366232e+01  # N2_X N2
    462     154    1  -0.482000  2.198934e+01  2.032647e+01  5.396130e+01  # N2 N2
    463     155    1  -0.482000  7.249926e+00  4.942151e+01  3.410323e+01  # N2 N2
    464     155    2   0.964000  6.727487e+00  4.938938e+01  3.427213e+01  # N2_X N2
    465     155    1  -0.482000  6.205049e+00  4.935725e+01  3.444103e+01  # N2 N2
    466     156    1  -0.482000  2.990259e+01  5.368717e+01  1.120038e+01  # N2 N2
    467     156    2   0.964000  3.033525e+01  5.358488e+01  1.152417e+01  # N2_X N2
    468     156    1  -0.482000  3.076791e+01  5.348259e+01  1.184796e+01  # N2 N2
    469     157    1  -0.482000  2.328750e+01  4.228710e+01  5.338700e+01  # N2 N2
    470     157    2   0.964000  2.282948e+01  4.222185e+01  5.368443e+01  # N2_X N2
    471     157    1  -0.482000  2.237147e+01  4.215660e+01  5.398186e+01  # N2 N2
    472     158    1  -0.482000  3.365091e+01  3.961704e+01  5.564566e+01  # N2 N2
    473     158    2   0.964000  3.388188e+01  3.911794e+01  5.563813e+01  # N2_X N2
    474     158    1  -0.482000  3.411284e+01  3.861884e+01  5.563060e+01  # N2 N2
    475     159    1  -0.482000  2.071060e+01  6.907351e+00  4.365931e+01  # N2 N2
    476     159    2   0.964000  2.125367e+01  6.820681e+00  4.366731e+01  # N2_X N2
    477     159    1  -0.482000  2.179674e+01  6.734011e+00  4.367530e+01  # N2 N2
    478     160    1  -0.482000  5.407007e+01  4.327297e+01  5.617604e+01  # N2 N2
    479     160    2   0.964000  5.457004e+01  4.308760e+01  5.604124e+01  # N2_X N2
    480     160    1  -0.482000  5.507001e+01  4.290223e+01  5.590644e+01  # N2 N2
    481     161    1  -0.482000  3.395637e+01  2.952437e+01  5.703717e+01  # N2 N2
    482     161    2   0.964000  3.447954e+01  2.956981e+01  5.687366e+01  # N2_X N2
    483     161    1  -0.482000  3.500270e+01  2.961526e+01  5.671015e+01  # N2 N2
    484     162    1  -0.482000  5.157644e+01  3.585638e+00  5.573463e+01  # N2 N2
    485     162    2   0.964000  5.110871e+01  3.329747e+00  5.586968e+01  # N2_X N2
    486     162    1  -0.482000  5.064097e+01  3.073855e+00  5.600473e+01  # N2 N2
    487     163    1  -0.482000  9.960602e+00  2.612204e+01  4.824592e+01  # N2 N2
    488     163    2   0.964000  9.671490e+00  2.649271e+01  4.796041e+01  # N2_X N2
    489     163    1  -0.482000  9.382377e+00  2.686338e+01  4.767489e+01  # N2 N2
    490     164    1  -0.482000  2.891959e+01  5.250309e+01  4.860202e+01  # N2 N2
    491     164    2   0.964000  2.904282e+01  5.201423e+01  4.838217e+01  # N2_X N2
    492     164    1  -0.482000  2.916606e+01  5.152538e+01  4.816233e+01  # N2 N2
    493     165    1  -0.482000  2.105350e+01  4.569766e+01  2.167814e+01  # N2 N2
    494     165    2   0.964000  2.056100e+01  4.545675e+01  2.172188e+01  # N2_X N2
    495     165    1  -0.482000  2.006851e+01  4.521584e+01  2.176562e+01  # N2 N2
    496     166    1  -0.482000  1.882914e+01  3.294710e+01  1.010231e+01  # N2 N2
    497     166    2   0.964000  1.877425e+01  3.239991e+01  1.009404e+01  # N2_X N2
    498     166    1  -0.482000  1.871936e+01  3.185272e+01  1.008577e+01  # N2 N2
    499     167    1  -0.482000  2.741066e+01  4.966479e+01  2.363311e+01  # N2 N2
    500     167    2   0.964000  2.795377e+01  4.972310e+01  2.369743e+01  # N2_X N2
    501     167    1  -0.482000  2.849687e+01  4.978141e+01  2.376175e+01  # N2 N2
    502     168    1  -0.482000  4.262279e+01  1.824149e+01  1.660732e+01  # N2 N2
    503     168    2   0.964000  4.294739e+01  1.868313e+01  1.665307e+01  # N2_X N2
    504     168    1  -0.482000  4.327199e+01  1.912476e+01  1.669881e+01  # N2 N2
    505     169    1  -0.482000  4.377247e+01  3.705475e+01  4.553130e+01  # N2 N2
    506     169    2   0.964000  4.333992e+01  3.674850e+01  4.538431e+01  # N2_X N2
    507     169    1  -0.482000  4.290736e+01  3.644225e+01  4.523732e+01  # N2 N2
    508     170    1  -0.482000  1.055807e+01  3.526102e+01  1.502476e+00  # N2 N2
    509     170    2   0.964000  1.044885e+01  3.482544e+01  1.820039e+00  # N2_X N2
    510     170    1  -0.482000  1.033962e+01  3.438987e+01  2.137602e+00  # N2 N2
    511     171    1  -0.482000  3.953326e+01  1.458927e+01  3.160689e+01  # N2 N2
    512     171    2   0.964000  3.920488e+01  1.415022e+01  3.156319e+01  # N2_X N2
    513     171    1  -0.482000  3.887651e+01  1.371118e+01  3.151949e+01  # N2 N2
    514     172    1  -0.482000  4.254441e+01  4.852812e+01  4.172772e+01  # N2 N2
    515     172    2   0.964000  4.275913e+01  4.903442e+01  4.172054e+01  # N2_X N2
    516     172    1  -0.482000  4.297385e+01  4.954073e+01  4.171336e+01  # N2 N2
    517     173    1  -0.482000  4.544543e+01  3.876451e+01  9.567664e+00  # N2 N2
    518     173    2   0.964000  4.549282e+01  3.914197e+01  9.170444e+00  # N2_X N2
    519     173    1  -0.482000  4.554020e+01  3.951942e+01  8.773225e+00  # N2 N2
    520     174    1  -0.482000  1.990262e+00  1.575394e+01  9.326034e+00  # N2 N2
    521     174    2   0.964000  1.747656e+00  1.526042e+01  9.335024e+00  # N2_X N2
    522     174    1  -0.482000  1.505050e+00  1.476690e+01  9.344014e+00  # N2 N2
    523     175    1  -0.482000  3.813311e+01  5.720143e+01  5.101450e+01  # N2 N2
    524     175    2   0.964000  3.809275e+01  5.673981e+01  5.131077e+01  # N2_X N2
    525     175    1  -0.482000  3.805238e+01  5.627819e+01  5.160704e+01  # N2 N2
    526     176    1  -0.482000  7.587595e+00  3.985726e+01  2.034116e+01  # N2 N2
    527     176    2   0.964000  7.879431e+00  4.004322e+01  1.991366e+01  # N2_X N2
    528     176    1  -0.482000  8.171267e+00  4.022919e+01  1.948617e+01  # N2 N2
    529     177    1  -0.482000  5.158940e+01  3.886828e+01  6.835830e+00  # N2 N2
    530     177    2   0.964000  5.183993e+01  3.839241e+01  6.951075e+00  # N2_X N2
    531     177    1  -0.482000  5.209045e+01  3.791654e+01  7.066319e+00  # N2 N2
    532     178    1  -0.482000  3.385144e+01  4.444274e+01  3.484540e+01  # N2 N2
    533     178    2   0.964000  3.343609e+01  4.447302e+01  3.520466e+01  # N2_X N2
    534     178    1  -0.482000  3.302074e+01  4.450330e+01  3.556392e+01  # N2 N2
    535     179    1  -0.482000  1.901171e+01  3.660187e+01  2.957299e+01  # N2 N2
    536     179    2   0.964000  1.951547e+01  3.678889e+01  2.945573e+01  # N2_X N2
    537     179    1  -0.482000  2.001923e+01  3.697590e+01  2.933846e+01  # N2 N2
    538     180    1  -0.482000  1.621589e+01  3.798320e+01  3.402698e+01  # N2 N2
    539     180    2   0.964000  1.610908e+01  3.744475e+01  3.399295e+01  # N2_X N2
    540     180    1  -0.482000  1.600226e+01  3.690629e+01  3.395892e+01  # N2 N2
    541     181    1  -0.482000  5.193677e+01  5.638260e+01  3.327673e+01  # N2 N2
    542     181    2   0.964000  5.174531e+01  5.588219e+01  3.315250e+01  # N2_X N2
    543     181    1  -0.482000  5.155384e+01  5.538178e+01  3.302826e+01  # N2 N2
    544     182    1  -0.482000  2.413660e+01  3.720232e+01  2.381129e+01  # N2 N2
    545     182    2   0.964000  2.358977e+01  3.714492e+01  2.382477e+01  # N2_X N2
    546     182    1  -0.482000  2.304294e+01  3.708751e+01  2.383825e+01  # N2 N2
    547     183    1  -0.482000  5.143261e+01  5.736073e+01  2.953118e+00  # N2 N2
    548     183    2   0.964000  5.106525e+01  5.716026e+01  3.309982e+00  # N2_X N2
    549     183    1  -0.482000  5.069788e+01  5.695978e+01  3.666847e+00  # N2 N2
    550     184    1  -0.482000  1.607181e+01  3.405349e+00  2.183880e+01  # N2 N2
    551     184    2   0.964000  1.559831e+01  3.635339e+00  2.167940e+01  # N2_X N2
    552     184    1  -0.482000  1.512482e+01  3.865329e+00  2.152001e+01  # N2 N2
    553     185    1  -0.482000  4.657187e+01  2.364550e+01  4.158659e+01  # N2 N2
    554     185    2   0.964000  4.606014e+01  2.380814e+01  4.146749e+01  # N2_X N2
    555     185    1  -0.482000  4.554842e+01  2.397078e+01  4.134840e+01  # N2 N2
    556     186    1  -0.482000  1.225913e+01  1.044623e+01  3.640153e+01  # N2 N2
    557     186    2   0.964000  1.267109e+01  1.071180e+01  3.665106e+01  # N2_X N2
    558     186    1  -0.482000  1.308304e+01  1.097737e+01  3.690060e+01  # N2 N2
    559     187    1  -0.482000  1.606271e+01  3.719306e+01  1.382089e+01  # N2 N2
    560     187    2   0.964000  1.569104e+01  3.700363e+01  1.346246e+01  # N2_X N2
    561     187    1  -0.482000  1.531936e+01  3.681420e+01  1.310403e+01  # N2 N2
    562     188    1  -0.482000  2.222503e+01  5.662582e+01  1.472430e+01  # N2 N2
    563     188    2   0.964000  2.169389e+01  5.650329e+01  1.479763e+01  # N2_X N2
    564     188    1  -0.482000  2.116275e+01  5.638076e+01  1.487095e+01  # N2 N2
    565     189    1  -0.482000  2.686146e+01  1.864445e+01  3.789544e+01  # N2 N2
    566     189    2   0.964000  2.734477e+01  1.880035e+01  3.810663e+01  # N2_X N2
    567     189    1  -0.482000  2.782809e+01  1.895625e+01  3.831783e+01  # N2 N2
    568     190    1  -0.482000  2.557635e+01  2.275958e+01  2.368620e+01  # N2 N2
    569     190    2   0.964000  2.533246e+01  2.228061e+01  2.380288e+01  # N2_X N2
    570     190    1  -0.482000  2.508858e+01  2.180165e+01  2.391955e+01  # N2 N2
    571     191    1  -0.482000  4.441327e+01  4.487355e+01  2.953356e+01  # N2 N2
    572     191    2   0.964000  4.392844e+01  4.503291e+01  2.932852e+01  # N2_X N2
    573     191    1  -0.482000  4.344360e+01  4.519226e+01  2.912348e+01  # N2 N2
    574     192    1  -0.482000  3.985219e+01  5.511442e+01  1.477985e+01  # N2 N2
    575     192    2   0.964000  3.952220e+01  5.493670e+01  1.437733e+01  # N2_X N2
    576     192    1  -0.482000  3.919221e+01  5.475898e+01  1.397481e+01  # N2 N2
    577     193    1  -0.482000  3.079685e+01  3.949246e+01  9.023771e+00  # N2 N2
    578     193    2   0.964000  3.032612e+01  3.941410e+01  9.297221e+00  # N2_X N2
    579     193    1  -0.482000  2.985539e+01  3.933575e+01  9.570671e+00  # N2 N2
    580     194    1  -0.482000  1.396553e+01  5.114915e+00  3.351041e+00  # N2 N2
    581     194    2   0.964000  1.347720e+01  5.364580e+00  3.392292e+00  # N2_X N2
    582     194    1  -0.482000  1.298887e+01  5.614245e+00  3.433542e+00  # N2 N2
    583     195    1  -0.482000  3.933008e+01  2.357594e+01  2.121545e+01  # N2 N2
    584     195    2   0.964000  3.980639e+01  2.369734e+01  2.146222e+01  # N2_X N2
    585     195    1  -0.482000  4.028269e+01  2.381874e+01  2.170899e+01  # N2 N2
    586     196    1  -0.482000  3.618211e+01  3.879239e+01  4.350282e+01  # N2 N2
    587     196    2   0.964000  3.665328e+01  3.851190e+01  4.354554e+01  # N2_X N2
    588     196    1  -0.482000  3.712445e+01  3.823141e+01  4.358825e+01  # N2 N2
    589     197    1  -0.482000  2.221669e+01  3.677909e+01  5.608993e+00  # N2 N2
    590     197    2   0.964000  2.273486e+01  3.691490e+01  5.733703e+00  # N2_X N2
    591     197    1  -0.482000  2.325303e+01  3.705071e+01  5.858414e+00  # N2 N2
    592     198    1  -0.482000  5.659729e+00  5.056661e+01  1.460869e+01  # N2 N2
    593     198    2   0.964000  6.181485e+00  5.048053e+01  1.445750e+01  # N2_X N2
    594     198    1  -0.482000  6.703241e+00  5.039444e+01  1.430630e+01  # N2 N2
    595     199    1  -0.482000  1.255460e+01  4.498057e+01  1.635709e+01  # N2 N2
    596     199    2   0.964000  1.249135e+01  4.443769e+01  1.641862e+01  # N2_X N2
    597     199    1  -0.482000  1.242810e+01  4.389482e+01  1.648016e+01  # N2 N2
    598     200    1  -0.482000  5.005582e+00  4.980379e+01  9.381151e+00  # N2 N2
    599     200    2   0.964000  4.622043e+00  5.019785e+01  9.370424e+00  # N2_X N2
    600     200    1  -0.482000  4.238504e+00  5.059191e+01  9.359696e+00  # N2 N2
    601     201    1  -0.482000  4.741252e+00  7.500085e+00  5.040390e+01  # N2 N2
    602     201    2   0.964000  4.999707e+00  7.947605e+00  5.021568e+01  # N2_X N2
    603     201    1  -0.482000  5.258163e+00  8.395125e+00  5.002746e+01  # N2 N2
    604     202    1  -0.482000  2.631904e+01  9.400381e+00  4.724652e+01  # N2 N2
    605     202    2   0.964000  2.629218e+01  9.916986e+00  4.705971e+01  # N2_X N2
    606     202    1  -0.482000  2.626532e+01  1.043359e+01  4.687291e+01  # N2 N2
    607     203    1  -0.482000  4.672407e+01  3.805965e+00  7.454169e+00  # N2 N2
    608     203    2   0.964000  4.725213e+01  3.959456e+00  7.444913e+00  # N2_X N2
    609     203    1  -0.482000  4.778020e+01  4.112947e+00  7.435656e+00  # N2 N2
    610     204    1  -0.482000  3.668975e+01  1.667436e+00  5.637120e+01  # N2 N2
    611     204    2   0.964000  3.722201e+01  1.799096e+00  5.641435e+01  # N2_X N2
    612     204    1  -0.482000  3.775428e+01  1.930755e+00  5.645749e+01  # N2 N2
    613     205    1  -0.482000  4.012191e+01  3.775840e+01  5.005843e+01  # N2 N2
    614     205    2   0.964000  4.038346e+01  3.818270e+01  4.982591e+01  # N2_X N2
    615     205    1  -0.482000  4.064500e+01  3.860699e+01  4.959338e+01  # N2 N2
    616     206    1  -0.482000  3.170466e+01  1.538201e+01  5.074431e+01  # N2 N2
    617     206    2   0.964000  3.224956e+01  1.533460e+01  5.080208e+01  # N2_X N2
    618     206    1  -0.482000  3.279445e+01  1.528718e+01  5.085986e+01  # N2 N2
    619     207    1  -0.482000  5.317570e+01  4.586921e+01  3.329401e+01  # N2 N2
    620     207    2   0.964000  5.284570e+01  4.608974e+01  3.291327e+01  # N2_X N2
    621     207    1  -0.482000  5.251569e+01  4.631027e+01  3.253254e+01  # N2 N2
    622     208    1  -0.482000  1.768298e+00  5.340842e+01  5.301524e+01  # N2 N2
    623     208    2   0.964000  2.296421e+00  5.342006e+01  5.316838e+01  # N2_X N2
    624     208    1  -0.482000  2.824544e+00  5.343171e+01  5.332151e+01  # N2 N2
    625     209    1  -0.482000  1.847634e+01  4.500368e+01  1.515828e+01  # N2 N2
    626     209    2   0.964000  1.845652e+01  4.520588e+01  1.464719e+01  # N2_X N2
    627     209    1  -0.482000  1.843669e+01  4.540808e+01  1.413609e+01  # N2 N2
    628     210    1  -0.482000  2.401879e+01  4.019970e+01  1.159553e+01  # N2 N2
    629     210    2   0.964000  2.434173e+01  4.054676e+01  1.187439e+01  # N2_X N2
    630     210    1  -0.482000  2.466466e+01  4.089382e+01  1.215324e+01  # N2 N2
    631     211    1  -0.482000  4.896577e+01  3.340671e+01  5.677922e+01  # N2 N2
    632     211    2   0.964000  4.918874e+01  3.359904e+01  5.724375e+01  # N2_X N2
    633     211    1  -0.482000  4.941172e+01  3.379138e+01  5.770828e+01  # N2 N2
    634     212    1  -0.482000  2.590106e+01  4.014923e+01  2.372750e+01  # N2 N2
    635     212    2   0.964000  2.587273e+01  3.971982e+01  2.338501e+01  # N2_X N2
    636     212    1  -0.482000  2.584441e+01  3.929040e+01  2.304252e+01  # N2 N2
    637     213    1  -0.482000  4.552854e+01  4.316201e+01  3.669031e+01  # N2 N2
    638     213    2   0.964000  4.557361e+01  4.261387e+01  3.669405e+01  # N2_X N2
    639     213    1  -0.482000  4.561868e+01  4.206573e+01  3.669780e+01  # N2 N2
    640     214    1  -0.482000  5.118844e+01  1.688150e+01  3.307226e+01  # N2 N2
    641     214    2   0.964000  5.115708e+01  1.639928e+01  3.280961e+01  # N2_X N2
    642     214    1  -0.482000  5.112573e+01  1.591706e+01  3.254697e+01  # N2 N2
    643     215    1  -0.482000  5.500989e+01  2.788575e+01  5.031395e+01  # N2 N2
    644     215    2   0.964000  5.475456e+01  2.743015e+01  5.048639e+01  # N2_X N2
    645     215    1  -0.482000  5.449923e+01  2.697455e+01  5.065883e+01  # N2 N2
    646     216    1  -0.482000  4.765416e+01  4.027795e+01  5.447723e+01  # N2 N2
    647     216    2   0.964000  4.713357e+01  4.045231e+01  5.451029e+01  # N2_X N2
    648     216    1  -0.482000  4.661299e+01  4.062667e+01  5.454335e+01  # N2 N2
    649     217    1  -0.482000  1.846170e+01  4.025441e+01  4.616612e+01  # N2 N2
    650     217    2   0.964000  1.888773e+01  4.059876e+01  4.621528e+01  # N2_X N2
    651     217    1  -0.482000  1.931377e+01  4.094312e+01  4.626444e+01  # N2 N2
    652     218    1  -0.482000  1.555053e+01  5.025314e+01  4.551634e+01  # N2 N2
    653     218    2   0.964000  1.538374e+01  5.056218e+01  4.509306e+01  # N2_X N2
    654     218    1  -0.482000  1.521695e+01  5.087123e+01  4.466977e+01  # N2 N2
    655     219    1  -0.482000  3.079808e+01  4.035804e+01  4.996820e+01  # N2 N2
    656     219    2   0.964000  3.125190e+01  4.048691e+01  5.025094e+01  # N2_X N2
    657     219    1  -0.482000  3.170571e+01  4.061577e+01  5.053368e+01  # N2 N2
    658     220    1  -0.482000  4.294716e+01  5.601303e+01  9.457753e+00  # N2 N2
    659     220    2   0.964000  4.310644e+01  5.640801e+01  9.109722e+00  # N2_X N2
    660     220    1  -0.482000  4.326572e+01  5.680298e+01  8.761690e+00  # N2 N2
    661     221    1  -0.482000  1.675352e+01  5.672832e+01  4.619399e+01  # N2 N2
    662     221    2   0.964000  1.663336e+01  5.619443e+01  4.624898e+01  # N2_X N2
    663     221    1  -0.482000  1.651320e+01  5.566054e+01  4.630396e+01  # N2 N2
    664     222    1  -0.482000  3.764601e+01  1.799066e+01  3.298705e+01  # N2 N2
    665     222    2   0.964000  3.733009e+01  1.794618e+01  3.343506e+01  # N2_X N2
    666     222    1  -0.482000  3.701416e+01  1.790171e+01  3.388307e+01  # N2 N2
    667     223    1  -0.482000  2.019288e+01  1.592420e+01  4.339335e+01  # N2 N2
    668     223    2   0.964000  2.027107e+01  1.646695e+01  4.343587e+01  # N2_X N2
    669     223    1  -0.482000  2.034926e+01  1.700970e+01  4.347839e+01  # N2 N2
    670     224    1  -0.482000  4.824087e+01  4.446583e+01  3.884606e+01  # N2 N2
    671     224    2   0.964000  4.875921e+01  4.435657e+01  3.869813e+01  # N2_X N2
    672     224    1  -0.482000  4.927755e+01  4.424730e+01  3.855020e+01  # N2 N2
    673     225    1  -0.482000  4.094308e+00  1.021730e+01  1.890014e+01  # N2 N2
    674     225    2   0.964000  3.692706e+00  1.051253e+01  1.913264e+01  # N2_X N2
    675     225    1  -0.482000  3.291104e+00  1.080777e+01  1.936513e+01  # N2 N2
    676     226    1  -0.482000  4.192840e+01  2.205015e+01  3.872317e+01  # N2 N2
    677     226    2   0.964000  4.236481e+01  2.176125e+01  3.889222e+01  # N2_X N2
    678     226    1  -0.482000  4.280122e+01  2.147235e+01  3.906128e+01  # N2 N2
    679     227    1  -0.482000  1.674067e+01  4.616972e+01  5.363412e+01  # N2 N2
    680     227    2   0.964000  1.634204e+01  4.595363e+01  5.394541e+01  # N2_X N2
    681     227    1  -0.482000  1.594341e+01  4.573754e+01  5.425670e+01  # N2 N2
    682     228    1  -0.482000  4.715102e+01  1.159122e+01  1.239501e+01  # N2 N2
    683     228    2   0.964000  4.765007e+01  1.182221e+01  1.238568e+01  # N2_X N2
    684     228    1  -0.482000  4.814912e+01  1.205321e+01  1.237635e+01  # N2 N2
    685     229    1  -0.482000  2.885597e+01  3.602126e+01  4.690941e+01  # N2 N2
    686     229    2   0.964000  2.856126e+01  3.626002e+01  4.730771e+01  # N2_X N2
    687     229    1  -0.482000  2.826655e+01  3.649878e+01  4.770600e+01  # N2 N2
    688     230    1  -0.482000  2.153814e+01  1.058528e+01  2.841038e+01  # N2 N2
    689     230    2   0.964000  2.169024e+01  1.055983e+01  2.788244e+01  # N2_X N2
    690     230    1  -0.482000  2.184234e+01  1.053437e+01  2.735450e+01  # N2 N2
    691     231    1  -0.482000  4.447479e+01  2.987556e+01  2.015687e+01  # N2 N2
    692     231    2   0.964000  4.499495e+01  2.975953e+01  2.029276e+01  # N2_X N2
    693     231    1  -0.482000  4.551512e+01  2.964350e+01  2.042865e+01  # N2 N2
    694     232    1  -0.482000  1.028731e+01  4.379771e+01  4.334935e+01  # N2 N2
    695     232    2   0.964000  1.018406e+01  4.334380e+01  4.305642e+01  # N2_X N2
    696     232    1  -0.482000  1.008080e+01  4.288990e+01  4.276349e+01  # N2 N2
    697     233    1  -0.482000  3.831723e+01  2.932715e+01  5.265708e+01  # N2 N2
    698     233    2   0.964000  3.824583e+01  2.964027e+01  5.221059e+01  # N2_X N2
    699     233    1  -0.482000  3.817443e+01  2.995339e+01  5.176409e+01  # N2 N2
    700     234    1  -0.482000  2.382977e+00  2.164685e+01  1.230656e+01  # N2 N2
    701     234    2   0.964000  1.986995e+00  2.131680e+01  1.249831e+01  # N2_X N2
    702     234    1  -0.482000  1.591014e+00  2.098675e+01  1.269006e+01  # N2 N2
    703     235    1  -0.482000  5.552384e+01  7.349342e+00  7.164600e+00  # N2 N2
    704     235    2   0.964000  5.549684e+01  7.860625e+00  6.963702e+00  # N2_X N2
    705     235    1  -0.482000  5.546983e+01  8.371909e+00  6.762804e+00  # N2 N2
    706     236    1  -0.482000  1.348666e+01  1.301734e+01  2.844896e+01  # N2 N2
    707     236    2   0.964000  1.323438e+01  1.273381e+01  2.884704e+01  # N2_X N2
    708     236    1  -0.482000  1.298211e+01  1.245029e+01  2.924512e+01  # N2 N2
    709     237    1  -0.482000  8.522459e+00  2.211624e+01  3.450982e+01  # N2 N2
    710     237    2   0.964000  8.264582e+00  2.220545e+01  3.498735e+01  # N2_X N2
    711     237    1  -0.482000  8.006706e+00  2.229467e+01  3.546489e+01  # N2 N2
    712     238    1  -0.482000  3.973652e+01  1.322142e+01  2.612473e+01  # N2 N2
    713     238    2   0.964000  3.993048e+01  1.338104e+01  2.661401e+01  # N2_X N2
    714     238    1  -0.482000  4.012443e+01  1.354066e+01  2.710330e+01  # N2 N2
    715     239    1  -0.482000  4.660687e+01  1.858799e+01  3.736268e+01  # N2 N2
    716     239    2   0.964000  4.683722e+01  1.829237e+01  3.696013e+01  # N2_X N2
    717     239    1  -0.482000  4.706757e+01  1.799674e+01  3.655758e+01  # N2 N2
    718     240    1  -0.482000  4.814027e+00  4.589774e+01  4.012056e+00  # N2 N2
    719     240    2   0.964000  5.000251e+00  4.552321e+01  4.369189e+00  # N2_X N2
    720     240    1  -0.482000  5.186475e+00  4.514867e+01  4.726323e+00  # N2 N2
    721     241    1  -0.482000  5.400565e+01  4.348416e+01  1.103017e+01  # N2 N2
    722     241    2   0.964000  5.381400e+01  4.399840e+01  1.099364e+01  # N2_X N2
    723     241    1  -0.482000  5.362236e+01  4.451263e+01  1.095711e+01  # N2 N2
    724     242    1  -0.482000  2.490957e+01  1.462502e+01  5.106717e+01  # N2 N2
    725     242    2   0.964000  2.452874e+01  1.447810e+01  5.143579e+01  # N2_X N2
    726     242    1  -0.482000  2.414791e+01  1.433118e+01  5.180442e+01  # N2 N2
    727     243    1  -0.482000  5.671140e+01  1.590692e+01  3.683673e+01  # N2 N2
    728     243    2   0.964000  5.709601e+01  1.628999e+01  3.674826e+01  # N2_X N2
    729     243    1  -0.482000  5.748063e+01  1.667306e+01  3.665979e+01  # N2 N2
    730     244    1  -0.482000  4.873534e+01  2.336326e+01  5.343871e+01  # N2 N2
    731     244    2   0.964000  4.902984e+01  2.291051e+01  5.354258e+01  # N2_X N2
    732     244    1  -0.482000  4.932434e+01  2.245776e+01  5.364644e+01  # N2 N2
    733     245    1  -0.482000  5.194432e+01  3.253665e+01  4.620384e+01  # N2 N2
    734     245    2   0.964000  5.245614e+01  3.233535e+01  4.620001e+01  # N2_X N2
    735     245    1  -0.482000  5.296796e+01  3.213405e+01  4.619619e+01  # N2 N2
    736     246    1  -0.482000  3.519596e+01  5.308740e+01  9.355872e+00  # N2 N2
    737     246    2   0.964000  3.488947e+01  5.267269e+01  9.547134e+00  # N2_X N2
    738     246    1  -0.482000  3.458298e+01  5.225798e+01  9.738395e+00  # N2 N2
    739     247    1  -0.482000  2.090153e+01  2.506160e+00  5.015243e+01  # N2 N2
    740     247    2   0.964000  2.089518e+01  2.747651e+00  4.965832e+01  # N2_X N2
    741     247    1  -0.482000  2.088884e+01  2.989143e+00  4.916421e+01  # N2 N2
    742     248    1  -0.482000  1.378522e+01  2.419321e+01  5.645382e+01  # N2 N2
    743     248    2   0.964000  1.347795e+01  2.464628e+01  5.640086e+01  # N2_X N2
    744     248    1  -0.482000  1.317067e+01  2.509936e+01  5.634790e+01  # N2 N2
    745     249    1  -0.482000  7.097282e+00  3.891462e+00  1.584093e+01  # N2 N2
    746     249    2   0.964000  6.721903e+00  3.526908e+00  1.601031e+01  # N2_X N2
    747     249    1  -0.482000  6.346523e+00  3.162354e+00  1.617969e+01  # N2 N2
    748     250    1  -0.482000  5.204926e+01  4.163940e+01  1.876421e+01  # N2 N2
    749     250    2   0.964000  5.158626e+01  4.136731e+01  1.888295e+01  # N2_X N2
    750     250    1  -0.482000  5.112325e+01  4.109523e+01  1.900169e+01  # N2 N2
    751     251    1  -0.482000  4.898864e+01  3.265750e+01  1.770201e+01  # N2 N2
    752     251    2   0.964000  4.912043e+01  3.313475e+01  1.794152e+01  # N2_X N2
    753     251    1  -0.482000  4.925222e+01  3.361200e+01  1.818103e+01  # N2 N2
    754     252    1  -0.482000  1.822559e+01  1.167940e+01  2.008234e+01  # N2 N2
    755     252    2   0.964000  1.814669e+01  1.182969e+01  1.955919e+01  # N2_X N2
    756     252    1  -0.482000  1.806779e+01  1.197998e+01  1.903604e+01  # N2 N2
    757     253    1  -0.482000  2.563124e+01  5.641277e+01  1.893595e+01  # N2 N2
    758     253    2   0.964000  2.528962e+01  5.677990e+01  1.916181e+01  # N2_X N2
    759     253    1  -0.482000  2.494799e+01  5.714702e+01  1.938766e+01  # N2 N2
    760     254    1  -0.482000  1.698466e+01  5.704606e+01  2.716490e+01  # N2 N2
    761     254    2   0.964000  1.716719e+01  5.653543e+01  2.707302e+01  # N2_X N2
    762     254    1  -0.482000  1.734972e+01  5.602480e+01  2.698113e+01  # N2 N2
    763     255    1  -0.482000  1.926544e+01  1.505393e+00  2.434463e+01  # N2 N2
    764     255    2   0.964000  1.965998e+01  1.713424e+00  2.466644e+01  # N2_X N2
    765     255    1  -0.482000  2.005451e+01  1.921455e+00  2.498826e+01  # N2 N2
    766     256    1  -0.482000  3.902586e+01  3.914403e+01  2.908957e+01  # N2 N2
    767     256    2   0.964000  3.862335e+01  3.880631e+01  2.892701e+01  # N2_X N2
    768     256    1  -0.482000  3.822083e+01  3.846858e+01  2.876445e+01  # N2 N2
    769     257    1  -0.482000  6.668472e+00  8.732920e+00  3.036490e+01  # N2 N2
    770     257    2   0.964000  6.369475e+00  8.323968e+00  3.057905e+01  # N2_X N2
    771     257    1  -0.482000  6.070478e+00  7.915016e+00  3.079319e+01  # N2 N2
    772     258    1  -0.482000  1.313443e+01  2.450390e+01  4.304814e+00  # N2 N2
    773     258    2   0.964000  1.289347e+01  2.499818e+01  4.316222e+00  # N2_X N2
    774     258    1  -0.482000  1.265251e+01  2.549245e+01  4.327630e+00  # N2 N2
    775     259    1  -0.482000  2.387130e+01  2.278045e+01  1.461999e+01  # N2 N2
    776     259    2   0.964000  2.375762e+01  2.240736e+01  1.423219e+01  # N2_X N2
    777     259    1  -0.482000  2.364395e+01  2.203428e+01  1.384439e+01  # N2 N2
    778     260    1  -0.482000  3.444675e+01  5.277881e+01  3.888529e+01  # N2 N2
    779     260    2   0.964000  3.498148e+01  5.267407e+01  3.896008e+01  # N2_X N2
    780     260    1  -0.482000  3.551621e+01  5.256932e+01  3.903488e+01  # N2 N2
    781     261    1  -0.482000  2.324789e+01  5.325140e+01  1.784978e+01  # N2 N2
    782     261    2   0.964000  2.297638e+01  5.372868e+01  1.781839e+01  # N2_X N2
    783     261    1  -0.482000  2.270487e+01  5.420596e+01  1.778701e+01  # N2 N2
    784     262    1  -0.482000  4.623395e+01  2.068885e+01  3.940463e+01  # N2 N2
    785     262    2   0.964000  4.574874e+01  2.044145e+01  3.932803e+01  # N2_X N2
    786     262    1  -0.482000  4.526353e+01  2.019406e+01  3.925144e+01  # N2 N2
    787     263    1  -0.482000  3.136507e+01  2.623521e+01  4.262788e+00  # N2 N2
    788     263    2   0.964000  3.084242e+01  2.622612e+01  4.433856e+00  # N2_X N2
    789     263    1  -0.482000  3.031978e+01  2.621703e+01  4.604925e+00  # N2 N2
    790     264    1  -0.482000  4.858019e+01  4.996966e+01  1.411613e+01  # N2 N2
    791     264    2   0.964000  4.906622e+01  5.022167e+01  1.406359e+01  # N2_X N2
    792     264    1  -0.482000  4.955226e+01  5.047368e+01  1.401105e+01  # N2 N2
    793     265    1  -0.482000  2.184888e+01  1.374555e+01  1.914925e+01  # N2 N2
    794     265    2   0.964000  2.168237e+01  1.398808e+01  1.868455e+01  # N2_X N2
    795     265    1  -0.482000  2.151585e+01  1.423062e+01  1.821984e+01  # N2 N2
    796     266    1  -0.482000  3.058914e+01  1.821680e+01  1.760171e+01  # N2 N2
    797     266    2   0.964000  3.077201e+01  1.785416e+01  1.797259e+01  # N2_X N2
    798     266    1  -0.482000  3.095488e+01  1.749152e+01  1.834347e+01  # N2 N2
    799     267    1  -0.482000  2.105440e+01  2.997294e+00  3.124754e+01  # N2 N2
    800     267    2   0.964000  2.085183e+01  2.897991e+00  3.174914e+01  # N2_X N2
    801     267    1  -0.482000  2.064926e+01  2.798688e+00  3.225075e+01  # N2 N2
    802     268    1  -0.482000  3.663880e+01  2.949414e+01  3.621896e+01  # N2 N2
    803     268    2   0.964000  3.624844e+01  2.916690e+01  3.642640e+01  # N2_X N2
    804     268    1  -0.482000  3.585809e+01  2.883966e+01  3.663385e+01  # N2 N2
    805     269    1  -0.482000  1.459526e+01  3.454445e+01  2.727896e+00  # N2 N2
    806     269    2   0.964000  1.509350e+01  3.435694e+01  2.589727e+00  # N2_X N2
    807     269    1  -0.482000  1.559175e+01  3.416944e+01  2.451559e+00  # N2 N2
    808     270    1  -0.482000  5.133719e+01  1.410590e+01  3.047587e+01  # N2 N2
    809     270    2   0.964000  5.087778e+01  1.380446e+01  3.045188e+01  # N2_X N2
    810     270    1  -0.482000  5.041837e+01  1.350301e+01  3.042789e+01  # N2 N2
    811     271    1  -0.482000  4.771950e+01  4.960855e+00  2.993616e+01  # N2 N2
    812     271    2   0.964000  4.762584e+01  4.486714e+00  2.967363e+01  # N2_X N2
    813     271    1  -0.482000  4.753218e+01  4.012572e+00  2.941111e+01  # N2 N2
    814     272    1  -0.482000  1.859188e+01  2.710728e+01  4.779245e+01  # N2 N2
    815     272    2   0.964000  1.889266e+01  2.755551e+01  4.768702e+01  # N2_X N2
    816     272    1  -0.482000  1.919343e+01  2.800375e+01  4.758159e+01  # N2 N2
    817     273    1  -0.482000  1.952383e+01  2.547546e+01  1.129151e+01  # N2 N2
    818     273    2   0.964000  1.907433e+01  2.577799e+01  1.119705e+01  # N2_X N2
    819     273    1  -0.482000  1.862483e+01  2.608052e+01  1.110260e+01  # N2 N2
    820     274    1  -0.482000  2.904518e+01  7.414627e+00  4.137209e+01  # N2 N2
    821     274    2   0.964000  2.873839e+01  7.699317e+00  4.172893e+01  # N2_X N2
    822     274    1  -0.482000  2.843160e+01  7.984007e+00  4.208577e+01  # N2 N2
    823     275    1  -0.482000  2.516663e+01  2.287486e+01  3.057538e+01  # N2 N2
    824     275    2   0.964000  2.519604e+01  2.232572e+01  3.058453e+01  # N2_X N2
    825     275    1  -0.482000  2.522546e+01  2.177659e+01  3.059368e+01  # N2 N2
    826     276    1  -0.482000  5.522811e+01  1.458973e+01  6.258957e+00  # N2 N2
    827     276    2   0.964000  5.513867e+01  1.454787e+01  6.800019e+00  # N2_X N2
    828     276    1  -0.482000  5.504922e+01  1.450602e+01  7.341081e+00  # N2 N2
    829     277    1  -0.482000  3.170323e+01  9.243108e+00  2.792154e+01  # N2 N2
    830     277    2   0.964000  3.223245e+01  9.099376e+00  2.796364e+01  # N2_X N2
    831     277    1  -0.482000  3.276167e+01  8.955645e+00  2.800575e+01  # N2 N2
    832     278    1  -0.482000  4.154206e+01  4.297471e+01  5.311032e+01  # N2 N2
    833     278    2   0.964000  4.118339e+01  4.338516e+01  5.303692e+01  # N2_X N2
    834     278    1  -0.482000  4.082472e+01  4.379561e+01  5.296351e+01  # N2 N2
    835     279    1  -0.482000  9.512502e+00  4.599587e+01  3.825859e+01  # N2 N2
    836     279    2   0.964000  9.088656e+00  4.565161e+01  3.832450e+01  # N2_X N2
    837     279    1  -0.482000  8.664809e+00  4.530736e+01  3.839040e+01  # N2 N2
    838     280    1  -0.482000  4.243029e+01  1.549298e+01  2.873368e+01  # N2 N2
    839     280    2   0.964000  4.274560e+01  1.507242e+01  2.857182e+01  # N2_X N2
    840     280    1  -0.482000  4.306091e+01  1.465185e+01  2.840995e+01  # N2 N2
    841     281    1  -0.482000  5.363193e+01  3.454460e+01  4.908549e+01  # N2 N2
    842     281    2   0.964000  5.371690e+01  3.400125e+01  4.907887e+01  # N2_X N2
    843     281    1  -0.482000  5.380188e+01  3.345789e+01  4.907224e+01  # N2 N2
    844     282    1  -0.482000  7.596870e+00  3.061033e+01  1.635814e+01  # N2 N2
    845     282    2   0.964000  7.876479e+00  3.107000e+01  1.624401e+01  # N2_X N2
    846     282    1  -0.482000  8.156088e+00  3.152966e+01  1.612988e+01  # N2 N2
    847     283    1  -0.482000  1.647626e+01  2.250639e+01  2.752461e+01  # N2 N2
    848     283    2   0.964000  1.699742e+01  2.268127e+01  2.754197e+01  # N2_X N2
    849     283    1  -0.482000  1.751859e+01  2.285616e+01  2.755934e+01  # N2 N2
    850     284    1  -0.482000  4.704020e+01  4.919830e+01  8.629888e+00  # N2 N2
    851     284    2   0.964000  4.708723e+01  4.865032e+01  8.628931e+00  # N2_X N2
    852     284    1  -0.482000  4.713427e+01  4.810233e+01  8.627975e+00  # N2 N2
    853     285    1  -0.482000  2.846313e+01  5.697664e+01  4.171340e+01  # N2 N2
    854     285    2   0.964000  2.887820e+01  5.733546e+01  4.167522e+01  # N2_X N2
    855     285    1  -0.482000  2.929327e+01  5.769429e+01  4.163705e+01  # N2 N2
    856     286    1  -0.482000  3.266843e+01  2.137336e+01  3.554851e+01  # N2 N2
    857     286    2   0.964000  3.319156e+01  2.121420e+01  3.548931e+01  # N2_X N2
    858     286    1  -0.482000  3.371469e+01  2.105504e+01  3.543011e+01  # N2 N2
    859     287    1  -0.482000  8.241016e+00  3.484364e+01  5.506613e+01  # N2 N2
    860     287    2   0.964000  8.121612e+00  3.434959e+01  5.485599e+01  # N2_X N2
    861     287    1  -0.482000  8.002207e+00  3.385554e+01  5.464585e+01  # N2 N2
    862     288    1  -0.482000  4.979583e+01  3.893585e+01  2.377012e+01  # N2 N2
    863     288    2   0.964000  5.028054e+01  3.903198e+01  2.401160e+01  # N2_X N2
    864     288    1  -0.482000  5.076525e+01  3.912811e+01  2.425309e+01  # N2 N2
    865     289    1  -0.482000  5.742949e+01  4.040437e+01  5.417129e+01  # N2 N2
    866     289    2   0.964000  5.708867e+01  4.082795e+01  5.408810e+01  # N2_X N2
    867     289    1  -0.482000  5.674786e+01  4.125154e+01  5.400490e+01  # N2 N2
    868     290    1  -0.482000  2.384913e+01  1.310219e+01  3.915446e+01  # N2 N2
    869     290    2   0.964000  2.374475e+01  1.278145e+01  3.872003e+01  # N2_X N2
    870     290    1  -0.482000  2.364036e+01  1.246071e+01  3.828560e+01  # N2 N2
    871     291    1  -0.482000  1.483298e+01  2.276872e+01  3.018873e+01  # N2 N2
    872     291    2   0.964000  1.537500e+01  2.286202e+01  3.018468e+01  # N2_X N2
    873     291    1  -0.482000  1.591701e+01  2.295531e+01  3.018064e+01  # N2 N2
    874     292    1  -0.482000  3.448868e+01  5.088783e+01  5.325525e+01  # N2 N2
    875     292    2   0.964000  3.439150e+01  5.140953e+01  5.311073e+01  # N2_X N2
    876     292    1  -0.482000  3.429433e+01  5.193123e+01  5.296621e+01  # N2 N2
    877     293    1  -0.482000  2.972015e+01  2.703302e+01  2.241625e+01  # N2 N2
    878     293    2   0.964000  2.998586e+01  2.750168e+01  2.252700e+01  # N2_X N2
    879     293    1  -0.482000  3.025156e+01  2.797033e+01  2.263775e+01  # N2 N2
    880     294    1  -0.482000  3.087442e+01  2.274892e+01  5.546247e+01  # N2 N2
    881     294    2   0.964000  3.033673e+01  2.271998e+01  5.557453e+01  # N2_X N2
    882     294    1  -0.482000  2.979905e+01  2.269104e+01  5.568660e+01  # N2 N2
    883     295    1  -0.482000  5.463152e+01  3.403116e+00  1.561766e+01  # N2 N2
    884     295    2   0.964000  5.495164e+01  3.595375e+00  1.521386e+01  # N2_X N2
    885     295    1  -0.482000  5.527177e+01  3.787633e+00  1.481006e+01  # N2 N2
    886     296    1  -0.482000  3.386125e+01  1.018743e+01  1.440777e+01  # N2 N2
    887     296    2   0.964000  3.364827e+01  9.715782e+00  1.459402e+01  # N2_X N2
    888     296    1  -0.482000  3.343529e+01  9.244134e+00  1.478026e+01  # N2 N2
    889     297    1  -0.482000  4.383949e+01  3.592818e+01  2.092242e+01  # N2 N2
    890     297    2   0.964000  4.340146e+01  3.625796e+01  2.096561e+01  # N2_X N2
    891     297    1  -0.482000  4.296342e+01  3.658776e+01  2.100879e+01  # N2 N2
    892     298    1  -0.482000  1.191526e+01  1.010825e+01  4.163375e+01  # N2 N2
    893     298    2   0.964000  1.234055e+01  9.913167e+00  4.134466e+01  # N2_X N2
    894     298    1  -0.482000  1.276584e+01  9.718079e+00  4.105557e+01  # N2 N2
    895     299    1  -0.482000  5.769300e+01  2.172712e+01  5.557383e+01  # N2 N2
    896     299    2   0.964000  5.721720e+01  2.200169e+01  5.554692e+01  # N2_X N2
    897     299    1  -0.482000  5.674140e+01  2.227627e+01  5.552002e+01  # N2 N2
    898     300    1  -0.482000  8.545585e+00  5.681496e+01  4.554020e+01  # N2 N2
    899     300    2   0.964000  8.095986e+00  5.665697e+01  4.526561e+01  # N2_X N2
    900     300    1  -0.482000  7.646386e+00  5.649898e+01  4.499102e+01  # N2 N2
    901     301    1  -0.482000  3.183311e+01  4.150751e+01  3.850883e+01  # N2 N2
    902     301    2   0.964000  3.190735e+01  4.101438e+01  3.827684e+01  # N2_X N2
    903     301    1  -0.482000  3.198159e+01  4.052126e+01  3.804486e+01  # N2 N2
    904     302    1  -0.482000  5.579547e+00  1.022495e+01  2.822953e+01  # N2 N2
    905     302    2   0.964000  5.235812e+00  9.796545e+00  2.825805e+01  # N2_X N2
    906     302    1  -0.482000  4.892077e+00  9.368138e+00  2.828657e+01  # N2 N2
    907     303    1  -0.482000  5.413878e+01  2.168506e+01  2.355323e+01  # N2 N2
    908     303    2   0.964000  5.434687e+01  2.214506e+01  2.377139e+01  # N2_X N2
    909     303    1  -0.482000  5.455496e+01  2.260507e+01  2.398956e+01  # N2 N2
    910     304    1  -0.482000  1.468926e+01  3.969416e+01  2.549528e+01  # N2 N2
    911     304    2   0.964000  1.422542e+01  3.939861e+01  2.549422e+01  # N2_X N2
    912     304    1  -0.482000  1.376159e+01  3.910305e+01  2.549317e+01  # N2 N2
    913     305    1  -0.482000  4.261562e+01  1.593284e+01  2.276311e+01  # N2 N2
    914     305    2   0.964000  4.315929e+01  1.589306e+01  2.268999e+01  # N2_X N2
    915     305    1  -0.482000  4.370295e+01  1.585328e+01  2.261687e+01  # N2 N2
    916     306    1  -0.482000  7.577798e+00  2.521225e+01  2.374955e+01  # N2 N2
    917     306    2   0.964000  7.839218e+00  2.497087e+01  2.333016e+01  # N2_X N2
    918     306    1  -0.482000  8.100637e+00  2.472949e+01  2.291076e+01  # N2 N2
    919     307    1  -0.482000  2.393056e+01  4.252191e+01  1.992691e+01  # N2 N2
    920     307    2   0.964000  2.370459e+01  4.202942e+01  1.983260e+01  # N2_X N2
    921     307    1  -0.482000  2.347863e+01  4.153693e+01  1.973828e+01  # N2 N2
    922     308    1  -0.482000  1.174053e+01  5.041026e+01  1.318956e+01  # N2 N2
    923     308    2   0.964000  1.198751e+01  4.997621e+01  1.342000e+01  # N2_X N2
    924     308    1  -0.482000  1.223450e+01  4.954217e+01  1.365043e+01  # N2 N2
    925     309    1  -0.482000  4.164991e+00  1.461734e+01  5.296199e+01  # N2 N2
    926     309    2   0.964000  3.656731e+00  1.476537e+01  5.281280e+01  # N2_X N2
    927     309    1  -0.482000  3.148470e+00  1.491340e+01  5.266360e+01  # N2 N2
    928     310    1  -0.482000  1.462710e+01  4.264795e+01  5.254737e+01  # N2 N2
    929     310    2   0.964000  1.514296e+01  4.275778e+01  5.239139e+01  # N2_X N2
    930     310    1  -0.482000  1.565881e+01  4.286761e+01  5.223541e+01  # N2 N2
    931     311    1  -0.482000  4.474730e+00  9.137098e+00  5.297378e+01  # N2 N2
    932     311    2   0.964000  4.141814e+00  9.037836e+00  5.340017e+01  # N2_X N2
    933     311    1  -0.482000  3.808899e+00  8.938574e+00  5.382657e+01  # N2 N2
    934     312    1  -0.482000  1.211882e+01  4.771715e+01  2.480918e+01  # N2 N2
    935     312    2   0.964000  1.242576e+01  4.741032e+01  2.514702e+01  # N2_X N2
    936     312    1  -0.482000  1.273271e+01  4.710349e+01  2.548487e+01  # N2 N2
    937     313    1  -0.482000  4.001875e+01  4.539581e+01  2.563914e+00  # N2 N2
    938     313    2   0.964000  4.053651e+01  4.521834e+01  2.618059e+00  # N2_X N2
    939     313    1  -0.482000  4.105426e+01  4.504087e+01  2.672205e+00  # N2 N2
    940     314    1  -0.482000  1.782502e+01  1.884531e+01  1.644907e+01  # N2 N2
    941     314    2   0.964000  1.773172e+01  1.830383e+01  1.642472e+01  # N2_X N2
    942     314    1  -0.482000  1.763843e+01  1.776235e+01  1.640037e+01  # N2 N2
    943     315    1  -0.482000  3.853603e+01  8.114276e+00  2.578018e+01  # N2 N2
    944     315    2   0.964000  3.841044e+01  8.290909e+00  2.527469e+01  # N2_X N2
    945     315    1  -0.482000  3.828485e+01  8.467542e+00  2.476919e+01  # N2 N2
    946     316    1  -0.482000  2.180854e+00  7.106049e+00  2.245575e+01  # N2 N2
    947     316    2   0.964000  2.606998e+00  7.411455e+00  2.228953e+01  # N2_X N2
    948     316    1  -0.482000  3.033142e+00  7.716862e+00  2.212331e+01  # N2 N2
    949     317    1  -0.482000  4.192141e+01  3.037371e+01  1.332967e+01  # N2 N2
    950     317    2   0.964000  4.214293e+01  2.998093e+01  1.301479e+01  # N2_X N2
    951     317    1  -0.482000  4.236444e+01  2.958815e+01  1.269991e+01  # N2 N2
    952     318    1  -0.482000  4.482556e+01  1.664012e+00  9.564886e+00  # N2 N2
    953     318    2   0.964000  4.530386e+01  1.700962e+00  9.833893e+00  # N2_X N2
    954     318    1  -0.482000  4.578216e+01  1.737913e+00  1.010290e+01  # N2 N2
    955     319    1  -0.482000  5.467569e+01  2.068461e+01  3.729082e+01  # N2 N2
    956     319    2   0.964000  5.414832e+01  2.052864e+01  3.728299e+01  # N2_X N2
    957     319    1  -0.482000  5.362096e+01  2.037267e+01  3.727517e+01  # N2 N2
    958     320    1  -0.482000  2.218188e+01  3.974056e+01  2.701219e+01  # N2 N2
    959     320    2   0.964000  2.230555e+01  3.957250e+01  2.650330e+01  # N2_X N2
    960     320    1  -0.482000  2.242922e+01  3.940444e+01  2.599442e+01  # N2 N2
    961     321    1  -0.482000  6.515236e+00  3.241412e+00  5.329359e+01  # N2 N2
    962     321    2   0.964000  6.957770e+00  3.500340e+00  5.349264e+01  # N2_X N2
    963     321    1  -0.482000  7.400303e+00  3.759269e+00  5.369169e+01  # N2 N2
    964     322    1  -0.482000  5.034061e+01  7.739388e+00  4.884562e+01  # N2 N2
    965     322    2   0.964000  4.984733e+01  7.690187e+00  4.908386e+01  # N2_X N2
    966     322    1  -0.482000  4.935406e+01  7.640985e+00  4.932209e+01  # N2 N2
    967     323    1  -0.482000  4.194077e+01  5.061523e+01  1.777968e+01  # N2 N2
    968     323    2   0.964000  4.219951e+01  5.104658e+01  1.800214e+01  # N2_X N2
    969     323    1  -0.482000  4.245826e+01  5.147793e+01  1.822460e+01  # N2 N2
    970     324    1  -0.482000  4.868206e+01  5.002622e+01  5.372509e+01  # N2 N2
    971     324    2   0.964000  4.922875e+01  5.005749e+01  5.377657e+01  # N2_X N2
    972     324    1  -0.482000  4.977544e+01  5.008876e+01  5.382805e+01  # N2 N2
    973     325    1  -0.482000  4.385954e+01  4.803354e+01  1.941603e+01  # N2 N2
    974     325    2   0.964000  4.421871e+01  4.789877e+01  1.981015e+01  # N2_X N2
    975     325    1  -0.482000  4.457789e+01  4.776400e+01  2.020427e+01  # N2 N2
    976     326    1  -0.482000  4.190362e+01  4.494195e+01  3.649726e+01  # N2 N2
    977     326    2   0.964000  4.236617e+01  4.504589e+01  3.677609e+01  # N2_X N2
    978     326    1  -0.482000  4.282872e+01  4.514983e+01  3.705493e+01  # N2 N2
    979     327    1  -0.482000  5.318333e+00  1.036633e+01  3.760428e+01  # N2 N2
    980     327    2   0.964000  4.803648e+00  1.055985e+01  3.759202e+01  # N2_X N2
    981     327    1  -0.482000  4.288964e+00  1.075337e+01  3.757976e+01  # N2 N2
    982     328    1  -0.482000  3.354008e+01  2.906701e+01  3.201599e+01  # N2 N2
    983     328    2   0.964000  3.356369e+01  2.944899e+01  3.162098e+01  # N2_X N2
    984     328    1  -0.482000  3.358730e+01  2.983098e+01  3.122597e+01  # N2 N2
    985     329    1  -0.482000  4.070693e+01  2.583227e+01  2.672060e+01  # N2 N2
    986     329    2   0.964000  4.092279e+01  2.629474e+01  2.692561e+01  # N2_X N2
    987     329    1  -0.482000  4.113865e+01  2.675721e+01  2.713062e+01  # N2 N2
    988     330    1  -0.482000  5.452653e+01  8.216434e+00  2.717224e+01  # N2 N2
    989     330    2   0.964000  5.499698e+01  8.331783e+00  2.691173e+01  # N2_X N2
    990     330    1  -0.482000  5.546744e+01  8.447131e+00  2.665121e+01  # N2 N2
    991     331    1  -0.482000  4.743731e+00  1.794133e+00  3.322642e+01  # N2 N2
    992     331    2   0.964000  4.901673e+00  2.282850e+00  3.342317e+01  # N2_X N2
    993     331    1  -0.482000  5.059615e+00  2.771567e+00  3.361992e+01  # N2 N2
    994     332    1  -0.482000  5.599841e+01  4.116885e+01  1.567642e+01  # N2 N2
    995     332    2   0.964000  5.650584e+01  4.132005e+01  1.582526e+01  # N2_X N2
    996     332    1  -0.482000  5.701327e+01  4.147126e+01  1.597410e+01  # N2 N2
    997     333    1  -0.482000  1.834809e+01  3.565680e+01  9.913431e+00  # N2 N2
    998     333    2   0.964000  1.847553e+01  3.619080e+01  9.880183e+00  # N2_X N2
    999     333    1  -0.482000  1.860296e+01  3.672480e+01  9.846936e+00  # N2 N2
   1000     334    1  -0.482000  5.301218e+01  2.400008e+00  2.407233e+01  # N2 N2
   1001     334    2   0.964000  5.331566e+01  1.950960e+00  2.416591e+01  # N2_X N2
   1002     334    1  -0.482000  5.361913e+01  1.501912e+00  2.425950e+01  # N2 N2
   1003     335    1  -0.482000  3.067092e+01  4.877933e+01  4.881127e+01  # N2 N2
   1004     335    2   0.964000  3.017557e+01  4.862591e+01  4.862797e+01  # N2_X N2
   1005     335    1  -0.482000  2.968022e+01  4.847250e+01  4.844468e+01  # N2 N2
   1006     336    1  -0.482000  5.189393e+01  1.964393e+01  5.711979e+00  # N2 N2
   1007     336    2   0.964000  5.167318e+01  1.951868e+01  5.224044e+00  # N2_X N2
   1008     336    1  -0.482000  5.145242e+01  1.939342e+01  4.736108e+00  # N2 N2
   1009     337    1  -0.482000  3.258034e+01  5.131746e+01  4.971762e+01  # N2 N2
   1010     337    2   0.964000  3.238796e+01  5.150772e+01  4.923877e+01  # N2_X N2
   1011     337    1  -0.482000  3.219558e+01  5.169799e+01  4.875993e+01  # N2 N2
   1012     338    1  -0.482000  4.263093e+01  4.643828e+01  2.322733e+01  # N2 N2
   1013     338    2   0.964000  4.221606e+01  4.677740e+01  2.335134e+01  # N2_X N2
   1014     338    1  -0.482000  4.180118e+01  4.711652e+01  2.347534e+01  # N2 N2
   1015     339    1  -0.482000  1.147653e+01  3.811525e+00  3.820428e+01  # N2 N2
   1016     339    2   0.964000  1.123672e+01  3.372630e+00  3.843310e+01  # N2_X N2
   1017     339    1  -0.482000  1.099690e+01  2.933735e+00  3.866192e+01  # N2 N2
   1018     340    1  -0.482000  1.145892e+01  1.524344e+01  2.883092e+01  # N2 N2
   1019     340    2   0.964000  1.119496e+01  1.572315e+01  2.888292e+01  # N2_X N2
   1020     340    1  -0.482000  1.093101e+01  1.620286e+01  2.893492e+01  # N2 N2
   1021     341    1  -0.482000  1.282777e+01  9.296331e+00  2.601765e+01  # N2 N2
   1022     341    2   0.964000  1.299099e+01  9.818279e+00  2.595909e+01  # N2_X N2
   1023     341    1  -0.482000  1.315421e+01  1.034023e+01  2.590053e+01  # N2 N2
   1024     342    1  -0.482000  3.294932e+01  1.277641e+01  4.305444e+01  # N2 N2
   1025     342    2   0.964000  3.286064e+01  1.324601e+01  4.332668e+01  # N2_X N2
   1026     342    1  -0.482000  3.277196e+01  1.371561e+01  4.359891e+01  # N2 N2
   1027     343    1  -0.482000  5.119619e+01  5.628243e+01  1.459054e+01  # N2 N2
   1028     343    2   0.964000  5.070408e+01  5.604891e+01  1.451442e+01  # N2_X N2
   1029     343    1  -0.482000  5.021197e+01  5.581539e+01  1.443829e+01  # N2 N2
   1030     344    1  -0.482000  6.128380e+00  4.864284e+01  3.852659e+00  # N2 N2
   1031     344    2   0.964000  6.441139e+00  4.849514e+01  4.280288e+00  # N2_X N2
   1032     344    1  -0.482000  6.753899e+00  4.834744e+01  4.707916e+00  # N2 N2
   1033     345    1  -0.482000  2.745823e+01  3.740407e+01  2.530826e+01  # N2 N2
   1034     345    2   0.964000  2.694045e+01  3.758749e+01  2.533570e+01  # N2_X N2
   1035     345    1  -0.482000  2.642266e+01  3.777092e+01  2.536314e+01  # N2 N2
   1036     346    1  -0.482000  5.034851e+00  3.505108e+01  1.289817e+01  # N2 N2
   1037     346    2   0.964000  4.578449e+00  3.475481e+01  1.297833e+01  # N2_X N2
   1038     346    1  -0.482000  4.122047e+00  3.445855e+01  1.305849e+01  # N2 N2
   1039     347    1  -0.482000  3.713443e+01  3.949283e+01  1.174047e+01  # N2 N2
   1040     347    2   0.964000  3.719069e+01  3.996794e+01  1.201178e+01  # N2_X N2
   1041     347    1  -0.482000  3.724696e+01  4.044304e+01  1.228310e+01  # N2 N2
   1042     348    1  -0.482000  3.442927e+01  3.187817e+01  5.384548e+01  # N2 N2
   1043     348    2   0.964000  3.473893e+01  3.224853e+01  5.358195e+01  # N2_X N2
   1044     348    1  -0.482000  3.504859e+01  3.261889e+01  5.331842e+01  # N2 N2
   1045     349    1  -0.482000  1.139449e+01  1.481482e+01  2.154849e+01  # N2 N2
   1046     349    2   0.964000  1.178988e+01  1.452388e+01  2.179652e+01  # N2_X N2
   1047     349    1  -0.482000  1.218527e+01  1.423293e+01  2.204455e+01  # N2 N2
   1048     350    1  -0.482000  2.229163e+01  3.001970e+01  5.185581e+01  # N2 N2
   1049     350    2   0.964000  2.216556e+01  2.949361e+01  5.195502e+01  # N2_X N2
   1050     350    1  -0.482000  2.203948e+01  2.896753e+01  5.205423e+01  # N2 N2
   1051     351    1  -0.482000  2.459510e+01  4.449589e+01  4.652384e+01  # N2 N2
   1052     351    2   0.964000  2.503204e+01  4.481769e+01  4.643423e+01  # N2_X N2
   1053     351    1  -0.482000  2.546898e+01  4.513949e+01  4.634461e+01  # N2 N2
   1054     352    1  -0.482000  8.972575e+00  4.078684e+00  2.611703e+00  # N2 N2
   1055     352    2   0.964000  9.185849e+00  4.501559e+00  2.332077e+00  # N2_X N2
   1056     352    1  -0.482000  9.399123e+00  4.924434e+00  2.052450e+00  # N2 N2
   1057     353    1  -0.482000  1.290753e+01  7.563757e+00  3.267398e+01  # N2 N2
   1058     353    2   0.964000  1.342118e+01  7.759710e+00  3.265779e+01  # N2_X N2
   1059     353    1  -0.482000  1.393484e+01  7.955663e+00  3.264160e+01  # N2 N2
   1060     354    1  -0.482000  4.958397e+01  3.658343e+01  3.554985e+01  # N2 N2
   1061     354    2   0.964000  4.927628e+01  3.612801e+01  3.557024e+01  # N2_X N2
   1062     354    1  -0.482000  4.896858e+01  3.567258e+01  3.559064e+01  # N2 N2
   1063     355    1  -0.482000  3.612302e+01  5.291336e+01  5.585920e+01  # N2 N2
   1064     355    2   0.964000  3.587312e+01  5.246992e+01  5.606756e+01  # N2_X N2
   1065     355    1  -0.482000  3.562322e+01  5.202649e+01  5.627593e+01  # N2 N2
   1066     356    1  -0.482000  2.113411e+01  1.954931e+00  3.937351e+01  # N2 N2
   1067     356    2   0.964000  2.079874e+01  2.382305e+00  3.928762e+01  # N2_X N2
   1068     356    1  -0.482000  2.046337e+01  2.809680e+00  3.920173e+01  # N2 N2
   1069     357    1  -0.482000  1.123436e+01  8.900287e+00  4.428392e+01  # N2 N2
   1070     357    2   0.964000  1.139352e+01  9.264451e+00  4.466412e+01  # N2_X N2
   1071     357    1  -0.482000  1.155268e+01  9.628615e+00  4.504432e+01  # N2 N2
   1072     358    1  -0.482000  2.314891e+01  5.592161e+01  2.700052e+01  # N2 N2
   1073     358    2   0.964000  2.285052e+01  5.630184e+01  2.673806e+01  # N2_X N2
   1074     358    1  -0.482000  2.255212e+01  5.668207e+01  2.647559e+01  # N2 N2
   1075     359    1  -0.482000  1.557128e+01  1.448068e+01  2.607141e+01  # N2 N2
   1076     359    2   0.964000  1.504933e+01  1.455792e+01  2.622667e+01  # N2_X N2
   1077     359    1  -0.482000  1.452739e+01  1.463515e+01  2.638192e+01  # N2 N2
   1078     360    1  -0.482000  1.763106e+01  1.842770e+01  2.743261e+00  # N2 N2
   1079     360    2   0.964000  1.815867e+01  1.833869e+01  2.615965e+00  # N2_X N2
   1080     360    1  -0.482000  1.868628e+01  1.824967e+01  2.488669e+00  # N2 N2
   1081     361    1  -0.482000  4.620857e+01  3.470268e+01  2.716812e+01  # N2 N2
   1082     361    2   0.964000  4.643503e+01  3.435013e+01  2.752437e+01  # N2_X N2
   1083     361    1  -0.482000  4.666149e+01  3.399758e+01  2.788064e+01  # N2 N2
   1084     362    1  -0.482000  3.156940e+01  5.370914e+01  1.556984e+01  # N2 N2
   1085     362    2   0.964000  3.162762e+01  5.329051e+01  1.521791e+01  # N2_X N2
   1086     362    1  -0.482000  3.168585e+01  5.287187e+01  1.486598e+01  # N2 N2
   1087     363    1  -0.482000  4.727699e+01  2.704973e+01  3.639013e+01  # N2 N2
   1088     363    2   0.964000  4.747561e+01  2.733431e+01  3.681681e+01  # N2_X N2
   1089     363    1  -0.482000  4.767423e+01  2.761890e+01  3.724350e+01  # N2 N2
   1090     364    1  -0.482000  4.690963e+01  8.814764e+00  4.025769e+01  # N2 N2
   1091     364    2   0.964000  4.736780e+01  9.090841e+00  4.038560e+01  # N2_X N2
   1092     364    1  -0.482000  4.782596e+01  9.366919e+00  4.051352e+01  # N2 N2
   1093     365    1  -0.482000  4.641568e+01  1.139090e+01  3.662682e+01  # N2 N2
   1094     365    2   0.964000  4.596049e+01  1.108306e+01  3.665006e+01  # N2_X N2
   1095     365    1  -0.482000  4.550530e+01  1.077522e+01  3.667330e+01  # N2 N2
   1096     366    1  -0.482000  2.309365e+01  3.177180e+00  3.703562e+01  # N2 N2
   1097     366    2   0.964000  2.331787e+01  3.662650e+00  3.716425e+01  # N2_X N2
   1098     366    1  -0.482000  2.354208e+01  4.148120e+00  3.729289e+01  # N2 N2
   1099     367    1  -0.482000  6.533533e+00  4.937668e+01  4.092005e+01  # N2 N2
   1100     367    2   0.964000  6.438040e+00  4.912270e+01  4.044164e+01  # N2_X N2
   1101     367    1  -0.482000  6.342547e+00  4.886872e+01  3.996323e+01  # N2 N2
   1102     368    1  -0.482000  4.015327e+00  2.161122e+01  5.208714e+01  # N2 N2
   1103     368    2   0.964000  4.064232e+00  2.144689e+01  5.260973e+01  # N2_X N2
   1104     368    1  -0.482000  4.113138e+00  2.128255e+01  5.313233e+01  # N2 N2
   1105     369    1  -0.482000  1.224723e+01  5.540625e+01  5.652266e+01  # N2 N2
   1106     369    2   0.964000  1.270933e+01  5.510923e+01  5.649547e+01  # N2_X N2
   1107     369    1  -0.482000  1.317144e+01  5.481221e+01  5.646828e+01  # N2 N2
   1108     370    1  -0.482000  1.070786e+01  2.485326e+01  1.226254e+01  # N2 N2
   1109     370    2   0.964000  1.059667e+01  2.461930e+01  1.274772e+01  # N2_X N2
   1110     370    1  -0.482000  1.048547e+01  2.438535e+01  1.323290e+01  # N2 N2
   1111     371    1  -0.482000  5.289324e+01  1.870913e+01  2.564784e+01  # N2 N2
   1112     371    2   0.964000  5.286941e+01  1.924524e+01  2.576831e+01  # N2_X N2
   1113     371    1  -0.482000  5.284558e+01  1.978136e+01  2.588877e+01  # N2 N2
   1114     372    1  -0.482000  3.225220e+01  1.465206e+01  2.854667e+01  # N2 N2
   1115     372    2   0.964000  3.232674e+01  1.514376e+01  2.878156e+01  # N2_X N2
   1116     372    1  -0.482000  3.240129e+01  1.563546e+01  2.901645e+01  # N2 N2
   1117     373    1  -0.482000  3.504672e+01  7.437539e+00  2.932229e+01  # N2 N2
   1118     373    2   0.964000  3.458355e+01  7.141102e+00  2.931257e+01  # N2_X N2
   1119     373    1  -0.482000  3.412038e+01  6.844664e+00  2.930285e+01  # N2 N2
   1120     374    1  -0.482000  2.584944e+01  5.025220e+01  1.300477e+01  # N2 N2
   1121     374    2   0.964000  2.617576e+01  5.027719e+01  1.344681e+01  # N2_X N2
   1122     374    1  -0.482000  2.650207e+01  5.030219e+01  1.388884e+01  # N2 N2
   1123     375    1  -0.482000  6.795170e+00  3.841689e+01  4.493592e+01  # N2 N2
   1124     375    2   0.964000  6.772500e+00  3.787550e+01  4.484170e+01  # N2_X N2
   1125     375    1  -0.482000  6.749830e+00  3.733410e+01  4.474749e+01  # N2 N2
   1126     376    1  -0.482000  2.798044e+01  2.324109e+00  1.951139e+01  # N2 N2
   1127     376    2   0.964000  2.800498e+01  2.664746e+00  1.908027e+01  # N2_X N2
   1128     376    1  -0.482000  2.802953e+01  3.005384e+00  1.864915e+01  # N2 N2
   1129     377    1  -0.482000  2.951319e+01  5.461010e+01  4.043026e+01  # N2 N2
   1130     377    2   0.964000  2.900204e+01  5.444665e+01  4.030980e+01  # N2_X N2
   1131     377    1  -0.482000  2.849088e+01  5.428321e+01  4.018934e+01  # N2 N2
   1132     378    1  -0.482000  4.022302e+01  4.018801e+01  5.316401e+01  # N2 N2
   1133     378    2   0.964000  3.979012e+01  4.051727e+01  5.308223e+01  # N2_X N2
   1134     378    1  -0.482000  3.935723e+01  4.084653e+01  5.300045e+01  # N2 N2
   1135     379    1  -0.482000  1.899856e+01  5.037726e+00  5.344212e+01  # N2 N2
   1136     379    2   0.964000  1.906261e+01  4.519285e+00  5.361421e+01  # N2_X N2
   1137     379    1  -0.482000  1.912665e+01  4.000845e+00  5.378631e+01  # N2 N2
   1138     380    1  -0.482000  3.753209e+01  4.164214e+01  2.066159e+01  # N2 N2
   1139     380    2   0.964000  3.765146e+01  4.153478e+01  2.118763e+01  # N2_X N2
   1140     380    1  -0.482000  3.777084e+01  4.142743e+01  2.171368e+01  # N2 N2
   1141     381    1  -0.482000  3.289406e+00  2.922460e+01  2.423253e+01  # N2 N2
   1142     381    2   0.964000  3.543404e+00  2.970267e+01  2.413544e+01  # N2_X N2
   1143     381    1  -0.482000  3.797402e+00  3.018075e+01  2.403835e+01  # N2 N2
   1144     382    1  -0.482000  2.041886e+01  1.044257e+01  3.896620e+01  # N2 N2
   1145     382    2   0.964000  2.088430e+01  1.037528e+01  3.925140e+01  # N2_X N2
   1146     382    1  -0.482000  2.134974e+01  1.030799e+01  3.953660e+01  # N2 N2
   1147     383    1  -0.482000  1.679952e+01  5.034996e+01  4.025469e+01  # N2 N2
   1148     383    2   0.964000  1.638925e+01  5.005611e+01  4.047339e+01  # N2_X N2
   1149     383    1  -0.482000  1.597898e+01  4.976225e+01  4.069209e+01  # N2 N2
   1150     384    1  -0.482000  1.471497e+01  3.536334e+01  3.909726e+01  # N2 N2
   1151     384    2   0.964000  1.496548e+01  3.585258e+01  3.911719e+01  # N2_X N2
   1152     384    1  -0.482000  1.521599e+01  3.634181e+01  3.913711e+01  # N2 N2
   1153     385    1  -0.482000  5.302455e+01  2.656217e+01  2.744470e+01  # N2 N2
   1154     385    2   0.964000  5.320575e+01  2.608911e+01  2.765889e+01  # N2_X N2
   1155     385    1  -0.482000  5.338695e+01  2.561604e+01  2.787307e+01  # N2 N2
   1156     386    1  -0.482000  2.632317e+01  1.722955e+01  2.121865e+01  # N2 N2
   1157     386    2   0.964000  2.612899e+01  1.671853e+01  2.115825e+01  # N2_X N2
   1158     386    1  -0.482000  2.593481e+01  1.620750e+01  2.109784e+01  # N2 N2
   1159     387    1  -0.482000  1.477918e+01  3.023146e+00  4.077237e+01  # N2 N2
   1160     387    2   0.964000  1.457192e+01  2.972034e+00  4.127925e+01  # N2_X N2
   1161     387    1  -0.482000  1.436465e+01  2.920923e+00  4.178613e+01  # N2 N2
   1162     388    1  -0.482000  4.697899e+01  4.239727e+01  3.167931e+01  # N2 N2
   1163     388    2   0.964000  4.679338e+01  4.211213e+01  3.124717e+01  # N2_X N2
   1164     388    1  -0.482000  4.660776e+01  4.182699e+01  3.081504e+01  # N2 N2
   1165     389    1  -0.482000  4.877087e+01  1.441550e+01  4.492029e+01  # N2 N2
   1166     389    2   0.964000  4.911910e+01  1.398983e+01  4.492667e+01  # N2_X N2
   1167     389    1  -0.482000  4.946732e+01  1.356415e+01  4.493305e+01  # N2 N2
   1168     390    1  -0.482000  4.209165e+01  2.370031e+01  2.974966e+01  # N2 N2
   1169     390    2   0.964000  4.252705e+01  2.403422e+01  2.978744e+01  # N2_X N2
   1170     390    1  -0.482000  4.296245e+01  2.436814e+01  2.982523e+01  # N2 N2
   1171     391    1  -0.482000  5.376309e+01  4.412681e+01  3.669522e+01  # N2 N2
   1172     391    2   0.964000  5.385149e+01  4.358916e+01  3.677016e+01  # N2_X N2
   1173     391    1  -0.482000  5.393989e+01  4.305151e+01  3.684510e+01  # N2 N2
   1174     392    1  -0.482000  6.756936e+00  2.066742e+01  7.172021e+00  # N2 N2
   1175     392    2   0.964000  6.453533e+00  2.028765e+01  6.914687e+00  # N2_X N2
   1176     392    1  -0.482000  6.150130e+00  1.990788e+01  6.657353e+00  # N2 N2
   1177     393    1  -0.482000  3.996926e+01  1.962868e+01  4.022539e+01  # N2 N2
   1178     393    2   0.964000  3.954463e+01  1.931795e+01  4.006529e+01  # N2_X N2
   1179     393    1  -0.482000  3.911999e+01  1.900722e+01  3.990519e+01  # N2 N2
   1180     394    1  -0.482000  1.544660e+01  2.581484e+01  3.181620e+01  # N2 N2
   1181     394    2   0.964000  1.555146e+01  2.531209e+01  3.201302e+01  # N2_X N2
   1182     394    1  -0.482000  1.565632e+01  2.480933e+01  3.220984e+01  # N2 N2
   1183     395    1  -0.482000  4.667116e+00  3.379412e+01  1.830306e+00  # N2 N2
   1184     395    2   0.964000  4.165087e+00  3.370237e+01  2.035361e+00  # N2_X N2
   1185     395    1  -0.482000  3.663057e+00  3.361061e+01  2.240416e+00  # N2 N2
   1186     396    1  -0.482000  1.038469e+01  5.085281e+01  5.446885e+01  # N2 N2
   1187     396    2   0.964000  1.006615e+01  5.109697e+01  5.484490e+01  # N2_X N2
   1188     396    1  -0.482000  9.747601e+00  5.134114e+01  5.522095e+01  # N2 N2
   1189     397    1  -0.482000  5.286991e+01  5.304118e+01  3.005595e+00  # N2 N2
   1190     397    2   0.964000  5.235804e+01  5.321624e+01  2.906434e+00  # N2_X N2
   1191     397    1  -0.482000  5.184616e+01  5.339131e+01  2.807273e+00  # N2 N2
   1192     398    1  -0.482000  1.057656e+01  1.849872e+01  7.150743e+00  # N2 N2
   1193     398    2   0.964000  1.030370e+01  1.804286e+01  7.008459e+00  # N2_X N2
   1194     398    1  -0.482000  1.003084e+01  1.758701e+01  6.866176e+00  # N2 N2
   1195     399    1  -0.482000  2.798788e+01  4.602007e+00  3.948450e+01  # N2 N2
   1196     399    2   0.964000  2.745468e+01  4.605834e+00  3.934966e+01  # N2_X N2
   1197     399    1  -0.482000  2.692148e+01  4.609661e+00  3.921481e+01  # N2 N2
   1198     400    1  -0.482000  6.087892e+00  1.918663e+01  3.746057e+01  # N2 N2
   1199     400    2   0.964000  6.155251e+00  1.866137e+01  3.731203e+01  # N2_X N2
   1200     400    1  -0.482000  6.222609e+00  1.813612e+01  3.716348e+01  # N2 N2
   1201     401    1  -0.482000  4.688810e+00  4.828114e+01  5.440081e+01  # N2 N2
   1202     401    2   0.964000  5.121621e+00  4.798449e+01  5.456567e+01  # N2_X N2
   1203     401    1  -0.482000  5.554433e+00  4.768785e+01  5.473052e+01  # N2 N2
   1204     402    1  -0.482000  4.687603e+01  1.542751e+01  2.487229e+01  # N2 N2
   1205     402    2   0.964000  4.644648e+01  1.510176e+01  2.476336e+01  # N2_X N2
   1206     402    1  -0.482000  4.601693e+01  1.477599e+01  2.465443e+01  # N2 N2
   1207     403    1  -0.482000  1.735709e+01  7.972203e+00  2.043903e+01  # N2 N2
   1208     403    2   0.964000  1.685144e+01  7.871275e+00  2.024762e+01  # N2_X N2
   1209     403    1  -0.482000  1.634580e+01  7.770346e+00  2.005622e+01  # N2 N2
   1210     404    1  -0.482000  1.941420e+00  5.605588e+01  3.940300e+01  # N2 N2
   1211     404    2   0.964000  2.120395e+00  5.555994e+01  3.955956e+01  # N2_X N2
   1212     404    1  -0.482000  2.299370e+00  5.506400e+01  3.971611e+01  # N2 N2
   1213     405    1  -0.482000  2.327530e+01  2.172983e+01  4.018871e+01  # N2 N2
   1214     405    2   0.964000  2.340139e+01  2.178428e+01  4.072128e+01  # N2_X N2
   1215     405    1  -0.482000  2.352748e+01  2.183873e+01  4.125386e+01  # N2 N2
   1216     406    1  -0.482000  2.896645e+01  4.020799e+01  4.438537e+01  # N2 N2
   1217     406    2   0.964000  2.944668e+01  4.047330e+01  4.434675e+01  # N2_X N2
   1218     406    1  -0.482000  2.992691e+01  4.073860e+01  4.430812e+01  # N2 N2
   1219     407    1  -0.482000  1.006852e+01  1.551624e+01  4.059895e+01  # N2 N2
   1220     407    2   0.964000  1.011697e+01  1.521709e+01  4.105793e+01  # N2_X N2
   1221     407    1  -0.482000  1.016541e+01  1.491793e+01  4.151691e+01  # N2 N2
   1222     408    1  -0.482000  8.691209e+00  4.859868e+01  2.175006e+01  # N2 N2
   1223     408    2   0.964000  9.220671e+00  4.851027e+01  2.163025e+01  # N2_X N2
   1224     408    1  -0.482000  9.750132e+00  4.842187e+01  2.151043e+01  # N2 N2
   1225     409    1  -0.482000  3.961374e+01  4.556433e+01  2.872442e+01  # N2 N2
   1226     409    2   0.964000  4.010766e+01  4.580629e+01  2.872474e+01  # N2_X N2
   1227     409    1  -0.482000  4.060158e+01  4.604825e+01  2.872507e+01  # N2 N2
   1228     410    1  -0.482000  8.316861e+00  2.760967e+01  4.078764e+01  # N2 N2
   1229     410    2   0.964000  8.126990e+00  2.810942e+01  4.091687e+01  # N2_X N2
   1230     410    1  -0.482000  7.937119e+00  2.860917e+01  4.104610e+01  # N2 N2
   1231     411    1  -0.482000  2.082556e+01  4.274298e+01  2.017171e+01  # N2 N2
   1232     411    2   0.964000  2.051823e+01  4.230419e+01  2.004718e+01  # N2_X N2
   1233     411    1  -0.482000  2.021089e+01  4.186540e+01  1.992264e+01  # N2 N2
   1234     412    1  -0.482000  1.833458e+01  1.905647e+01  2.799465e+01  # N2 N2
   1235     412    2   0.964000  1.851694e+01  1.928250e+01  2.846172e+01  # N2_X N2
   1236     412    1  -0.482000  1.869929e+01  1.950854e+01  2.892879e+01  # N2 N2
   1237     413    1  -0.482000  4.292853e+01  2.175532e+00  4.437939e+01  # N2 N2
   1238     413    2   0.964000  4.343382e+01  1.960157e+00  4.440757e+01  # N2_X N2
   1239     413    1  -0.482000  4.393911e+01  1.744782e+00  4.443575e+01  # N2 N2
   1240     414    1  -0.482000  2.343186e+00  5.028188e+01  5.015948e+01  # N2 N2
   1241     414    2   0.964000  2.575998e+00  4.985235e+01  5.041207e+01  # N2_X N2
   1242     414    1  -0.482000  2.808810e+00  4.942282e+01  5.066466e+01  # N2 N2
   1243     415    1  -0.482000  1.379426e+01  1.844193e+01  8.475268e+00  # N2 N2
   1244     415    2   0.964000  1.330874e+01  1.820863e+01  8.586386e+00  # N2_X N2
   1245     415    1  -0.482000  1.282323e+01  1.797533e+01  8.697505e+00  # N2 N2
   1246     416    1  -0.482000  2.852146e+01  3.043117e+01  4.540858e+00  # N2 N2
   1247     416    2   0.964000  2.823936e+01  3.090175e+01  4.502475e+00  # N2_X N2
   1248     416    1  -0.482000  2.795725e+01  3.137232e+01  4.464093e+00  # N2 N2
   1249     417    1  -0.482000  3.970808e+01  1.659834e+01  3.864354e+01  # N2 N2
   1250     417    2   0.964000  3.981342e+01  1.606131e+01  3.858875e+01  # N2_X N2
   1251     417    1  -0.482000  3.991876e+01  1.552428e+01  3.853396e+01  # N2 N2
   1252     418    1  -0.482000  3.839384e+01  4.059551e+00  2.139368e+01  # N2 N2
   1253     418    2   0.964000  3.858835e+01  4.326091e+00  2.183370e+01  # N2_X N2
   1254     418    1  -0.482000  3.878287e+01  4.592632e+00  2.227372e+01  # N2 N2
   1255     419    1  -0.482000  4.545696e+01  2.894568e+01  1.773880e+01  # N2 N2
   1256     419    2   0.964000  4.586646e+01  2.858007e+01  1.777251e+01  # N2_X N2
   1257     419    1  -0.482000  4.627596e+01  2.821445e+01  1.780623e+01  # N2 N2
   1258     420    1  -0.482000  3.343829e+01  4.632102e+01  2.956423e+01  # N2 N2
   1259     420    2   0.964000  3.298870e+01  4.657695e+01  2.937749e+01  # N2_X N2
   1260     420    1  -0.482000  3.253911e+01  4.683288e+01  2.919075e+01  # N2 N2
   1261     421    1  -0.482000  4.795599e+01  1.169545e+01  3.084799e+01  # N2 N2
   1262     421    2   0.964000  4.790669e+01  1.211557e+01  3.049647e+01  # N2_X N2
   1263     421    1  -0.482000  4.785738e+01  1.253569e+01  3.014494e+01  # N2 N2
   1264     422    1  -0.482000  1.271256e+01  2.287181e+01  5.311635e+01  # N2 N2
   1265     422    2   0.964000  1.229503e+01  2.312808e+01  5.286637e+01  # N2_X N2
   1266     422    1  -0.482000  1.187750e+01  2.338436e+01  5.261638e+01  # N2 N2
   1267     423    1  -0.482000  2.702090e+01  4.959903e+01  4.989306e+01  # N2 N2
   1268     423    2   0.964000  2.720774e+01  4.944133e+01  5.038573e+01  # N2_X N2
   1269     423    1  -0.482000  2.739457e+01  4.928362e+01  5.087840e+01  # N2 N2
   1270     424    1  -0.482000  2.570106e+01  5.529285e+01  5.570438e+01  # N2 N2
   1271     424    2   0.964000  2.567590e+01  5.553464e+01  5.521102e+01  # N2_X N2
   1272     424    1  -0.482000  2.565073e+01  5.577645e+01  5.471767e+01  # N2 N2
   1273     425    1  -0.482000  2.233067e+01  1.462433e+01  3.238892e+01  # N2 N2
   1274     425    2   0.964000  2.268900e+01  1.485583e+01  3.273606e+01  # N2_X N2
   1275     425    1  -0.482000  2.304733e+01  1.508733e+01  3.308320e+01  # N2 N2
   1276     426    1  -0.482000  2.204373e+01  2.445581e+01  5.605783e+01  # N2 N2
   1277     426    2   0.964000  2.165124e+01  2.468127e+01  5.637027e+01  # N2_X N2
   1278     426    1  -0.482000  2.125876e+01  2.490673e+01  5.668272e+01  # N2 N2
   1279     427    1  -0.482000  2.523146e+01  2.069666e+01  1.909315e+01  # N2 N2
   1280     427    2   0.964000  2.535791e+01  2.019702e+01  1.890112e+01  # N2_X N2
   1281     427    1  -0.482000  2.548435e+01  1.969739e+01  1.870909e+01  # N2 N2
   1282     428    1  -0.482000  3.196313e+01  2.978793e+01  1.045106e+01  # N2 N2
   1283     428    2   0.964000  3.149720e+01  2.950238e+01  1.038878e+01  # N2_X N2
   1284     428    1  -0.482000  3.103128e+01  2.921683e+01  1.032649e+01  # N2 N2
   1285     429    1  -0.482000  3.381587e+01  2.086533e+01  2.189877e+01  # N2 N2
   1286     429    2   0.964000  3.380511e+01  2.100962e+01  2.242939e+01  # N2_X N2
   1287     429    1  -0.482000  3.379434e+01  2.115392e+01  2.296002e+01  # N2 N2
   1288     430    1  -0.482000  5.178451e+01  4.941661e+01  3.028790e+01  # N2 N2
   1289     430    2   0.964000  5.201448e+01  4.985536e+01  3.004892e+01  # N2_X N2
   1290     430    1  -0.482000  5.224444e+01  5.029411e+01  2.980993e+01  # N2 N2
   1291     431    1  -0.482000  3.662423e+01  4.689469e+00  5.336170e+01  # N2 N2
   1292     431    2   0.964000  3.667155e+01  4.958671e+00  5.383897e+01  # N2_X N2
   1293     431    1  -0.482000  3.671887e+01  5.227873e+00  5.431625e+01  # N2 N2
   1294     432    1  -0.482000  4.384309e+01  4.356318e+01  4.585775e+01  # N2 N2
   1295     432    2   0.964000  4.357738e+01  4.384115e+01  4.546452e+01  # N2_X N2
   1296     432    1  -0.482000  4.331168e+01  4.411913e+01  4.507129e+01  # N2 N2
   1297     433    1  -0.482000  2.240422e+01  1.558229e+01  2.896798e+01  # N2 N2
   1298     433    2   0.964000  2.266303e+01  1.571975e+01  2.943341e+01  # N2_X N2
   1299     433    1  -0.482000  2.292184e+01  1.585721e+01  2.989884e+01  # N2 N2
   1300     434    1  -0.482000  2.957633e+01  6.203198e+00  1.801437e+00  # N2 N2
   1301     434    2   0.964000  2.962299e+01  6.013065e+00  2.315414e+00  # N2_X N2
   1302     434    1  -0.482000  2.966965e+01  5.822932e+00  2.829390e+00  # N2 N2
   1303     435    1  -0.482000  2.667758e+01  3.229106e+01  2.230609e+01  # N2 N2
   1304     435    2   0.964000  2.681926e+01  3.234101e+01  2.283517e+01  # N2_X N2
   1305     435    1  -0.482000  2.696094e+01  3.239095e+01  2.336426e+01  # N2 N2
   1306     436    1  -0.482000  1.281239e+01  5.314890e+01  1.825257e+01  # N2 N2
   1307     436    2   0.964000  1.278724e+01  5.362680e+01  1.798149e+01  # N2_X N2
   1308     436    1  -0.482000  1.276209e+01  5.410470e+01  1.771042e+01  # N2 N2
   1309     437    1  -0.482000  4.710120e+01  2.563900e+01  4.843326e+01  # N2 N2
   1310     437    2   0.964000  4.656319e+01  2.574763e+01  4.846863e+01  # N2_X N2
   1311     437    1  -0.482000  4.602519e+01  2.585627e+01  4.850401e+01  # N2 N2
   1312     438    1  -0.482000  2.266408e+01  5.515548e+01  5.645094e+01  # N2 N2
   1313     438    2   0.964000  2.234649e+01  5.558420e+01  5.631741e+01  # N2_X N2
   1314     438    1  -0.482000  2.202890e+01  5.601292e+01  5.618387e+01  # N2 N2
   1315     439    1  -0.482000  3.797705e+01  4.330258e+01  7.414794e+00  # N2 N2
   1316     439    2   0.964000  3.746830e+01  4.348049e+01  7.305152e+00  # N2_X N2
   1317     439    1  -0.482000  3.695955e+01  4.365841e+01  7.195511e+00  # N2 N2
   1318     440    1  -0.482000  5.072637e+01  1.114151e+01  1.203254e+01  # N2 N2
   1319     440    2   0.964000  5.102650e+01  1.137778e+01  1.242826e+01  # N2_X N2
   1320     440    1  -0.482000  5.132663e+01  1.161406e+01  1.282398e+01  # N2 N2
   1321     441    1  -0.482000  4.480326e+01  2.088865e+01  2.169919e+01  # N2 N2
   1322     441    2   0.964000  4.528001e+01  2.077410e+01  2.145002e+01  # N2_X N2
   1323     441    1  -0.482000  4.575676e+01  2.065954e+01  2.120086e+01  # N2 N2
   1324     442    1  -0.482000  4.585422e+01  1.930637e+01  2.000507e+00  # N2 N2
   1325     442    2   0.964000  4.533138e+01  1.947649e+01  2.014272e+00  # N2_X N2
   1326     442    1  -0.482000  4.480853e+01  1.964661e+01  2.028036e+00  # N2 N2
   1327     443    1  -0.482000  1.685701e+00  1.554300e+00  4.886842e+01  # N2 N2
   1328     443    2   0.964000  2.208679e+00  1.684513e+00  4.875870e+01  # N2_X N2
   1329     443    1  -0.482000  2.731657e+00  1.814727e+00  4.864897e+01  # N2 N2
   1330     444    1  -0.482000  4.444210e+01  3.569576e+01  5.267426e+01  # N2 N2
   1331     444    2   0.964000  4.390154e+01  3.578420e+01  5.272403e+01  # N2_X N2
   1332     444    1  -0.482000  4.336098e+01  3.587264e+01  5.277381e+01  # N2 N2
   1333     445    1  -0.482000  1.327465e+01  6.348193e+00  4.180114e+01  # N2 N2
   1334     445    2   0.964000  1.382262e+01  6.301656e+00  4.179292e+01  # N2_X N2
   1335     445    1  -0.482000  1.437058e+01  6.255119e+00  4.178469e+01  # N2 N2
   1336     446    1  -0.482000  3.961755e+01  4.178829e+00  1.610286e+01  # N2 N2
   1337     446    2   0.964000  3.936788e+01  4.617010e+00  1.632232e+01  # N2_X N2
   1338     446    1  -0.482000  3.911822e+01  5.055192e+00  1.654179e+01  # N2 N2
   1339     447    1  -0.482000  1.379483e+01  5.876582e+00  4.565117e+01  # N2 N2
   1340     447    2   0.964000  1.405733e+01  6.033063e+00  4.519388e+01  # N2_X N2
   1341     447    1  -0.482000  1.431982e+01  6.189544e+00  4.473660e+01  # N2 N2
   1342     448    1  -0.482000  3.488482e+01  5.644499e+01  4.070461e+01  # N2 N2
   1343     448    2   0.964000  3.487851e+01  5.687946e+01  4.036742e+01  # N2_X N2
   1344     448    1  -0.482000  3.487220e+01  5.731394e+01  4.003024e+01  # N2 N2
   1345     449    1  -0.482000  2.689248e+01  1.310157e+01  4.627412e+01  # N2 N2
   1346     449    2   0.964000  2.639381e+01  1.321610e+01  4.607232e+01  # N2_X N2
   1347     449    1  -0.482000  2.589515e+01  1.333062e+01  4.587053e+01  # N2 N2
   1348     450    1  -0.482000  3.664704e+01  7.615827e+00  4.211399e+00  # N2 N2
   1349     450    2   0.964000  3.662417e+01  8.164729e+00  4.237551e+00  # N2_X N2
   1350     450    1  -0.482000  3.660131e+01  8.713630e+00  4.263703e+00  # N2 N2
   1351     451    1  -0.482000  1.879488e+01  2.430577e+01  3.051777e+01  # N2 N2
   1352     451    2   0.964000  1.898371e+01  2.431129e+01  3.000122e+01  # N2_X N2
   1353     451    1  -0.482000  1.917253e+01  2.431681e+01  2.948468e+01  # N2 N2
   1354     452    1  -0.482000  5.477060e+01  4.374827e+01  5.113362e+01  # N2 N2
   1355     452    2   0.964000  5.486430e+01  4.428572e+01  5.120342e+01  # N2_X N2
   1356     452    1  -0.482000  5.495801e+01  4.482316e+01  5.127322e+01  # N2 N2
   1357     453    1  -0.482000  9.992337e+00  1.056813e+01  3.019038e+01  # N2 N2
   1358     453    2   0.964000  1.050219e+01  1.072706e+01  3.032190e+01  # N2_X N2
   1359     453    1  -0.482000  1.101203e+01  1.088598e+01  3.045341e+01  # N2 N2
   1360     454    1  -0.482000  5.224503e+01  1.149123e+01  4.014735e+01  # N2 N2
   1361     454    2   0.964000  5.171906e+01  1.138434e+01  4.026747e+01  # N2_X N2
   1362     454    1  -0.482000  5.119309e+01  1.127744e+01  4.038759e+01  # N2 N2
   1363     455    1  -0.482000  5.576009e+01  5.298019e+01  7.972489e+00  # N2 N2
   1364     455    2   0.964000  5.606448e+01  5.343826e+01  7.976563e+00  # N2_X N2
   1365     455    1  -0.482000  5.636887e+01  5.389633e+01  7.980638e+00  # N2 N2
   1366     456    1  -0.482000  9.010453e+00  3.722004e+01  5.263521e+00  # N2 N2
   1367     456    2   0.964000  8.577305e+00  3.739479e+01  4.973094e+00  # N2_X N2
   1368     456    1  -0.482000  8.144156e+00  3.756953e+01  4.682667e+00  # N2 N2
   1369     457    1  -0.482000  1.385644e+01  2.695185e+01  5.224931e+01  # N2 N2
   1370     457    2   0.964000  1.392835e+01  2.648190e+01  5.252586e+01  # N2_X N2
   1371     457    1  -0.482000  1.400027e+01  2.601195e+01  5.280240e+01  # N2 N2
   1372     458    1  -0.482000  1.817616e+01  4.462469e+01  1.679292e+00  # N2 N2
   1373     458    2   0.964000  1.808330e+01  4.505496e+01  2.009057e+00  # N2_X N2
   1374     458    1  -0.482000  1.799045e+01  4.548523e+01  2.338822e+00  # N2 N2
   1375     459    1  -0.482000  9.095781e+00  3.433817e+01  7.852979e+00  # N2 N2
   1376     459    2   0.964000  8.851481e+00  3.465356e+01  8.231591e+00  # N2_X N2
   1377     459    1  -0.482000  8.607181e+00  3.496895e+01  8.610203e+00  # N2 N2
   1378     460    1  -0.482000  4.662548e+01  1.866541e+01  2.941887e+01  # N2 N2
   1379     460    2   0.964000  4.672781e+01  1.840290e+01  2.894652e+01  # N2_X N2
   1380     460    1  -0.482000  4.683014e+01  1.814039e+01  2.847416e+01  # N2 N2
   1381     461    1  -0.482000  2.421671e+01  7.759317e+00  4.813449e+01  # N2 N2
   1382     461    2   0.964000  2.425307e+01  7.622043e+00  4.760314e+01  # N2_X N2
   1383     461    1  -0.482000  2.428943e+01  7.484770e+00  4.707179e+01  # N2 N2
   1384     462    1  -0.482000  5.164104e+00  2.128837e+00  2.947332e+01  # N2 N2
   1385     462    2   0.964000  5.180499e+00  2.668671e+00  2.936935e+01  # N2_X N2
   1386     462    1  -0.482000  5.196893e+00  3.208506e+00  2.926538e+01  # N2 N2
   1387     463    1  -0.482000  2.205059e+01  4.970729e+01  4.932838e+01  # N2 N2
   1388     463    2   0.964000  2.201775e+01  4.933572e+01  4.892421e+01  # N2_X N2
   1389     463    1  -0.482000  2.198490e+01  4.896414e+01  4.852004e+01  # N2 N2
   1390     464    1  -0.482000  4.778768e+01  5.106767e+01  1.754019e+01  # N2 N2
   1391     464    2   0.964000  4.723774e+01  5.105919e+01  1.754012e+01  # N2_X N2
   1392     464    1  -0.482000  4.668781e+01  5.105071e+01  1.754004e+01  # N2 N2
   1393     465    1  -0.482000  1.268115e+01  2.975089e+01  7.634560e+00  # N2 N2
   1394     465    2   0.964000  1.213897e+01  2.984247e+01  7.621968e+00  # N2_X N2
   1395     465    1  -0.482000  1.159680e+01  2.993405e+01  7.609377e+00  # N2 N2
   1396     466    1  -0.482000  1.540519e+01  9.743756e+00  4.560998e+01  # N2 N2
   1397     466    2   0.964000  1.503478e+01  9.983150e+00  4.593859e+01  # N2_X N2
   1398     466    1  -0.482000  1.466436e+01  1.022254e+01  4.626719e+01  # N2 N2
   1399     467    1  -0.482000  2.128190e+01  1.734684e+01  1.079683e+01  # N2 N2
   1400     467    2   0.964000  2.106864e+01  1.732061e+01  1.029054e+01  # N2_X N2
   1401     467    1  -0.482000  2.085537e+01  1.729437e+01  9.784248e+00  # N2 N2
   1402     468    1  -0.482000  1.458294e+01  5.061243e+01  1.618826e+01  # N2 N2
   1403     468    2   0.964000  1.417159e+01  5.080013e+01  1.650141e+01  # N2_X N2
   1404     468    1  -0.482000  1.376024e+01  5.098783e+01  1.681455e+01  # N2 N2
   1405     469    1  -0.482000  5.461208e+01  3.140927e+01  2.989754e+01  # N2 N2
   1406     469    2   0.964000  5.510128e+01  3.117236e+01  2.998153e+01  # N2_X N2
   1407     469    1  -0.482000  5.559049e+01  3.093545e+01  3.006552e+01  # N2 N2
   1408     470    1  -0.482000  9.463312e+00  2.810498e+01  2.580585e+00  # N2 N2
   1409     470    2   0.964000  9.921179e+00  2.840421e+01  2.638211e+00  # N2_X N2
   1410     470    1  -0.482000  1.037905e+01  2.870343e+01  2.695836e+00  # N2 N2
   1411     471    1  -0.482000  3.956583e+01  5.154361e+01  3.826958e+01  # N2 N2
   1412     471    2   0.964000  3.981585e+01  5.174933e+01  3.871418e+01  # N2_X N2
   1413     471    1  -0.482000  4.006586e+01  5.195506e+01  3.915878e+01  # N2 N2
   1414     472    1  -0.482000  2.349247e+01  1.249716e+01  2.633009e+01  # N2 N2
   1415     472    2   0.964000  2.401755e+01  1.261070e+01  2.644801e+01  # N2_X N2
   1416     472    1  -0.482000  2.454263e+01  1.272423e+01  2.656593e+01  # N2 N2
   1417     473    1  -0.482000  8.683584e+00  5.039704e+01  4.946698e+01  # N2 N2
   1418     473    2   0.964000  8.186710e+00  5.017255e+01  4.939473e+01  # N2_X N2
   1419     473    1  -0.482000  7.689836e+00  4.994806e+01  4.932248e+01  # N2 N2
   1420     474    1  -0.482000  2.344664e+01  5.319349e+01  4.318965e+01  # N2 N2
   1421     474    2   0.964000  2.291347e+01  5.305860e+01  4.318396e+01  # N2_X N2
   1422     474    1  -0.482000  2.238029e+01  5.292372e+01  4.317826e+01  # N2 N2
   1423     475    1  -0.482000  1.424788e+01  3.060825e+00  1.439781e+01  # N2 N2
   1424     475    2   0.964000  1.443046e+01  3.551243e+00  1.456709e+01  # N2_X N2
   1425     475    1  -0.482000  1.461304e+01  4.041661e+00  1.473637e+01  # N2 N2
   1426     476    1  -0.482000  2.817509e+01  3.329787e+01  1.222645e+01  # N2 N2
   1427     476    2   0.964000  2.793934e+01  3.352008e+01  1.267090e+01  # N2_X N2
   1428     476    1  -0.482000  2.770358e+01  3.374230e+01  1.311536e+01  # N2 N2
   1429     477    1  -0.482000  1.189108e+01  3.939660e+01  1.278611e+01  # N2 N2
   1430     477    2   0.964000  1.168684e+01  3.989489e+01  1.267430e+01  # N2_X N2
   1431     477    1  -0.482000  1.148260e+01  4.039317e+01  1.256249e+01  # N2 N2
   1432     478    1  -0.482000  4.074043e+01  2.667830e+01  2.408442e+01  # N2 N2
   1433     478    2   0.964000  4.119969e+01  2.662494e+01  2.378654e+01  # N2_X N2
   1434     478    1  -0.482000  4.165895e+01  2.657158e+01  2.348866e+01  # N2 N2
   1435     479    1  -0.482000  2.983447e+01  2.933462e+01  1.420143e+01  # N2 N2
   1436     479    2   0.964000  2.947209e+01  2.893814e+01  1.408315e+01  # N2_X N2
   1437     479    1  -0.482000  2.910971e+01  2.854167e+01  1.396487e+01  # N2 N2
   1438     480    1  -0.482000  3.027183e+01  3.899266e+01  4.666843e+01  # N2 N2
   1439     480    2   0.964000  3.067194e+01  3.886526e+01  4.702365e+01  # N2_X N2
   1440     480    1  -0.482000  3.107205e+01  3.873785e+01  4.737887e+01  # N2 N2
   1441     481    1  -0.482000  1.320494e+01  2.982425e+01  4.622577e+01  # N2 N2
   1442     481    2   0.964000  1.293818e+01  3.030262e+01  4.627570e+01  # N2_X N2
   1443     481    1  -0.482000  1.267141e+01  3.078100e+01  4.632563e+01  # N2 N2
   1444     482    1  -0.482000  1.701910e+01  3.199828e+01  3.847288e+01  # N2 N2
   1445     482    2   0.964000  1.690260e+01  3.253479e+01  3.850579e+01  # N2_X N2
   1446     482    1  -0.482000  1.678610e+01  3.307130e+01  3.853869e+01  # N2 N2
   1447     483    1  -0.482000  4.103131e+01  5.156597e+01  4.272978e+01  # N2 N2
   1448     483    2   0.964000  4.091132e+01  5.195165e+01  4.235648e+01  # N2_X N2
   1449     483    1  -0.482000  4.079132e+01  5.233733e+01  4.198319e+01  # N2 N2
   1450     484    1  -0.482000  3.038975e+00  3.584587e+01  6.460308e+00  # N2 N2
   1451     484    2   0.964000  2.620127e+00  3.551455e+01  6.328820e+00  # N2_X N2
   1452     484    1  -0.482000  2.201280e+00  3.518322e+01  6.197332e+00  # N2 N2
   1453     485    1  -0.482000  1.596921e+01  2.638493e+01  5.512700e+01  # N2 N2
   1454     485    2   0.964000  1.640469e+01  2.604936e+01  5.514297e+01  # N2_X N2
   1455     485    1  -0.482000  1.684016e+01  2.571379e+01  5.515895e+01  # N2 N2
   1456     486    1  -0.482000  3.590712e+00  2.184418e+01  3.439406e+01  # N2 N2
   1457     486    2   0.964000  3.861960e+00  2.189099e+01  3.391790e+01  # N2_X N2
   1458     486    1  -0.482000  4.133209e+00  2.193779e+01  3.344173e+01  # N2 N2
   1459     487    1  -0.482000  3.911011e+01  3.233139e+00  5.433698e+01  # N2 N2
   1460     487    2   0.964000  3.927343e+01  3.758325e+00  5.433949e+01  # N2_X N2
   1461     487    1  -0.482000  3.943675e+01  4.283511e+00  5.434201e+01  # N2 N2
   1462     488    1  -0.482000  2.010062e+01  3.109231e+01  2.415641e+01  # N2 N2
   1463     488    2   0.964000  2.057328e+01  3.136491e+01  2.422558e+01  # N2_X N2
   1464     488    1  -0.482000  2.104594e+01  3.163751e+01  2.429475e+01  # N2 N2
   1465     489    1  -0.482000  4.583727e+01  8.391494e+00  4.751918e+01  # N2 N2
   1466     489    2   0.964000  4.597415e+01  7.877617e+00  4.765952e+01  # N2_X N2
   1467     489    1  -0.482000  4.611102e+01  7.363740e+00  4.779986e+01  # N2 N2
   1468     490    1  -0.482000  2.182130e+00  4.256052e+01  1.819122e+01  # N2 N2
   1469     490    2   0.964000  2.694381e+00  4.274037e+01  1.810318e+01  # N2_X N2
   1470     490    1  -0.482000  3.206631e+00  4.292022e+01  1.801513e+01  # N2 N2
   1471     491    1  -0.482000  3.164666e+00  1.870218e+01  1.055256e+01  # N2 N2
   1472     491    2   0.964000  3.620394e+00  1.839452e+01  1.056507e+01  # N2_X N2
   1473     491    1  -0.482000  4.076121e+00  1.808686e+01  1.057758e+01  # N2 N2
   1474     492    1  -0.482000  4.141897e+01  2.886070e+01  3.029107e+01  # N2 N2
   1475     492    2   0.964000  4.172281e+01  2.840378e+01  3.032850e+01  # N2_X N2
   1476     492    1  -0.482000  4.202665e+01  2.794686e+01  3.036593e+01  # N2 N2
   1477     493    1  -0.482000  3.515877e+00  5.330787e+01  3.112917e+01  # N2 N2
   1478     493    2   0.964000  3.554602e+00  5.281270e+01  3.089292e+01  # N2_X N2
   1479     493    1  -0.482000  3.593327e+00  5.231754e+01  3.065667e+01  # N2 N2
   1480     494    1  -0.482000  1.844822e+00  5.164608e+01  2.818238e+01  # N2 N2
   1481     494    2   0.964000  1.899084e+00  5.114192e+01  2.839540e+01  # N2_X N2
   1482     494    1  -0.482000  1.953346e+00  5.063776e+01  2.860842e+01  # N2 N2
   1483     495    1  -0.482000  6.383978e+00  2.885741e+01  2.547051e+01  # N2 N2
   1484     495    2   0.964000  6.307476e+00  2.838217e+01  2.520443e+01  # N2_X N2
   1485     495    1  -0.482000  6.230974e+00  2.790694e+01  2.493835e+01  # N2 N2
   1486     496    1  -0.482000  6.962448e+00  4.432651e+01  3.189627e+01  # N2 N2
   1487     496    2   0.964000  6.935030e+00  4.378033e+01  3.195489e+01  # N2_X N2
   1488     496    1  -0.482000  6.907611e+00  4.323416e+01  3.201351e+01  # N2 N2
   1489     497    1  -0.482000  2.635887e+01  8.261075e+00  4.467532e+01  # N2 N2
   1490     497    2   0.964000  2.628989e+01  7.958477e+00  4.422125e+01  # N2_X N2
   1491     497    1  -0.482000  2.622092e+01  7.655880e+00  4.376718e+01  # N2 N2
   1492     498    1  -0.482000  1.982841e+01  2.175542e+01  2.519404e+01  # N2 N2
   1493     498    2   0.964000  1.944450e+01  2.136158e+01  2.519167e+01  # N2_X N2
   1494     498    1  -0.482000  1.906058e+01  2.096775e+01  2.518930e+01  # N2 N2
   1495     499    1  -0.482000  1.262143e+01  3.569508e+01  2.655305e+01  # N2 N2
   1496     499    2   0.964000  1.214190e+01  3.548217e+01  2.638809e+01  # N2_X N2
   1497     499    1  -0.482000  1.166236e+01  3.526925e+01  2.622313e+01  # N2 N2
   1498     500    1  -0.482000  5.260405e+01  4.179630e+01  3.474363e+01  # N2 N2
   1499     500    2   0.964000  5.217136e+01  4.174853e+01  3.507978e+01  # N2_X N2
   1500     500    1  -0.482000  5.173867e+01  4.170076e+01  3.541593e+01  # N2 N2

Bonds

      1    1       1       2  # N2-N2_X
      2    1       2       3  # N2-N2_X
      3    1       4       5  # N2-N2_X
      4    1       5       6  # N2-N2_X
      5    1       7       8  # N2-N2_X
      6    1       8       9  # N2-N2_X
      7    1      10      11  # N2-N2_X
      8    1      11      12  # N2-N2_X
      9    1      13      14  # N2-N2_X
     10    1      14      15  # N2-N2_X
     11    1      16      17  # N2-N2_X
     12    1      17      18  # N2-N2_X
     13    1      19      20  # N2-N2_X
     14    1      20      21  # N2-N2_X
     15    1      22      23  # N2-N2_X
     16    1      23      24  # N2-N2_X
     17    1      25      26  # N2-N2_X
     18    1      26      27  # N2-N2_X
     19    1      28      29  # N2-N2_X
     20    1      29      30  # N2-N2_X
     21    1      31      32  # N2-N2_X
     22    1      32      33  # N2-N2_X
     23    1      34      35  # N2-N2_X
     24    1      35      36  # N2-N2_X
     25    1      37      38  # N2-N2_X
     26    1      38      39  # N2-N2_X
     27    1      40      41  # N2-N2_X
     28    1      41      42  # N2-N2_X
     29    1      43      44  # N2-N2_X
     30    1      44      45  # N2-N2_X
     31    1      46      47  # N2-N2_X
     32    1      47      48  # N2-N2_X
     33    1      49      50  # N2-N2_X
     34    1      50      51  # N2-N2_X
     35    1      52      53  # N2-N2_X
     36    1      53      54  # N2-N2_X
     37    1      55      56  # N2-N2_X
     38    1      56      57  # N2-N2_X
     39    1      58      59  # N2-N2_X
     40    1      59      60  # N2-N2_X
     41    1      61      62  # N2-N2_X
     42    1      62      63  # N2-N2_X
     43    1      64      65  # N2-N2_X
     44    1      65      66  # N2-N2_X
     45    1      67      68  # N2-N2_X
     46    1      68      69  # N2-N2_X
     47    1      70      71  # N2-N2_X
     48    1      71      72  # N2-N2_X
     49    1      73      74  # N2-N2_X
     50    1      74      75  # N2-N2_X
     51    1      76      77  # N2-N2_X
     52    1      77      78  # N2-N2_X
     53    1      79      80  # N2-N2_X
     54    1      80      81  # N2-N2_X
     55    1      82      83  # N2-N2_X
     56    1      83      84  # N2-N2_X
     57    1      85      86  # N2-N2_X
     58    1      86      87  # N2-N2_X
     59    1      88      89  # N2-N2_X
     60    1      89      90  # N2-N2_X
     61    1      91      92  # N2-N2_X
     62    1      92      93  # N2-N2_X
     63    1      94      95  # N2-N2_X
     64    1      95      96  # N2-N2_X
     65    1      97      98  # N2-N2_X
     66    1      98      99  # N2-N2_X
     67    1     100     101  # N2-N2_X
     68    1     101     102  # N2-N2_X
     69    1     103     104  # N2-N2_X
     70    1     104     105  # N2-N2_X
     71    1     106     107  # N2-N2_X
     72    1     107     108  # N2-N2_X
     73    1     109     110  # N2-N2_X
     74    1     110     111  # N2-N2_X
     75    1     112     113  # N2-N2_X
     76    1     113     114  # N2-N2_X
     77    1     115     116  # N2-N2_X
     78    1     116     117  # N2-N2_X
     79    1     118     119  # N2-N2_X
     80    1     119     120  # N2-N2_X
     81    1     121     122  # N2-N2_X
     82    1     122     123  # N2-N2_X
     83    1     124     125  # N2-N2_X
     84    1     125     126  # N2-N2_X
     85    1     127     128  # N2-N2_X
     86    1     128     129  # N2-N2_X
     87    1     130     131  # N2-N2_X
     88    1     131     132  # N2-N2_X
     89    1     133     134  # N2-N2_X
     90    1     134     135  # N2-N2_X
     91    1     136     137  # N2-N2_X
     92    1     137     138  # N2-N2_X
     93    1     139     140  # N2-N2_X
     94    1     140     141  # N2-N2_X
     95    1     142     143  # N2-N2_X
     96    1     143     144  # N2-N2_X
     97    1     145     146  # N2-N2_X
     98    1     146     147  # N2-N2_X
     99    1     148     149  # N2-N2_X
    100    1     149     150  # N2-N2_X
    101    1     151     152  # N2-N2_X
    102    1     152     153  # N2-N2_X
    103    1     154     155  # N2-N2_X
    104    1     155     156  # N2-N2_X
    105    1     157     158  # N2-N2_X
    106    1     158     159  # N2-N2_X
    107    1     160     161  # N2-N2_X
    108    1     161     162  # N2-N2_X
    109    1     163     164  # N2-N2_X
    110    1     164     165  # N2-N2_X
    111    1     166     167  # N2-N2_X
    112    1     167     168  # N2-N2_X
    113    1     169     170  # N2-N2_X
    114    1     170     171  # N2-N2_X
    115    1     172     173  # N2-N2_X
    116    1     173     174  # N2-N2_X
    117    1     175     176  # N2-N2_X
    118    1     176     177  # N2-N2_X
    119    1     178     179  # N2-N2_X
    120    1     179     180  # N2-N2_X
    121    1     181     182  # N2-N2_X
    122    1     182     183  # N2-N2_X
    123    1     184     185  # N2-N2_X
    124    1     185     186  # N2-N2_X
    125    1     187     188  # N2-N2_X
    126    1     188     189  # N2-N2_X
    127    1     190     191  # N2-N2_X
    128    1     191     192  # N2-N2_X
    129    1     193     194  # N2-N2_X
    130    1     194     195  # N2-N2_X
    131    1     196     197  # N2-N2_X
    132    1     197     198  # N2-N2_X
    133    1     199     200  # N2-N2_X
    134    1     200     201  # N2-N2_X
    135    1     202     203  # N2-N2_X
    136    1     203     204  # N2-N2_X
    137    1     205     206  # N2-N2_X
    138    1     206     207  # N2-N2_X
    139    1     208     209  # N2-N2_X
    140    1     209     210  # N2-N2_X
    141    1     211     212  # N2-N2_X
    142    1     212     213  # N2-N2_X
    143    1     214     215  # N2-N2_X
    144    1     215     216  # N2-N2_X
    145    1     217     218  # N2-N2_X
    146    1     218     219  # N2-N2_X
    147    1     220     221  # N2-N2_X
    148    1     221     222  # N2-N2_X
    149    1     223     224  # N2-N2_X
    150    1     224     225  # N2-N2_X
    151    1     226     227  # N2-N2_X
    152    1     227     228  # N2-N2_X
    153    1     229     230  # N2-N2_X
    154    1     230     231  # N2-N2_X
    155    1     232     233  # N2-N2_X
    156    1     233     234  # N2-N2_X
    157    1     235     236  # N2-N2_X
    158    1     236     237  # N2-N2_X
    159    1     238     239  # N2-N2_X
    160    1     239     240  # N2-N2_X
    161    1     241     242  # N2-N2_X
    162    1     242     243  # N2-N2_X
    163    1     244     245  # N2-N2_X
    164    1     245     246  # N2-N2_X
    165    1     247     248  # N2-N2_X
    166    1     248     249  # N2-N2_X
    167    1     250     251  # N2-N2_X
    168    1     251     252  # N2-N2_X
    169    1     253     254  # N2-N2_X
    170    1     254     255  # N2-N2_X
    171    1     256     257  # N2-N2_X
    172    1     257     258  # N2-N2_X
    173    1     259     260  # N2-N2_X
    174    1     260     261  # N2-N2_X
    175    1     262     263  # N2-N2_X
    176    1     263     264  # N2-N2_X
    177    1     265     266  # N2-N2_X
    178    1     266     267  # N2-N2_X
    179    1     268     269  # N2-N2_X
    180    1     269     270  # N2-N2_X
    181    1     271     272  # N2-N2_X
    182    1     272     273  # N2-N2_X
    183    1     274     275  # N2-N2_X
    184    1     275     276  # N2-N2_X
    185    1     277     278  # N2-N2_X
    186    1     278     279  # N2-N2_X
    187    1     280     281  # N2-N2_X
    188    1     281     282  # N2-N2_X
    189    1     283     284  # N2-N2_X
    190    1     284     285  # N2-N2_X
    191    1     286     287  # N2-N2_X
    192    1     287     288  # N2-N2_X
    193    1     289     290  # N2-N2_X
    194    1     290     291  # N2-N2_X
    195    1     292     293  # N2-N2_X
    196    1     293     294  # N2-N2_X
    197    1     295     296  # N2-N2_X
    198    1     296     297  # N2-N2_X
    199    1     298     299  # N2-N2_X
    200    1     299     300  # N2-N2_X
    201    1     301     302  # N2-N2_X
    202    1     302     303  # N2-N2_X
    203    1     304     305  # N2-N2_X
    204    1     305     306  # N2-N2_X
    205    1     307     308  # N2-N2_X
    206    1     308     309  # N2-N2_X
    207    1     310     311  # N2-N2_X
    208    1     311     312  # N2-N2_X
    209    1     313     314  # N2-N2_X
    210    1     314     315  # N2-N2_X
    211    1     316     317  # N2-N2_X
    212    1     317     318  # N2-N2_X
    213    1     319     320  # N2-N2_X
    214    1     320     321  # N2-N2_X
    215    1     322     323  # N2-N2_X
    216    1     323     324  # N2-N2_X
    217    1     325     326  # N2-N2_X
    218    1     326     327  # N2-N2_X
    219    1     328     329  # N2-N2_X
    220    1     329     330  # N2-N2_X
    221    1     331     332  # N2-N2_X
    222    1     332     333  # N2-N2_X
    223    1     334     335  # N2-N2_X
    224    1     335     336  # N2-N2_X
    225    1     337     338  # N2-N2_X
    226    1     338     339  # N2-N2_X
    227    1     340     341  # N2-N2_X
    228    1     341     342  # N2-N2_X
    229    1     343     344  # N2-N2_X
    230    1     344     345  # N2-N2_X
    231    1     346     347  # N2-N2_X
    232    1     347     348  # N2-N2_X
    233    1     349     350  # N2-N2_X
    234    1     350     351  # N2-N2_X
    235    1     352     353  # N2-N2_X
    236    1     353     354  # N2-N2_X
    237    1     355     356  # N2-N2_X
    238    1     356     357  # N2-N2_X
    239    1     358     359  # N2-N2_X
    240    1     359     360  # N2-N2_X
    241    1     361     362  # N2-N2_X
    242    1     362     363  # N2-N2_X
    243    1     364     365  # N2-N2_X
    244    1     365     366  # N2-N2_X
    245    1     367     368  # N2-N2_X
    246    1     368     369  # N2-N2_X
    247    1     370     371  # N2-N2_X
    248    1     371     372  # N2-N2_X
    249    1     373     374  # N2-N2_X
    250    1     374     375  # N2-N2_X
    251    1     376     377  # N2-N2_X
    252    1     377     378  # N2-N2_X
    253    1     379     380  # N2-N2_X
    254    1     380     381  # N2-N2_X
    255    1     382     383  # N2-N2_X
    256    1     383     384  # N2-N2_X
    257    1     385     386  # N2-N2_X
    258    1     386     387  # N2-N2_X
    259    1     388     389  # N2-N2_X
    260    1     389     390  # N2-N2_X
    261    1     391     392  # N2-N2_X
    262    1     392     393  # N2-N2_X
    263    1     394     395  # N2-N2_X
    264    1     395     396  # N2-N2_X
    265    1     397     398  # N2-N2_X
    266    1     398     399  # N2-N2_X
    267    1     400     401  # N2-N2_X
    268    1     401     402  # N2-N2_X
    269    1     403     404  # N2-N2_X
    270    1     404     405  # N2-N2_X
    271    1     406     407  # N2-N2_X
    272    1     407     408  # N2-N2_X
    273    1     409     410  # N2-N2_X
    274    1     410     411  # N2-N2_X
    275    1     412     413  # N2-N2_X
    276    1     413     414  # N2-N2_X
    277    1     415     416  # N2-N2_X
    278    1     416     417  # N2-N2_X
    279    1     418     419  # N2-N2_X
    280    1     419     420  # N2-N2_X
    281    1     421     422  # N2-N2_X
    282    1     422     423  # N2-N2_X
    283    1     424     425  # N2-N2_X
    284    1     425     426  # N2-N2_X
    285    1     427     428  # N2-N2_X
    286    1     428     429  # N2-N2_X
    287    1     430     431  # N2-N2_X
    288    1     431     432  # N2-N2_X
    289    1     433     434  # N2-N2_X
    290    1     434     435  # N2-N2_X
    291    1     436     437  # N2-N2_X
    292    1     437     438  # N2-N2_X
    293    1     439     440  # N2-N2_X
    294    1     440     441  # N2-N2_X
    295    1     442     443  # N2-N2_X
    296    1     443     444  # N2-N2_X
    297    1     445     446  # N2-N2_X
    298    1     446     447  # N2-N2_X
    299    1     448     449  # N2-N2_X
    300    1     449     450  # N2-N2_X
    301    1     451     452  # N2-N2_X
    302    1     452     453  # N2-N2_X
    303    1     454     455  # N2-N2_X
    304    1     455     456  # N2-N2_X
    305    1     457     458  # N2-N2_X
    306    1     458     459  # N2-N2_X
    307    1     460     461  # N2-N2_X
    308    1     461     462  # N2-N2_X
    309    1     463     464  # N2-N2_X
    310    1     464     465  # N2-N2_X
    311    1     466     467  # N2-N2_X
    312    1     467     468  # N2-N2_X
    313    1     469     470  # N2-N2_X
    314    1     470     471  # N2-N2_X
    315    1     472     473  # N2-N2_X
    316    1     473     474  # N2-N2_X
    317    1     475     476  # N2-N2_X
    318    1     476     477  # N2-N2_X
    319    1     478     479  # N2-N2_X
    320    1     479     480  # N2-N2_X
    321    1     481     482  # N2-N2_X
    322    1     482     483  # N2-N2_X
    323    1     484     485  # N2-N2_X
    324    1     485     486  # N2-N2_X
    325    1     487     488  # N2-N2_X
    326    1     488     489  # N2-N2_X
    327    1     490     491  # N2-N2_X
    328    1     491     492  # N2-N2_X
    329    1     493     494  # N2-N2_X
    330    1     494     495  # N2-N2_X
    331    1     496     497  # N2-N2_X
    332    1     497     498  # N2-N2_X
    333    1     499     500  # N2-N2_X
    334    1     500     501  # N2-N2_X
    335    1     502     503  # N2-N2_X
    336    1     503     504  # N2-N2_X
    337    1     505     506  # N2-N2_X
    338    1     506     507  # N2-N2_X
    339    1     508     509  # N2-N2_X
    340    1     509     510  # N2-N2_X
    341    1     511     512  # N2-N2_X
    342    1     512     513  # N2-N2_X
    343    1     514     515  # N2-N2_X
    344    1     515     516  # N2-N2_X
    345    1     517     518  # N2-N2_X
    346    1     518     519  # N2-N2_X
    347    1     520     521  # N2-N2_X
    348    1     521     522  # N2-N2_X
    349    1     523     524  # N2-N2_X
    350    1     524     525  # N2-N2_X
    351    1     526     527  # N2-N2_X
    352    1     527     528  # N2-N2_X
    353    1     529     530  # N2-N2_X
    354    1     530     531  # N2-N2_X
    355    1     532     533  # N2-N2_X
    356    1     533     534  # N2-N2_X
    357    1     535     536  # N2-N2_X
    358    1     536     537  # N2-N2_X
    359    1     538     539  # N2-N2_X
    360    1     539     540  # N2-N2_X
    361    1     541     542  # N2-N2_X
    362    1     542     543  # N2-N2_X
    363    1     544     545  # N2-N2_X
    364    1     545     546  # N2-N2_X
    365    1     547     548  # N2-N2_X
    366    1     548     549  # N2-N2_X
    367    1     550     551  # N2-N2_X
    368    1     551     552  # N2-N2_X
    369    1     553     554  # N2-N2_X
    370    1     554     555  # N2-N2_X
    371    1     556     557  # N2-N2_X
    372    1     557     558  # N2-N2_X
    373    1     559     560  # N2-N2_X
    374    1     560     561  # N2-N2_X
    375    1     562     563  # N2-N2_X
    376    1     563     564  # N2-N2_X
    377    1     565     566  # N2-N2_X
    378    1     566     567  # N2-N2_X
    379    1     568     569  # N2-N2_X
    380    1     569     570  # N2-N2_X
    381    1     571     572  # N2-N2_X
    382    1     572     573  # N2-N2_X
    383    1     574     575  # N2-N2_X
    384    1     575     576  # N2-N2_X
    385    1     577     578  # N2-N2_X
    386    1     578     579  # N2-N2_X
    387    1     580     581  # N2-N2_X
    388    1     581     582  # N2-N2_X
    389    1     583     584  # N2-N2_X
    390    1     584     585  # N2-N2_X
    391    1     586     587  # N2-N2_X
    392    1     587     588  # N2-N2_X
    393    1     589     590  # N2-N2_X
    394    1     590     591  # N2-N2_X
    395    1     592     593  # N2-N2_X
    396    1     593     594  # N2-N2_X
    397    1     595     596  # N2-N2_X
    398    1     596     597  # N2-N2_X
    399    1     598     599  # N2-N2_X
    400    1     599     600  # N2-N2_X
    401    1     601     602  # N2-N2_X
    402    1     602     603  # N2-N2_X
    403    1     604     605  # N2-N2_X
    404    1     605     606  # N2-N2_X
    405    1     607     608  # N2-N2_X
    406    1     608     609  # N2-N2_X
    407    1     610     611  # N2-N2_X
    408    1     611     612  # N2-N2_X
    409    1     613     614  # N2-N2_X
    410    1     614     615  # N2-N2_X
    411    1     616     617  # N2-N2_X
    412    1     617     618  # N2-N2_X
    413    1     619     620  # N2-N2_X
    414    1     620     621  # N2-N2_X
    415    1     622     623  # N2-N2_X
    416    1     623     624  # N2-N2_X
    417    1     625     626  # N2-N2_X
    418    1     626     627  # N2-N2_X
    419    1     628     629  # N2-N2_X
    420    1     629     630  # N2-N2_X
    421    1     631     632  # N2-N2_X
    422    1     632     633  # N2-N2_X
    423    1     634     635  # N2-N2_X
    424    1     635     636  # N2-N2_X
    425    1     637     638  # N2-N2_X
    426    1     638     639  # N2-N2_X
    427    1     640     641  # N2-N2_X
    428    1     641     642  # N2-N2_X
    429    1     643     644  # N2-N2_X
    430    1     644     645  # N2-N2_X
    431    1     646     647  # N2-N2_X
    432    1     647     648  # N2-N2_X
    433    1     649     650  # N2-N2_X
    434    1     650     651  # N2-N2_X
    435    1     652     653  # N2-N2_X
    436    1     653     654  # N2-N2_X
    437    1     655     656  # N2-N2_X
    438    1     656     657  # N2-N2_X
    439    1     658     659  # N2-N2_X
    440    1     659     660  # N2-N2_X
    441    1     661     662  # N2-N2_X
    442    1     662     663  # N2-N2_X
    443    1     664     665  # N2-N2_X
    444    1     665     666  # N2-N2_X
    445    1     667     668  # N2-N2_X
    446    1     668     669  # N2-N2_X
    447    1     670     671  # N2-N2_X
    448    1     671     672  # N2-N2_X
    449    1     673     674  # N2-N2_X
    450    1     674     675  # N2-N2_X
    451    1     676     677  # N2-N2_X
    452    1     677     678  # N2-N2_X
    453    1     679     680  # N2-N2_X
    454    1     680     681  # N2-N2_X
    455    1     682     683  # N2-N2_X
    456    1     683     684  # N2-N2_X
    457    1     685     686  # N2-N2_X
    458    1     686     687  # N2-N2_X
    459    1     688     689  # N2-N2_X
    460    1     689     690  # N2-N2_X
    461    1     691     692  # N2-N2_X
    462    1     692     693  # N2-N2_X
    463    1     694     695  # N2-N2_X
    464    1     695     696  # N2-N2_X
    465    1     697     698  # N2-N2_X
    466    1     698     699  # N2-N2_X
    467    1     700     701  # N2-N2_X
    468    1     701     702  # N2-N2_X
    469    1     703     704  # N2-N2_X
    470    1     704     705  # N2-N2_X
    471    1     706     707  # N2-N2_X
    472    1     707     708  # N2-N2_X
    473    1     709     710  # N2-N2_X
    474    1     710     711  # N2-N2_X
    475    1     712     713  # N2-N2_X
    476    1     713     714  # N2-N2_X
    477    1     715     716  # N2-N2_X
    478    1     716     717  # N2-N2_X
    479    1     718     719  # N2-N2_X
    480    1     719     720  # N2-N2_X
    481    1     721     722  # N2-N2_X
    482    1     722     723  # N2-N2_X
    483    1     724     725  # N2-N2_X
    484    1     725     726  # N2-N2_X
    485    1     727     728  # N2-N2_X
    486    1     728     729  # N2-N2_X
    487    1     730     731  # N2-N2_X
    488    1     731     732  # N2-N2_X
    489    1     733     734  # N2-N2_X
    490    1     734     735  # N2-N2_X
    491    1     736     737  # N2-N2_X
    492    1     737     738  # N2-N2_X
    493    1     739     740  # N2-N2_X
    494    1     740     741  # N2-N2_X
    495    1     742     743  # N2-N2_X
    496    1     743     744  # N2-N2_X
    497    1     745     746  # N2-N2_X
    498    1     746     747  # N2-N2_X
    499    1     748     749  # N2-N2_X
    500    1     749     750  # N2-N2_X
    501    1     751     752  # N2-N2_X
    502    1     752     753  # N2-N2_X
    503    1     754     755  # N2-N2_X
    504    1     755     756  # N2-N2_X
    505    1     757     758  # N2-N2_X
    506    1     758     759  # N2-N2_X
    507    1     760     761  # N2-N2_X
    508    1     761     762  # N2-N2_X
    509    1     763     764  # N2-N2_X
    510    1     764     765  # N2-N2_X
    511    1     766     767  # N2-N2_X
    512    1     767     768  # N2-N2_X
    513    1     769     770  # N2-N2_X
    514    1     770     771  # N2-N2_X
    515    1     772     773  # N2-N2_X
    516    1     773     774  # N2-N2_X
    517    1     775     776  # N2-N2_X
    518    1     776     777  # N2-N2_X
    519    1     778     779  # N2-N2_X
    520    1     779     780  # N2-N2_X
    521    1     781     782  # N2-N2_X
    522    1     782     783  # N2-N2_X
    523    1     784     785  # N2-N2_X
    524    1     785     786  # N2-N2_X
    525    1     787     788  # N2-N2_X
    526    1     788     789  # N2-N2_X
    527    1     790     791  # N2-N2_X
    528    1     791     792  # N2-N2_X
    529    1     793     794  # N2-N2_X
    530    1     794     795  # N2-N2_X
    531    1     796     797  # N2-N2_X
    532    1     797     798  # N2-N2_X
    533    1     799     800  # N2-N2_X
    534    1     800     801  # N2-N2_X
    535    1     802     803  # N2-N2_X
    536    1     803     804  # N2-N2_X
    537    1     805     806  # N2-N2_X
    538    1     806     807  # N2-N2_X
    539    1     808     809  # N2-N2_X
    540    1     809     810  # N2-N2_X
    541    1     811     812  # N2-N2_X
    542    1     812     813  # N2-N2_X
    543    1     814     815  # N2-N2_X
    544    1     815     816  # N2-N2_X
    545    1     817     818  # N2-N2_X
    546    1     818     819  # N2-N2_X
    547    1     820     821  # N2-N2_X
    548    1     821     822  # N2-N2_X
    549    1     823     824  # N2-N2_X
    550    1     824     825  # N2-N2_X
    551    1     826     827  # N2-N2_X
    552    1     827     828  # N2-N2_X
    553    1     829     830  # N2-N2_X
    554    1     830     831  # N2-N2_X
    555    1     832     833  # N2-N2_X
    556    1     833     834  # N2-N2_X
    557    1     835     836  # N2-N2_X
    558    1     836     837  # N2-N2_X
    559    1     838     839  # N2-N2_X
    560    1     839     840  # N2-N2_X
    561    1     841     842  # N2-N2_X
    562    1     842     843  # N2-N2_X
    563    1     844     845  # N2-N2_X
    564    1     845     846  # N2-N2_X
    565    1     847     848  # N2-N2_X
    566    1     848     849  # N2-N2_X
    567    1     850     851  # N2-N2_X
    568    1     851     852  # N2-N2_X
    569    1     853     854  # N2-N2_X
    570    1     854     855  # N2-N2_X
    571    1     856     857  # N2-N2_X
    572    1     857     858  # N2-N2_X
    573    1     859     860  # N2-N2_X
    574    1     860     861  # N2-N2_X
    575    1     862     863  # N2-N2_X
    576    1     863     864  # N2-N2_X
    577    1     865     866  # N2-N2_X
    578    1     866     867  # N2-N2_X
    579    1     868     869  # N2-N2_X
    580    1     869     870  # N2-N2_X
    581    1     871     872  # N2-N2_X
    582    1     872     873  # N2-N2_X
    583    1     874     875  # N2-N2_X
    584    1     875     876  # N2-N2_X
    585    1     877     878  # N2-N2_X
    586    1     878     879  # N2-N2_X
    587    1     880     881  # N2-N2_X
    588    1     881     882  # N2-N2_X
    589    1     883     884  # N2-N2_X
    590    1     884     885  # N2-N2_X
    591    1     886     887  # N2-N2_X
    592    1     887     888  # N2-N2_X
    593    1     889     890  # N2-N2_X
    594    1     890     891  # N2-N2_X
    595    1     892     893  # N2-N2_X
    596    1     893     894  # N2-N2_X
    597    1     895     896  # N2-N2_X
    598    1     896     897  # N2-N2_X
    599    1     898     899  # N2-N2_X
    600    1     899     900  # N2-N2_X
    601    1     901     902  # N2-N2_X
    602    1     902     903  # N2-N2_X
    603    1     904     905  # N2-N2_X
    604    1     905     906  # N2-N2_X
    605    1     907     908  # N2-N2_X
    606    1     908     909  # N2-N2_X
    607    1     910     911  # N2-N2_X
    608    1     911     912  # N2-N2_X
    609    1     913     914  # N2-N2_X
    610    1     914     915  # N2-N2_X
    611    1     916     917  # N2-N2_X
    612    1     917     918  # N2-N2_X
    613    1     919     920  # N2-N2_X
    614    1     920     921  # N2-N2_X
    615    1     922     923  # N2-N2_X
    616    1     923     924  # N2-N2_X
    617    1     925     926  # N2-N2_X
    618    1     926     927  # N2-N2_X
    619    1     928     929  # N2-N2_X
    620    1     929     930  # N2-N2_X
    621    1     931     932  # N2-N2_X
    622    1     932     933  # N2-N2_X
    623    1     934     935  # N2-N2_X
    624    1     935     936  # N2-N2_X
    625    1     937     938  # N2-N2_X
    626    1     938     939  # N2-N2_X
    627    1     940     941  # N2-N2_X
    628    1     941     942  # N2-N2_X
    629    1     943     944  # N2-N2_X
    630    1     944     945  # N2-N2_X
    631    1     946     947  # N2-N2_X
    632    1     947     948  # N2-N2_X
    633    1     949     950  # N2-N2_X
    634    1     950     951  # N2-N2_X
    635    1     952     953  # N2-N2_X
    636    1     953     954  # N2-N2_X
    637    1     955     956  # N2-N2_X
    638    1     956     957  # N2-N2_X
    639    1     958     959  # N2-N2_X
    640    1     959     960  # N2-N2_X
    641    1     961     962  # N2-N2_X
    642    1     962     963  # N2-N2_X
    643    1     964     965  # N2-N2_X
    644    1     965     966  # N2-N2_X
    645    1     967     968  # N2-N2_X
    646    1     968     969  # N2-N2_X
    647    1     970     971  # N2-N2_X
    648    1     971     972  # N2-N2_X
    649    1     973     974  # N2-N2_X
    650    1     974     975  # N2-N2_X
    651    1     976     977  # N2-N2_X
    652    1     977     978  # N2-N2_X
    653    1     979     980  # N2-N2_X
    654    1     980     981  # N2-N2_X
    655    1     982     983  # N2-N2_X
    656    1     983     984  # N2-N2_X
    657    1     985     986  # N2-N2_X
    658    1     986     987  # N2-N2_X
    659    1     988     989  # N2-N2_X
    660    1     989     990  # N2-N2_X
    661    1     991     992  # N2-N2_X
    662    1     992     993  # N2-N2_X
    663    1     994     995  # N2-N2_X
    664    1     995     996  # N2-N2_X
    665    1     997     998  # N2-N2_X
    666    1     998     999  # N2-N2_X
    667    1    1000    1001  # N2-N2_X
    668    1    1001    1002  # N2-N2_X
    669    1    1003    1004  # N2-N2_X
    670    1    1004    1005  # N2-N2_X
    671    1    1006    1007  # N2-N2_X
    672    1    1007    1008  # N2-N2_X
    673    1    1009    1010  # N2-N2_X
    674    1    1010    1011  # N2-N2_X
    675    1    1012    1013  # N2-N2_X
    676    1    1013    1014  # N2-N2_X
    677    1    1015    1016  # N2-N2_X
    678    1    1016    1017  # N2-N2_X
    679    1    1018    1019  # N2-N2_X
    680    1    1019    1020  # N2-N2_X
    681    1    1021    1022  # N2-N2_X
    682    1    1022    1023  # N2-N2_X
    683    1    1024    1025  # N2-N2_X
    684    1    1025    1026  # N2-N2_X
    685    1    1027    1028  # N2-N2_X
    686    1    1028    1029  # N2-N2_X
    687    1    1030    1031  # N2-N2_X
    688    1    1031    1032  # N2-N2_X
    689    1    1033    1034  # N2-N2_X
    690    1    1034    1035  # N2-N2_X
    691    1    1036    1037  # N2-N2_X
    692    1    1037    1038  # N2-N2_X
    693    1    1039    1040  # N2-N2_X
    694    1    1040    1041  # N2-N2_X
    695    1    1042    1043  # N2-N2_X
    696    1    1043    1044  # N2-N2_X
    697    1    1045    1046  # N2-N2_X
    698    1    1046    1047  # N2-N2_X
    699    1    1048    1049  # N2-N2_X
    700    1    1049    1050  # N2-N2_X
    701    1    1051    1052  # N2-N2_X
    702    1    1052    1053  # N2-N2_X
    703    1    1054    1055  # N2-N2_X
    704    1    1055    1056  # N2-N2_X
    705    1    1057    1058  # N2-N2_X
    706    1    1058    1059  # N2-N2_X
    707    1    1060    1061  # N2-N2_X
    708    1    1061    1062  # N2-N2_X
    709    1    1063    1064  # N2-N2_X
    710    1    1064    1065  # N2-N2_X
    711    1    1066    1067  # N2-N2_X
    712    1    1067    1068  # N2-N2_X
    713    1    1069    1070  # N2-N2_X
    714    1    1070    1071  # N2-N2_X
    715    1    1072    1073  # N2-N2_X
    716    1    1073    1074  # N2-N2_X
    717    1    1075    1076  # N2-N2_X
    718    1    1076    1077  # N2-N2_X
    719    1    1078    1079  # N2-N2_X
    720    1    1079    1080  # N2-N2_X
    721    1    1081    1082  # N2-N2_X
    722    1    1082    1083  # N2-N2_X
    723    1    1084    1085  # N2-N2_X
    724    1    1085    1086  # N2-N2_X
    725    1    1087    1088  # N2-N2_X
    726    1    1088    1089  # N2-N2_X
    727    1    1090    1091  # N2-N2_X
    728    1    1091    1092  # N2-N2_X
    729    1    1093    1094  # N2-N2_X
    730    1    1094    1095  # N2-N2_X
    731    1    1096    1097  # N2-N2_X
    732    1    1097    1098  # N2-N2_X
    733    1    1099    1100  # N2-N2_X
    734    1    1100    1101  # N2-N2_X
    735    1    1102    1103  # N2-N2_X
    736    1    1103    1104  # N2-N2_X
    737    1    1105    1106  # N2-N2_X
    738    1    1106    1107  # N2-N2_X
    739    1    1108    1109  # N2-N2_X
    740    1    1109    1110  # N2-N2_X
    741    1    1111    1112  # N2-N2_X
    742    1    1112    1113  # N2-N2_X
    743    1    1114    1115  # N2-N2_X
    744    1    1115    1116  # N2-N2_X
    745    1    1117    1118  # N2-N2_X
    746    1    1118    1119  # N2-N2_X
    747    1    1120    1121  # N2-N2_X
    748    1    1121    1122  # N2-N2_X
    749    1    1123    1124  # N2-N2_X
    750    1    1124    1125  # N2-N2_X
    751    1    1126    1127  # N2-N2_X
    752    1    1127    1128  # N2-N2_X
    753    1    1129    1130  # N2-N2_X
    754    1    1130    1131  # N2-N2_X
    755    1    1132    1133  # N2-N2_X
    756    1    1133    1134  # N2-N2_X
    757    1    1135    1136  # N2-N2_X
    758    1    1136    1137  # N2-N2_X
    759    1    1138    1139  # N2-N2_X
    760    1    1139    1140  # N2-N2_X
    761    1    1141    1142  # N2-N2_X
    762    1    1142    1143  # N2-N2_X
    763    1    1144    1145  # N2-N2_X
    764    1    1145    1146  # N2-N2_X
    765    1    1147    1148  # N2-N2_X
    766    1    1148    1149  # N2-N2_X
    767    1    1150    1151  # N2-N2_X
    768    1    1151    1152  # N2-N2_X
    769    1    1153    1154  # N2-N2_X
    770    1    1154    1155  # N2-N2_X
    771    1    1156    1157  # N2-N2_X
    772    1    1157    1158  # N2-N2_X
    773    1    1159    1160  # N2-N2_X
    774    1    1160    1161  # N2-N2_X
    775    1    1162    1163  # N2-N2_X
    776    1    1163    1164  # N2-N2_X
    777    1    1165    1166  # N2-N2_X
    778    1    1166    1167  # N2-N2_X
    779    1    1168    1169  # N2-N2_X
    780    1    1169    1170  # N2-N2_X
    781    1    1171    1172  # N2-N2_X
    782    1    1172    1173  # N2-N2_X
    783    1    1174    1175  # N2-N2_X
    784    1    1175    1176  # N2-N2_X
    785    1    1177    1178  # N2-N2_X
    786    1    1178    1179  # N2-N2_X
    787    1    1180    1181  # N2-N2_X
    788    1    1181    1182  # N2-N2_X
    789    1    1183    1184  # N2-N2_X
    790    1    1184    1185  # N2-N2_X
    791    1    1186    1187  # N2-N2_X
    792    1    1187    1188  # N2-N2_X
    793    1    1189    1190  # N2-N2_X
    794    1    1190    1191  # N2-N2_X
    795    1    1192    1193  # N2-N2_X
    796    1    1193    1194  # N2-N2_X
    797    1    1195    1196  # N2-N2_X
    798    1    1196    1197  # N2-N2_X
    799    1    1198    1199  # N2-N2_X
    800    1    1199    1200  # N2-N2_X
    801    1    1201    1202  # N2-N2_X
    802    1    1202    1203  # N2-N2_X
    803    1    1204    1205  # N2-N2_X
    804    1    1205    1206  # N2-N2_X
    805    1    1207    1208  # N2-N2_X
    806    1    1208    1209  # N2-N2_X
    807    1    1210    1211  # N2-N2_X
    808    1    1211    1212  # N2-N2_X
    809    1    1213    1214  # N2-N2_X
    810    1    1214    1215  # N2-N2_X
    811    1    1216    1217  # N2-N2_X
    812    1    1217    1218  # N2-N2_X
    813    1    1219    1220  # N2-N2_X
    814    1    1220    1221  # N2-N2_X
    815    1    1222    1223  # N2-N2_X
    816    1    1223    1224  # N2-N2_X
    817    1    1225    1226  # N2-N2_X
    818    1    1226    1227  # N2-N2_X
    819    1    1228    1229  # N2-N2_X
    820    1    1229    1230  # N2-N2_X
    821    1    1231    1232  # N2-N2_X
    822    1    1232    1233  # N2-N2_X
    823    1    1234    1235  # N2-N2_X
    824    1    1235    1236  # N2-N2_X
    825    1    1237    1238  # N2-N2_X
    826    1    1238    1239  # N2-N2_X
    827    1    1240    1241  # N2-N2_X
    828    1    1241    1242  # N2-N2_X
    829    1    1243    1244  # N2-N2_X
    830    1    1244    1245  # N2-N2_X
    831    1    1246    1247  # N2-N2_X
    832    1    1247    1248  # N2-N2_X
    833    1    1249    1250  # N2-N2_X
    834    1    1250    1251  # N2-N2_X
    835    1    1252    1253  # N2-N2_X
    836    1    1253    1254  # N2-N2_X
    837    1    1255    1256  # N2-N2_X
    838    1    1256    1257  # N2-N2_X
    839    1    1258    1259  # N2-N2_X
    840    1    1259    1260  # N2-N2_X
    841    1    1261    1262  # N2-N2_X
    842    1    1262    1263  # N2-N2_X
    843    1    1264    1265  # N2-N2_X
    844    1    1265    1266  # N2-N2_X
    845    1    1267    1268  # N2-N2_X
    846    1    1268    1269  # N2-N2_X
    847    1    1270    1271  # N2-N2_X
    848    1    1271    1272  # N2-N2_X
    849    1    1273    1274  # N2-N2_X
    850    1    1274    1275  # N2-N2_X
    851    1    1276    1277  # N2-N2_X
    852    1    1277    1278  # N2-N2_X
    853    1    1279    1280  # N2-N2_X
    854    1    1280    1281  # N2-N2_X
    855    1    1282    1283  # N2-N2_X
    856    1    1283    1284  # N2-N2_X
    857    1    1285    1286  # N2-N2_X
    858    1    1286    1287  # N2-N2_X
    859    1    1288    1289  # N2-N2_X
    860    1    1289    1290  # N2-N2_X
    861    1    1291    1292  # N2-N2_X
    862    1    1292    1293  # N2-N2_X
    863    1    1294    1295  # N2-N2_X
    864    1    1295    1296  # N2-N2_X
    865    1    1297    1298  # N2-N2_X
    866    1    1298    1299  # N2-N2_X
    867    1    1300    1301  # N2-N2_X
    868    1    1301    1302  # N2-N2_X
    869    1    1303    1304  # N2-N2_X
    870    1    1304    1305  # N2-N2_X
    871    1    1306    1307  # N2-N2_X
    872    1    1307    1308  # N2-N2_X
    873    1    1309    1310  # N2-N2_X
    874    1    1310    1311  # N2-N2_X
    875    1    1312    1313  # N2-N2_X
    876    1    1313    1314  # N2-N2_X
    877    1    1315    1316  # N2-N2_X
    878    1    1316    1317  # N2-N2_X
    879    1    1318    1319  # N2-N2_X
    880    1    1319    1320  # N2-N2_X
    881    1    1321    1322  # N2-N2_X
    882    1    1322    1323  # N2-N2_X
    883    1    1324    1325  # N2-N2_X
    884    1    1325    1326  # N2-N2_X
    885    1    1327    1328  # N2-N2_X
    886    1    1328    1329  # N2-N2_X
    887    1    1330    1331  # N2-N2_X
    888    1    1331    1332  # N2-N2_X
    889    1    1333    1334  # N2-N2_X
    890    1    1334    1335  # N2-N2_X
    891    1    1336    1337  # N2-N2_X
    892    1    1337    1338  # N2-N2_X
    893    1    1339    1340  # N2-N2_X
    894    1    1340    1341  # N2-N2_X
    895    1    1342    1343  # N2-N2_X
    896    1    1343    1344  # N2-N2_X
    897    1    1345    1346  # N2-N2_X
    898    1    1346    1347  # N2-N2_X
    899    1    1348    1349  # N2-N2_X
    900    1    1349    1350  # N2-N2_X
    901    1    1351    1352  # N2-N2_X
    902    1    1352    1353  # N2-N2_X
    903    1    1354    1355  # N2-N2_X
    904    1    1355    1356  # N2-N2_X
    905    1    1357    1358  # N2-N2_X
    906    1    1358    1359  # N2-N2_X
    907    1    1360    1361  # N2-N2_X
    908    1    1361    1362  # N2-N2_X
    909    1    1363    1364  # N2-N2_X
    910    1    1364    1365  # N2-N2_X
    911    1    1366    1367  # N2-N2_X
    912    1    1367    1368  # N2-N2_X
    913    1    1369    1370  # N2-N2_X
    914    1    1370    1371  # N2-N2_X
    915    1    1372    1373  # N2-N2_X
    916    1    1373    1374  # N2-N2_X
    917    1    1375    1376  # N2-N2_X
    918    1    1376    1377  # N2-N2_X
    919    1    1378    1379  # N2-N2_X
    920    1    1379    1380  # N2-N2_X
    921    1    1381    1382  # N2-N2_X
    922    1    1382    1383  # N2-N2_X
    923    1    1384    1385  # N2-N2_X
    924    1    1385    1386  # N2-N2_X
    925    1    1387    1388  # N2-N2_X
    926    1    1388    1389  # N2-N2_X
    927    1    1390    1391  # N2-N2_X
    928    1    1391    1392  # N2-N2_X
    929    1    1393    1394  # N2-N2_X
    930    1    1394    1395  # N2-N2_X
    931    1    1396    1397  # N2-N2_X
    932    1    1397    1398  # N2-N2_X
    933    1    1399    1400  # N2-N2_X
    934    1    1400    1401  # N2-N2_X
    935    1    1402    1403  # N2-N2_X
    936    1    1403    1404  # N2-N2_X
    937    1    1405    1406  # N2-N2_X
    938    1    1406    1407  # N2-N2_X
    939    1    1408    1409  # N2-N2_X
    940    1    1409    1410  # N2-N2_X
    941    1    1411    1412  # N2-N2_X
    942    1    1412    1413  # N2-N2_X
    943    1    1414    1415  # N2-N2_X
    944    1    1415    1416  # N2-N2_X
    945    1    1417    1418  # N2-N2_X
    946    1    1418    1419  # N2-N2_X
    947    1    1420    1421  # N2-N2_X
    948    1    1421    1422  # N2-N2_X
    949    1    1423    1424  # N2-N2_X
    950    1    1424    1425  # N2-N2_X
    951    1    1426    1427  # N2-N2_X
    952    1    1427    1428  # N2-N2_X
    953    1    1429    1430  # N2-N2_X
    954    1    1430    1431  # N2-N2_X
    955    1    1432    1433  # N2-N2_X
    956    1    1433    1434  # N2-N2_X
    957    1    1435    1436  # N2-N2_X
    958    1    1436    1437  # N2-N2_X
    959    1    1438    1439  # N2-N2_X
    960    1    1439    1440  # N2-N2_X
    961    1    1441    1442  # N2-N2_X
    962    1    1442    1443  # N2-N2_X
    963    1    1444    1445  # N2-N2_X
    964    1    1445    1446  # N2-N2_X
    965    1    1447    1448  # N2-N2_X
    966    1    1448    1449  # N2-N2_X
    967    1    1450    1451  # N2-N2_X
    968    1    1451    1452  # N2-N2_X
    969    1    1453    1454  # N2-N2_X
    970    1    1454    1455  # N2-N2_X
    971    1    1456    1457  # N2-N2_X
    972    1    1457    1458  # N2-N2_X
    973    1    1459    1460  # N2-N2_X
    974    1    1460    1461  # N2-N2_X
    975    1    1462    1463  # N2-N2_X
    976    1    1463    1464  # N2-N2_X
    977    1    1465    1466  # N2-N2_X
    978    1    1466    1467  # N2-N2_X
    979    1    1468    1469  # N2-N2_X
    980    1    1469    1470  # N2-N2_X
    981    1    1471    1472  # N2-N2_X
    982    1    1472    1473  # N2-N2_X
    983    1    1474    1475  # N2-N2_X
    984    1    1475    1476  # N2-N2_X
    985    1    1477    1478  # N2-N2_X
    986    1    1478    1479  # N2-N2_X
    987    1    1480    1481  # N2-N2_X
    988    1    1481    1482  # N2-N2_X
    989    1    1483    1484  # N2-N2_X
    990    1    1484    1485  # N2-N2_X
    991    1    1486    1487  # N2-N2_X
    992    1    1487    1488  # N2-N2_X
    993    1    1489    1490  # N2-N2_X
    994    1    1490    1491  # N2-N2_X
    995    1    1492    1493  # N2-N2_X
    996    1    1493    1494  # N2-N2_X
    997    1    1495    1496  # N2-N2_X
    998    1    1496    1497  # N2-N2_X
    999    1    1498    1499  # N2-N2_X
   1000    1    1499    1500  # N2-N2_X

Angles

      1    1       1       2       3  # N2-N2_X-N2
      2    1       4       5       6  # N2-N2_X-N2
      3    1       7       8       9  # N2-N2_X-N2
      4    1      10      11      12  # N2-N2_X-N2
      5    1      13      14      15  # N2-N2_X-N2
      6    1      16      17      18  # N2-N2_X-N2
      7    1      19      20      21  # N2-N2_X-N2
      8    1      22      23      24  # N2-N2_X-N2
      9    1      25      26      27  # N2-N2_X-N2
     10    1      28      29      30  # N2-N2_X-N2
     11    1      31      32      33  # N2-N2_X-N2
     12    1      34      35      36  # N2-N2_X-N2
     13    1      37      38      39  # N2-N2_X-N2
     14    1      40      41      42  # N2-N2_X-N2
     15    1      43      44      45  # N2-N2_X-N2
     16    1      46      47      48  # N2-N2_X-N2
     17    1      49      50      51  # N2-N2_X-N2
     18    1      52      53      54  # N2-N2_X-N2
     19    1      55      56      57  # N2-N2_X-N2
     20    1      58      59      60  # N2-N2_X-N2
     21    1      61      62      63  # N2-N2_X-N2
     22    1      64      65      66  # N2-N2_X-N2
     23    1      67      68      69  # N2-N2_X-N2
     24    1      70      71      72  # N2-N2_X-N2
     25    1      73      74      75  # N2-N2_X-N2
     26    1      76      77      78  # N2-N2_X-N2
     27    1      79      80      81  # N2-N2_X-N2
     28    1      82      83      84  # N2-N2_X-N2
     29    1      85      86      87  # N2-N2_X-N2
     30    1      88      89      90  # N2-N2_X-N2
     31    1      91      92      93  # N2-N2_X-N2
     32    1      94      95      96  # N2-N2_X-N2
     33    1      97      98      99  # N2-N2_X-N2
     34    1     100     101     102  # N2-N2_X-N2
     35    1     103     104     105  # N2-N2_X-N2
     36    1     106     107     108  # N2-N2_X-N2
     37    1     109     110     111  # N2-N2_X-N2
     38    1     112     113     114  # N2-N2_X-N2
     39    1     115     116     117  # N2-N2_X-N2
     40    1     118     119     120  # N2-N2_X-N2
     41    1     121     122     123  # N2-N2_X-N2
     42    1     124     125     126  # N2-N2_X-N2
     43    1     127     128     129  # N2-N2_X-N2
     44    1     130     131     132  # N2-N2_X-N2
     45    1     133     134     135  # N2-N2_X-N2
     46    1     136     137     138  # N2-N2_X-N2
     47    1     139     140     141  # N2-N2_X-N2
     48    1     142     143     144  # N2-N2_X-N2
     49    1     145     146     147  # N2-N2_X-N2
     50    1     148     149     150  # N2-N2_X-N2
     51    1     151     152     153  # N2-N2_X-N2
     52    1     154     155     156  # N2-N2_X-N2
     53    1     157     158     159  # N2-N2_X-N2
     54    1     160     161     162  # N2-N2_X-N2
     55    1     163     164     165  # N2-N2_X-N2
     56    1     166     167     168  # N2-N2_X-N2
     57    1     169     170     171  # N2-N2_X-N2
     58    1     172     173     174  # N2-N2_X-N2
     59    1     175     176     177  # N2-N2_X-N2
     60    1     178     179     180  # N2-N2_X-N2
     61    1     181     182     183  # N2-N2_X-N2
     62    1     184     185     186  # N2-N2_X-N2
     63    1     187     188     189  # N2-N2_X-N2
     64    1     190     191     192  # N2-N2_X-N2
     65    1     193     194     195  # N2-N2_X-N2
     66    1     196     197     198  # N2-N2_X-N2
     67    1     199     200     201  # N2-N2_X-N2
     68    1     202     203     204  # N2-N2_X-N2
     69    1     205     206     207  # N2-N2_X-N2
     70    1     208     209     210  # N2-N2_X-N2
     71    1     211     212     213  # N2-N2_X-N2
     72    1     214     215     216  # N2-N2_X-N2
     73    1     217     218     219  # N2-N2_X-N2
     74    1     220     221     222  # N2-N2_X-N2
     75    1     223     224     225  # N2-N2_X-N2
     76    1     226     227     228  # N2-N2_X-N2
     77    1     229     230     231  # N2-N2_X-N2
     78    1     232     233     234  # N2-N2_X-N2
     79    1     235     236     237  # N2-N2_X-N2
     80    1     238     239     240  # N2-N2_X-N2
     81    1     241     242     243  # N2-N2_X-N2
     82    1     244     245     246  # N2-N2_X-N2
     83    1     247     248     249  # N2-N2_X-N2
     84    1     250     251     252  # N2-N2_X-N2
     85    1     253     254     255  # N2-N2_X-N2
     86    1     256     257     258  # N2-N2_X-N2
     87    1     259     260     261  # N2-N2_X-N2
     88    1     262     263     264  # N2-N2_X-N2
     89    1     265     266     267  # N2-N2_X-N2
     90    1     268     269     270  # N2-N2_X-N2
     91    1     271     272     273  # N2-N2_X-N2
     92    1     274     275     276  # N2-N2_X-N2
     93    1     277     278     279  # N2-N2_X-N2
     94    1     280     281     282  # N2-N2_X-N2
     95    1     283     284     285  # N2-N2_X-N2
     96    1     286     287     288  # N2-N2_X-N2
     97    1     289     290     291  # N2-N2_X-N2
     98    1     292     293     294  # N2-N2_X-N2
     99    1     295     296     297  # N2-N2_X-N2
    100    1     298     299     300  # N2-N2_X-N2
    101    1     301     302     303  # N2-N2_X-N2
    102    1     304     305     306  # N2-N2_X-N2
    103    1     307     308     309  # N2-N2_X-N2
    104    1     310     311     312  # N2-N2_X-N2
    105    1     313     314     315  # N2-N2_X-N2
    106    1     316     317     318  # N2-N2_X-N2
    107    1     319     320     321  # N2-N2_X-N2
    108    1     322     323     324  # N2-N2_X-N2
    109    1     325     326     327  # N2-N2_X-N2
    110    1     328     329     330  # N2-N2_X-N2
    111    1     331     332     333  # N2-N2_X-N2
    112    1     334     335     336  # N2-N2_X-N2
    113    1     337     338     339  # N2-N2_X-N2
    114    1     340     341     342  # N2-N2_X-N2
    115    1     343     344     345  # N2-N2_X-N2
    116    1     346     347     348  # N2-N2_X-N2
    117    1     349     350     351  # N2-N2_X-N2
    118    1     352     353     354  # N2-N2_X-N2
    119    1     355     356     357  # N2-N2_X-N2
    120    1     358     359     360  # N2-N2_X-N2
    121    1     361     362     363  # N2-N2_X-N2
    122    1     364     365     366  # N2-N2_X-N2
    123    1     367     368     369  # N2-N2_X-N2
    124    1     370     371     372  # N2-N2_X-N2
    125    1     373     374     375  # N2-N2_X-N2
    126    1     376     377     378  # N2-N2_X-N2
    127    1     379     380     381  # N2-N2_X-N2
    128    1     382     383     384  # N2-N2_X-N2
    129    1     385     386     387  # N2-N2_X-N2
    130    1     388     389     390  # N2-N2_X-N2
    131    1     391     392     393  # N2-N2_X-N2
    132    1     394     395     396  # N2-N2_X-N2
    133    1     397     398     399  # N2-N2_X-N2
    134    1     400     401     402  # N2-N2_X-N2
    135    1     403     404     405  # N2-N2_X-N2
    136    1     406     407     408  # N2-N2_X-N2
    137    1     409     410     411  # N2-N2_X-N2
    138    1     412     413     414  # N2-N2_X-N2
    139    1     415     416     417  # N2-N2_X-N2
    140    1     418     419     420  # N2-N2_X-N2
    141    1     421     422     423  # N2-N2_X-N2
    142    1     424     425     426  # N2-N2_X-N2
    143    1     427     428     429  # N2-N2_X-N2
    144    1     430     431     432  # N2-N2_X-N2
    145    1     433     434     435  # N2-N2_X-N2
    146    1     436     437     438  # N2-N2_X-N2
    147    1     439     440     441  # N2-N2_X-N2
    148    1     442     443     444  # N2-N2_X-N2
    149    1     445     446     447  # N2-N2_X-N2
    150    1     448     449     450  # N2-N2_X-N2
    151    1     451     452     453  # N2-N2_X-N2
    152    1     454     455     456  # N2-N2_X-N2
    153    1     457     458     459  # N2-N2_X-N2
    154    1     460     461     462  # N2-N2_X-N2
    155    1     463     464     465  # N2-N2_X-N2
    156    1     466     467     468  # N2-N2_X-N2
    157    1     469     470     471  # N2-N2_X-N2
    158    1     472     473     474  # N2-N2_X-N2
    159    1     475     476     477  # N2-N2_X-N2
    160    1     478     479     480  # N2-N2_X-N2
    161    1     481     482     483  # N2-N2_X-N2
    162    1     484     485     486  # N2-N2_X-N2
    163    1     487     488     489  # N2-N2_X-N2
    164    1     490     491     492  # N2-N2_X-N2
    165    1     493     494     495  # N2-N2_X-N2
    166    1     496     497     498  # N2-N2_X-N2
    167    1     499     500     501  # N2-N2_X-N2
    168    1     502     503     504  # N2-N2_X-N2
    169    1     505     506     507  # N2-N2_X-N2
    170    1     508     509     510  # N2-N2_X-N2
    171    1     511     512     513  # N2-N2_X-N2
    172    1     514     515     516  # N2-N2_X-N2
    173    1     517     518     519  # N2-N2_X-N2
    174    1     520     521     522  # N2-N2_X-N2
    175    1     523     524     525  # N2-N2_X-N2
    176    1     526     527     528  # N2-N2_X-N2
    177    1     529     530     531  # N2-N2_X-N2
    178    1     532     533     534  # N2-N2_X-N2
    179    1     535     536     537  # N2-N2_X-N2
    180    1     538     539     540  # N2-N2_X-N2
    181    1     541     542     543  # N2-N2_X-N2
    182    1     544     545     546  # N2-N2_X-N2
    183    1     547     548     549  # N2-N2_X-N2
    184    1     550     551     552  # N2-N2_X-N2
    185    1     553     554     555  # N2-N2_X-N2
    186    1     556     557     558  # N2-N2_X-N2
    187    1     559     560     561  # N2-N2_X-N2
    188    1     562     563     564  # N2-N2_X-N2
    189    1     565     566     567  # N2-N2_X-N2
    190    1     568     569     570  # N2-N2_X-N2
    191    1     571     572     573  # N2-N2_X-N2
    192    1     574     575     576  # N2-N2_X-N2
    193    1     577     578     579  # N2-N2_X-N2
    194    1     580     581     582  # N2-N2_X-N2
    195    1     583     584     585  # N2-N2_X-N2
    196    1     586     587     588  # N2-N2_X-N2
    197    1     589     590     591  # N2-N2_X-N2
    198    1     592     593     594  # N2-N2_X-N2
    199    1     595     596     597  # N2-N2_X-N2
    200    1     598     599     600  # N2-N2_X-N2
    201    1     601     602     603  # N2-N2_X-N2
    202    1     604     605     606  # N2-N2_X-N2
    203    1     607     608     609  # N2-N2_X-N2
    204    1     610     611     612  # N2-N2_X-N2
    205    1     613     614     615  # N2-N2_X-N2
    206    1     616     617     618  # N2-N2_X-N2
    207    1     619     620     621  # N2-N2_X-N2
    208    1     622     623     624  # N2-N2_X-N2
    209    1     625     626     627  # N2-N2_X-N2
    210    1     628     629     630  # N2-N2_X-N2
    211    1     631     632     633  # N2-N2_X-N2
    212    1     634     635     636  # N2-N2_X-N2
    213    1     637     638     639  # N2-N2_X-N2
    214    1     640     641     642  # N2-N2_X-N2
    215    1     643     644     645  # N2-N2_X-N2
    216    1     646     647     648  # N2-N2_X-N2
    217    1     649     650     651  # N2-N2_X-N2
    218    1     652     653     654  # N2-N2_X-N2
    219    1     655     656     657  # N2-N2_X-N2
    220    1     658     659     660  # N2-N2_X-N2
    221    1     661     662     663  # N2-N2_X-N2
    222    1     664     665     666  # N2-N2_X-N2
    223    1     667     668     669  # N2-N2_X-N2
    224    1     670     671     672  # N2-N2_X-N2
    225    1     673     674     675  # N2-N2_X-N2
    226    1     676     677     678  # N2-N2_X-N2
    227    1     679     680     681  # N2-N2_X-N2
    228    1     682     683     684  # N2-N2_X-N2
    229    1     685     686     687  # N2-N2_X-N2
    230    1     688     689     690  # N2-N2_X-N2
    231    1     691     692     693  # N2-N2_X-N2
    232    1     694     695     696  # N2-N2_X-N2
    233    1     697     698     699  # N2-N2_X-N2
    234    1     700     701     702  # N2-N2_X-N2
    235    1     703     704     705  # N2-N2_X-N2
    236    1     706     707     708  # N2-N2_X-N2
    237    1     709     710     711  # N2-N2_X-N2
    238    1     712     713     714  # N2-N2_X-N2
    239    1     715     716     717  # N2-N2_X-N2
    240    1     718     719     720  # N2-N2_X-N2
    241    1     721     722     723  # N2-N2_X-N2
    242    1     724     725     726  # N2-N2_X-N2
    243    1     727     728     729  # N2-N2_X-N2
    244    1     730     731     732  # N2-N2_X-N2
    245    1     733     734     735  # N2-N2_X-N2
    246    1     736     737     738  # N2-N2_X-N2
    247    1     739     740     741  # N2-N2_X-N2
    248    1     742     743     744  # N2-N2_X-N2
    249    1     745     746     747  # N2-N2_X-N2
    250    1     748     749     750  # N2-N2_X-N2
    251    1     751     752     753  # N2-N2_X-N2
    252    1     754     755     756  # N2-N2_X-N2
    253    1     757     758     759  # N2-N2_X-N2
    254    1     760     761     762  # N2-N2_X-N2
    255    1     763     764     765  # N2-N2_X-N2
    256    1     766     767     768  # N2-N2_X-N2
    257    1     769     770     771  # N2-N2_X-N2
    258    1     772     773     774  # N2-N2_X-N2
    259    1     775     776     777  # N2-N2_X-N2
    260    1     778     779     780  # N2-N2_X-N2
    261    1     781     782     783  # N2-N2_X-N2
    262    1     784     785     786  # N2-N2_X-N2
    263    1     787     788     789  # N2-N2_X-N2
    264    1     790     791     792  # N2-N2_X-N2
    265    1     793     794     795  # N2-N2_X-N2
    266    1     796     797     798  # N2-N2_X-N2
    267    1     799     800     801  # N2-N2_X-N2
    268    1     802     803     804  # N2-N2_X-N2
    269    1     805     806     807  # N2-N2_X-N2
    270    1     808     809     810  # N2-N2_X-N2
    271    1     811     812     813  # N2-N2_X-N2
    272    1     814     815     816  # N2-N2_X-N2
    273    1     817     818     819  # N2-N2_X-N2
    274    1     820     821     822  # N2-N2_X-N2
    275    1     823     824     825  # N2-N2_X-N2
    276    1     826     827     828  # N2-N2_X-N2
    277    1     829     830     831  # N2-N2_X-N2
    278    1     832     833     834  # N2-N2_X-N2
    279    1     835     836     837  # N2-N2_X-N2
    280    1     838     839     840  # N2-N2_X-N2
    281    1     841     842     843  # N2-N2_X-N2
    282    1     844     845     846  # N2-N2_X-N2
    283    1     847     848     849  # N2-N2_X-N2
    284    1     850     851     852  # N2-N2_X-N2
    285    1     853     854     855  # N2-N2_X-N2
    286    1     856     857     858  # N2-N2_X-N2
    287    1     859     860     861  # N2-N2_X-N2
    288    1     862     863     864  # N2-N2_X-N2
    289    1     865     866     867  # N2-N2_X-N2
    290    1     868     869     870  # N2-N2_X-N2
    291    1     871     872     873  # N2-N2_X-N2
    292    1     874     875     876  # N2-N2_X-N2
    293    1     877     878     879  # N2-N2_X-N2
    294    1     880     881     882  # N2-N2_X-N2
    295    1     883     884     885  # N2-N2_X-N2
    296    1     886     887     888  # N2-N2_X-N2
    297    1     889     890     891  # N2-N2_X-N2
    298    1     892     893     894  # N2-N2_X-N2
    299    1     895     896     897  # N2-N2_X-N2
    300    1     898     899     900  # N2-N2_X-N2
    301    1     901     902     903  # N2-N2_X-N2
    302    1     904     905     906  # N2-N2_X-N2
    303    1     907     908     909  # N2-N2_X-N2
    304    1     910     911     912  # N2-N2_X-N2
    305    1     913     914     915  # N2-N2_X-N2
    306    1     916     917     918  # N2-N2_X-N2
    307    1     919     920     921  # N2-N2_X-N2
    308    1     922     923     924  # N2-N2_X-N2
    309    1     925     926     927  # N2-N2_X-N2
    310    1     928     929     930  # N2-N2_X-N2
    311    1     931     932     933  # N2-N2_X-N2
    312    1     934     935     936  # N2-N2_X-N2
    313    1     937     938     939  # N2-N2_X-N2
    314    1     940     941     942  # N2-N2_X-N2
    315    1     943     944     945  # N2-N2_X-N2
    316    1     946     947     948  # N2-N2_X-N2
    317    1     949     950     951  # N2-N2_X-N2
    318    1     952     953     954  # N2-N2_X-N2
    319    1     955     956     957  # N2-N2_X-N2
    320    1     958     959     960  # N2-N2_X-N2
    321    1     961     962     963  # N2-N2_X-N2
    322    1     964     965     966  # N2-N2_X-N2
    323    1     967     968     969  # N2-N2_X-N2
    324    1     970     971     972  # N2-N2_X-N2
    325    1     973     974     975  # N2-N2_X-N2
    326    1     976     977     978  # N2-N2_X-N2
    327    1     979     980     981  # N2-N2_X-N2
    328    1     982     983     984  # N2-N2_X-N2
    329    1     985     986     987  # N2-N2_X-N2
    330    1     988     989     990  # N2-N2_X-N2
    331    1     991     992     993  # N2-N2_X-N2
    332    1     994     995     996  # N2-N2_X-N2
    333    1     997     998     999  # N2-N2_X-N2
    334    1    1000    1001    1002  # N2-N2_X-N2
    335    1    1003    1004    1005  # N2-N2_X-N2
    336    1    1006    1007    1008  # N2-N2_X-N2
    337    1    1009    1010    1011  # N2-N2_X-N2
    338    1    1012    1013    1014  # N2-N2_X-N2
    339    1    1015    1016    1017  # N2-N2_X-N2
    340    1    1018    1019    1020  # N2-N2_X-N2
    341    1    1021    1022    1023  # N2-N2_X-N2
    342    1    1024    1025    1026  # N2-N2_X-N2
    343    1    1027    1028    1029  # N2-N2_X-N2
    344    1    1030    1031    1032  # N2-N2_X-N2
    345    1    1033    1034    1035  # N2-N2_X-N2
    346    1    1036    1037    1038  # N2-N2_X-N2
    347    1    1039    1040    1041  # N2-N2_X-N2
    348    1    1042    1043    1044  # N2-N2_X-N2
    349    1    1045    1046    1047  # N2-N2_X-N2
    350    1    1048    1049    1050  # N2-N2_X-N2
    351    1    1051    1052    1053  # N2-N2_X-N2
    352    1    1054    1055    1056  # N2-N2_X-N2
    353    1    1057    1058    1059  # N2-N2_X-N2
    354    1    1060    1061    1062  # N2-N2_X-N2
    355    1    1063    1064    1065  # N2-N2_X-N2
    356    1    1066    1067    1068  # N2-N2_X-N2
    357    1    1069    1070    1071  # N2-N2_X-N2
    358    1    1072    1073    1074  # N2-N2_X-N2
    359    1    1075    1076    1077  # N2-N2_X-N2
    360    1    1078    1079    1080  # N2-N2_X-N2
    361    1    1081    1082    1083  # N2-N2_X-N2
    362    1    1084    1085    1086  # N2-N2_X-N2
    363    1    1087    1088    1089  # N2-N2_X-N2
    364    1    1090    1091    1092  # N2-N2_X-N2
    365    1    1093    1094    1095  # N2-N2_X-N2
    366    1    1096    1097    1098  # N2-N2_X-N2
    367    1    1099    1100    1101  # N2-N2_X-N2
    368    1    1102    1103    1104  # N2-N2_X-N2
    369    1    1105    1106    1107  # N2-N2_X-N2
    370    1    1108    1109    1110  # N2-N2_X-N2
    371    1    1111    1112    1113  # N2-N2_X-N2
    372    1    1114    1115    1116  # N2-N2_X-N2
    373    1    1117    1118    1119  # N2-N2_X-N2
    374    1    1120    1121    1122  # N2-N2_X-N2
    375    1    1123    1124    1125  # N2-N2_X-N2
    376    1    1126    1127    1128  # N2-N2_X-N2
    377    1    1129    1130    1131  # N2-N2_X-N2
    378    1    1132    1133    1134  # N2-N2_X-N2
    379    1    1135    1136    1137  # N2-N2_X-N2
    380    1    1138    1139    1140  # N2-N2_X-N2
    381    1    1141    1142    1143  # N2-N2_X-N2
    382    1    1144    1145    1146  # N2-N2_X-N2
    383    1    1147    1148    1149  # N2-N2_X-N2
    384    1    1150    1151    1152  # N2-N2_X-N2
    385    1    1153    1154    1155  # N2-N2_X-N2
    386    1    1156    1157    1158  # N2-N2_X-N2
    387    1    1159    1160    1161  # N2-N2_X-N2
    388    1    1162    1163    1164  # N2-N2_X-N2
    389    1    1165    1166    1167  # N2-N2_X-N2
    390    1    1168    1169    1170  # N2-N2_X-N2
    391    1    1171    1172    1173  # N2-N2_X-N2
    392    1    1174    1175    1176  # N2-N2_X-N2
    393    1    1177    1178    1179  # N2-N2_X-N2
    394    1    1180    1181    1182  # N2-N2_X-N2
    395    1    1183    1184    1185  # N2-N2_X-N2
    396    1    1186    1187    1188  # N2-N2_X-N2
    397    1    1189    1190    1191  # N2-N2_X-N2
    398    1    1192    1193    1194  # N2-N2_X-N2
    399    1    1195    1196    1197  # N2-N2_X-N2
    400    1    1198    1199    1200  # N2-N2_X-N2
    401    1    1201    1202    1203  # N2-N2_X-N2
    402    1    1204    1205    1206  # N2-N2_X-N2
    403    1    1207    1208    1209  # N2-N2_X-N2
    404    1    1210    1211    1212  # N2-N2_X-N2
    405    1    1213    1214    1215  # N2-N2_X-N2
    406    1    1216    1217    1218  # N2-N2_X-N2
    407    1    1219    1220    1221  # N2-N2_X-N2
    408    1    1222    1223    1224  # N2-N2_X-N2
    409    1    1225    1226    1227  # N2-N2_X-N2
    410    1    1228    1229    1230  # N2-N2_X-N2
    411    1    1231    1232    1233  # N2-N2_X-N2
    412    1    1234    1235    1236  # N2-N2_X-N2
    413    1    1237    1238    1239  # N2-N2_X-N2
    414    1    1240    1241    1242  # N2-N2_X-N2
    415    1    1243    1244    1245  # N2-N2_X-N2
    416    1    1246    1247    1248  # N2-N2_X-N2
    417    1    1249    1250    1251  # N2-N2_X-N2
    418    1    1252    1253    1254  # N2-N2_X-N2
    419    1    1255    1256    1257  # N2-N2_X-N2
    420    1    1258    1259    1260  # N2-N2_X-N2
    421    1    1261    1262    1263  # N2-N2_X-N2
    422    1    1264    1265    1266  # N2-N2_X-N2
    423    1    1267    1268    1269  # N2-N2_X-N2
    424    1    1270    1271    1272  # N2-N2_X-N2
    425    1    1273    1274    1275  # N2-N2_X-N2
    426    1    1276    1277    1278  # N2-N2_X-N2
    427    1    1279    1280    1281  # N2-N2_X-N2
    428    1    1282    1283    1284  # N2-N2_X-N2
    429    1    1285    1286    1287  # N2-N2_X-N2
    430    1    1288    1289    1290  # N2-N2_X-N2
    431    1    1291    1292    1293  # N2-N2_X-N2
    432    1    1294    1295    1296  # N2-N2_X-N2
    433    1    1297    1298    1299  # N2-N2_X-N2
    434    1    1300    1301    1302  # N2-N2_X-N2
    435    1    1303    1304    1305  # N2-N2_X-N2
    436    1    1306    1307    1308  # N2-N2_X-N2
    437    1    1309    1310    1311  # N2-N2_X-N2
    438    1    1312    1313    1314  # N2-N2_X-N2
    439    1    1315    1316    1317  # N2-N2_X-N2
    440    1    1318    1319    1320  # N2-N2_X-N2
    441    1    1321    1322    1323  # N2-N2_X-N2
    442    1    1324    1325    1326  # N2-N2_X-N2
    443    1    1327    1328    1329  # N2-N2_X-N2
    444    1    1330    1331    1332  # N2-N2_X-N2
    445    1    1333    1334    1335  # N2-N2_X-N2
    446    1    1336    1337    1338  # N2-N2_X-N2
    447    1    1339    1340    1341  # N2-N2_X-N2
    448    1    1342    1343    1344  # N2-N2_X-N2
    449    1    1345    1346    1347  # N2-N2_X-N2
    450    1    1348    1349    1350  # N2-N2_X-N2
    451    1    1351    1352    1353  # N2-N2_X-N2
    452    1    1354    1355    1356  # N2-N2_X-N2
    453    1    1357    1358    1359  # N2-N2_X-N2
    454    1    1360    1361    1362  # N2-N2_X-N2
    455    1    1363    1364    1365  # N2-N2_X-N2
    456    1    1366    1367    1368  # N2-N2_X-N2
    457    1    1369    1370    1371  # N2-N2_X-N2
    458    1    1372    1373    1374  # N2-N2_X-N2
    459    1    1375    1376    1377  # N2-N2_X-N2
    460    1    1378    1379    1380  # N2-N2_X-N2
    461    1    1381    1382    1383  # N2-N2_X-N2
    462    1    1384    1385    1386  # N2-N2_X-N2
    463    1    1387    1388    1389  # N2-N2_X-N2
    464    1    1390    1391    1392  # N2-N2_X-N2
    465    1    1393    1394    1395  # N2-N2_X-N2
    466    1    1396    1397    1398  # N2-N2_X-N2
    467    1    1399    1400    1401  # N2-N2_X-N2
    468    1    1402    1403    1404  # N2-N2_X-N2
    469    1    1405    1406    1407  # N2-N2_X-N2
    470    1    1408    1409    1410  # N2-N2_X-N2
    471    1    1411    1412    1413  # N2-N2_X-N2
    472    1    1414    1415    1416  # N2-N2_X-N2
    473    1    1417    1418    1419  # N2-N2_X-N2
    474    1    1420    1421    1422  # N2-N2_X-N2
    475    1    1423    1424    1425  # N2-N2_X-N2
    476    1    1426    1427    1428  # N2-N2_X-N2
    477    1    1429    1430    1431  # N2-N2_X-N2
    478    1    1432    1433    1434  # N2-N2_X-N2
    479    1    1435    1436    1437  # N2-N2_X-N2
    480    1    1438    1439    1440  # N2-N2_X-N2
    481    1    1441    1442    1443  # N2-N2_X-N2
    482    1    1444    1445    1446  # N2-N2_X-N2
    483    1    1447    1448    1449  # N2-N2_X-N2
    484    1    1450    1451    1452  # N2-N2_X-N2
    485    1    1453    1454    1455  # N2-N2_X-N2
    486    1    1456    1457    1458  # N2-N2_X-N2
    487    1    1459    1460    1461  # N2-N2_X-N2
    488    1    1462    1463    1464  # N2-N2_X-N2
    489    1    1465    1466    1467  # N2-N2_X-N2
    490    1    1468    1469    1470  # N2-N2_X-N2
    491    1    1471    1472    1473  # N2-N2_X-N2
    492    1    1474    1475    1476  # N2-N2_X-N2
    493    1    1477    1478    1479  # N2-N2_X-N2
    494    1    1480    1481    1482  # N2-N2_X-N2
    495    1    1483    1484    1485  # N2-N2_X-N2
    496    1    1486    1487    1488  # N2-N2_X-N2
    497    1    1489    1490    1491  # N2-N2_X-N2
    498    1    1492    1493    1494  # N2-N2_X-N2
    499    1    1495    1496    1497  # N2-N2_X-N2
    500    1    1498    1499    1500  # N2-N2_X-N2
