LAMMPS (19 Nov 2024)
OMP_NUM_THREADS environment is not set. Defaulting to 1 thread. (src/comm.cpp:99)
  using 1 OpenMP thread(s) per MPI task
using multi-threaded neighbor list subroutines
Reading data file ...
  orthogonal box = (0 0 0) to (54.965023 54.965023 54.965023)
  2 by 2 by 2 MPI processor grid
  reading atoms ...
  1500 atoms
  scanning bonds ...
  1 = max bonds/atom
  scanning angles ...
  1 = max angles/atom
  orthogonal box = (0 0 0) to (54.965023 54.965023 54.965023)
  2 by 2 by 2 MPI processor grid
  reading bonds ...
  1000 bonds
  reading angles ...
  500 angles
Finding 1-2 1-3 1-4 neighbors ...
  special bond factors lj:    0        0        0       
  special bond factors coul:  0        0        0       
     2 = max # of 1-2 neighbors
     1 = max # of 1-3 neighbors
     1 = max # of 1-4 neighbors
     2 = max # of special neighbors
  special bonds CPU = 0.000 seconds
  read_data CPU = 0.117 seconds
Setting atom values ...
  1000 settings made for charge
Setting atom values ...
  500 settings made for charge
1000 atoms in group oxy
500 atoms in group carb
PPPM initialization ...
  using 12-bit tables for long-range coulomb (src/kspace.cpp:342)
  G vector (1/distance) = 0.2675861
  grid = 50 50 50
  stencil order = 5
  estimated absolute RMS force accuracy = 0.00039584402
  estimated relative force accuracy = 1.1920725e-06
  using single precision FFTW3
  3d grid and FFT values/proc = 32768 16250
Generated 1 of 1 mixed pair_coeff terms from arithmetic mixing rule
Last active /omp style is kspace_style pppm/omp
Neighbor list info ...
  update: every = 1 steps, delay = 0 steps, check = yes
  max neighbors/atom: 2000, page size: 100000
  master list distance cutoff = 15
  ghost atom cutoff = 15
  binsize = 7.5, bins = 8 8 8
  1 neighbor lists, perpetual/occasional/extra = 1 0 0
  (1) pair lj/cut/coul/long/omp, perpetual
      attributes: half, newton on, omp
      pair build: half/bin/newton/omp
      stencil: half/bin/3d
      bin: standard
Setting up cg style minimization ...
  Unit style    : real
  Current step  : 0
Per MPI rank memory allocation (min/avg/max) = 9.757 | 9.787 | 9.817 Mbytes
   Step          Temp          E_pair         E_mol          TotEng         Press     
         0   0              12.721715      1.4941382e-05  12.72173       247.996      
      4502   0             -433.1298       0.27465943    -432.85514     -20.126401    
Loop time of 23.5643 on 8 procs for 4502 steps with 1500 atoms

99.2% CPU use with 8 MPI tasks x 1 OpenMP threads

Minimization stats:
  Stopping criterion = energy tolerance
  Energy initial, next-to-last, final = 
      12.7217296754327   -432.85490454627  -432.855139869723
  Force two-norm initial, final = 96.937021 1.9281309
  Force max component initial, final = 12.09215 0.36353957
  Final line search alpha, max atom move = 0.90330039 0.32838544
  Iterations, force evaluations = 4502 9005

MPI task timing breakdown:
Section |  min time  |  avg time  |  max time  |%varavg| %total
---------------------------------------------------------------
Pair    | 1.8073     | 2.9259     | 3.9872     |  42.4 | 12.42
Bond    | 0.072432   | 0.084465   | 0.10109    |   3.5 |  0.36
Kspace  | 18.626     | 19.694     | 20.814     |  16.5 | 83.58
Neigh   | 0.011076   | 0.011136   | 0.011224   |   0.0 |  0.05
Comm    | 0.61457    | 0.6228     | 0.62963    |   0.7 |  2.64
Output  | 0          | 0          | 0          |   0.0 |  0.00
Modify  | 0.026133   | 0.028393   | 0.030761   |   0.8 |  0.12
Other   |            | 0.1975     |            |       |  0.84

Nlocal:          187.5 ave         257 max         127 min
Histogram: 2 0 1 1 1 0 0 1 0 2
Nghost:        1600.38 ave        1671 max        1506 min
Histogram: 1 0 0 2 0 0 1 3 0 1
Neighs:          15038 ave       21869 max        7174 min
Histogram: 2 0 1 0 0 1 0 2 1 1

Total # of neighbors = 120304
Ave neighs/atom = 80.202667
Ave special neighs/atom = 2
Neighbor list builds = 22
Dangerous builds = 0
PPPM initialization ...
  using 12-bit tables for long-range coulomb (src/kspace.cpp:342)
  G vector (1/distance) = 0.2675861
  grid = 50 50 50
  stencil order = 5
  estimated absolute RMS force accuracy = 0.00039584402
  estimated relative force accuracy = 1.1920725e-06
  using single precision FFTW3
  3d grid and FFT values/proc = 32768 16250
Generated 1 of 1 mixed pair_coeff terms from arithmetic mixing rule
Last active /omp style is kspace_style pppm/omp
Setting up Verlet run ...
  Unit style    : real
  Current step  : 4502
  Time step     : 0.1
Per MPI rank memory allocation (min/avg/max) = 8.649 | 8.671 | 8.693 Mbytes
   Step         PotEng         KinEng         TotEng         Press           Temp        v_Density   
      4502  -432.85514      1340.4703      907.61514      348.87737      300            0.13956373   
      5000   42.927066      1362.6256      1405.5526      308.98726      304.9584       0.13707436   
      6000   247.63586      1278.508       1526.1439      154.00443      286.13272      0.10960142   
      7000   161.91883      1428.819       1590.7378      165.22593      319.77263      0.10296276   
      8000   318.71919      1257.3412      1576.0604      87.848932      281.39554      0.1047054    
      9000   198.0327       1416.3048      1614.3375      175.13314      316.97192      0.10966012   
     10000   321.58691      1274.9914      1596.5783      94.016588      285.34568      0.1143257    
     11000   241.32332      1369.3761      1610.6994      145.31297      306.46918      0.12201242   
     12000   260.63072      1316.5064      1577.1371      120.94496      294.63683      0.1267701    
     13000   284.92895      1305.4325      1590.3615      139.51959      292.15848      0.13193286   
     14000   261.07387      1390.0278      1651.1016      165.89079      311.09107      0.13061672   
     15000   326.85097      1332.3989      1659.2499      131.57763      298.19361      0.1292797    
     16000   278.92315      1431.6015      1710.5247      150.52046      320.39536      0.13427737   
     17000   341.37103      1310.8396      1652.2106      98.018398      293.36858      0.13475518   
     18000   288.50127      1363.5277      1652.029       190.54269      305.1603       0.13404708   
     19000   338.20052      1316.9535      1655.154       144.20793      294.73689      0.13155666   
     20000   316.93038      1301.1884      1618.1187      82.50857       291.20862      0.12806585   
     21000   341.1588       1320.4449      1661.6037      121.63871      295.51827      0.1255507    
     22000   349.42568      1296.5283      1645.954       191.80362      290.16571      0.11703864   
     23000   334.68232      1336.7353      1671.4176      153.6494       299.1641       0.12191727   
     24000   347.82545      1273.0306      1620.8561      82.501579      284.90687      0.12584295   
     25000   347.36984      1344.2686      1691.6384      140.46257      300.85006      0.12433508   
     26000   382.7681       1321.5263      1704.2944      180.80722      295.76029      0.12085619   
     27000   363.2185       1376.2625      1739.481       132.33023      308.01037      0.11760048   
     28000   349.90607      1374.8188      1724.7249      74.130494      307.68728      0.12593943   
     29000   363.62075      1350.3733      1713.9941      136.80417      302.21633      0.13131976   
     30000   346.1922       1353.2308      1699.423       206.98334      302.85582      0.13056885   
     31000   362.4019       1325.8992      1688.3011      111.74027      296.73895      0.1239782    
     32000   360.57131      1357.4296      1718.0009      81.105719      303.79552      0.11549869   
     33000   384.78125      1323.3206      1708.1019      165.05798      296.16188      0.11334765   
     34000   352.26419      1372.6077      1724.8719      174.05918      307.19243      0.1184839    
     35000   364.77906      1322.6801      1687.4591      100.71761      296.01852      0.12259629   
     36000   347.71911      1336.9876      1684.7067      119.32126      299.22056      0.12621218   
     37000   329.00183      1318.4214      1647.4233      163.56868      295.06543      0.12445069   
     38000   374.12342      1326.0194      1700.1428      152.69488      296.76586      0.12261808   
     39000   355.98975      1324.1258      1680.1156      107.55892      296.34208      0.11792079   
     40000   373.28418      1341.8445      1715.1287      101.6603       300.30755      0.11125678   
     41000   368.50867      1352.9872      1721.4959      171.20583      302.80131      0.1162887    
     42000   383.74998      1343.3151      1727.065       161.95776      300.63667      0.12039396   
     43000   367.20248      1391.3962      1758.5987      94.613875      311.39733      0.12013317   
     44000   358.54497      1332.9042      1691.4491      109.68728      298.30669      0.12395132   
     45000   352.78475      1362.647       1715.4318      222.27799      304.9632       0.12989154   
     46000   342.30391      1321.9013      1664.2052      166.32004      295.84423      0.11888788   
     47000   380.9617       1293.0369      1673.9986      79.750173      289.3843       0.11713095   
     48000   351.69129      1297.6205      1649.3118      136.61304      290.41013      0.12357064   
     49000   364.68155      1309.7744      1674.456       167.35666      293.1302       0.12307449   
     50000   344.36515      1323.2184      1667.5836      136.09254      296.139        0.11978513   
     51000   359.41165      1323.1094      1682.5211      125.33832      296.1146       0.12300805   
     52000   342.51009      1328.6747      1671.1848      147.7807       297.36014      0.12865173   
     53000   361.73773      1347.247       1708.9847      173.09078      301.51664      0.13580187   
     54000   365.07644      1367.5475      1732.6239      142.18276      306.05993      0.12707949   
     54502   350.60988      1357.5711      1708.181       159.47826      303.8272       0.12291324   
Loop time of 275.855 on 8 procs for 50000 steps with 1500 atoms

Performance: 1.566 ns/day, 15.325 hours/ns, 181.255 timesteps/s, 271.882 katom-step/s
99.2% CPU use with 8 MPI tasks x 1 OpenMP threads

MPI task timing breakdown:
Section |  min time  |  avg time  |  max time  |%varavg| %total
---------------------------------------------------------------
Pair    | 6.5676     | 8.61       | 10.07      |  33.2 |  3.12
Bond    | 0.4886     | 0.55254    | 0.61781    |   5.4 |  0.20
Kspace  | 117.4      | 118.85     | 120.89     |   9.0 | 43.08
Neigh   | 0.043207   | 0.043477   | 0.043757   |   0.1 |  0.02
Comm    | 3.5403     | 3.593      | 3.6939     |   2.6 |  1.30
Output  | 0.00214    | 0.37265    | 2.9662     | 160.6 |  0.14
Modify  | 126.52     | 136.53     | 143.76     |  53.3 | 49.49
Other   |            | 7.302      |            |       |  2.65

Nlocal:          187.5 ave         238 max         156 min
Histogram: 1 1 2 1 1 0 1 0 0 1
Nghost:           1448 ave        1487 max        1391 min
Histogram: 1 0 1 0 1 0 2 1 1 1
Neighs:        11088.2 ave       15159 max        7941 min
Histogram: 1 0 1 2 2 0 1 0 0 1

Total # of neighbors = 88706
Ave neighs/atom = 59.137333
Ave special neighs/atom = 2
Neighbor list builds = 95
Dangerous builds = 0
PPPM initialization ...
  using 12-bit tables for long-range coulomb (src/kspace.cpp:342)
  G vector (1/distance) = 0.26969902
  grid = 54 54 54
  stencil order = 5
  estimated absolute RMS force accuracy = 0.00031738796
  estimated relative force accuracy = 9.558044e-07
  using single precision FFTW3
  3d grid and FFT values/proc = 39304 20412
Generated 1 of 1 mixed pair_coeff terms from arithmetic mixing rule
Last active /omp style is kspace_style pppm/omp
Setting up Verlet run ...
  Unit style    : real
  Current step  : 54502
  Time step     : 0.25
Per MPI rank memory allocation (min/avg/max) = 9.055 | 9.081 | 9.106 Mbytes
   Step         PotEng         KinEng         TotEng         Press           Temp        v_Density   
     54502   350.61158      1357.5711      1708.1827      159.4772       303.8272       0.12291324   
     55000   403.5182       1344.3266      1747.8448      151.53342      300.86306      0.13141977   
     56000   386.14943      1354.1849      1740.3343      143.37417      303.06936      0.12570112   
     57000   365.85295      1340.7896      1706.6425      145.83807      300.07146      0.12721674   
     58000   363.12731      1334.357       1697.4843      134.69031      298.63183      0.13007263   
     59000   369.51731      1308.395       1677.9123      112.73914      292.82149      0.12576483   
     60000   369.08109      1353.8846      1722.9657      77.45019       303.00215      0.12651093   
     61000   366.4235       1359.2092      1725.6327      124.7358       304.19381      0.13187153   
     62000   350.76603      1301.9315      1652.6976      205.62017      291.37495      0.12875916   
     63000   363.31198      1392.4663      1755.7783      274.27501      311.63683      0.12713934   
     64000   385.34062      1374.4162      1759.7568      193.61024      307.59717      0.12340209   
     65000   410.50544      1295.1822      1705.6876      67.883302      289.86444      0.12789192   
     66000   410.2963       1303.8436      1714.1399      53.370399      291.80286      0.12382921   
     67000   405.1624       1315.9375      1721.0999      74.830049      294.50951      0.12183287   
     68000   375.52294      1368.8867      1744.4096      129.85577      306.35965      0.12753393   
     69000   384.89715      1347.2755      1732.1726      198.32179      301.52302      0.13093733   
     70000   382.37226      1315.0009      1697.3732      174.83322      294.29991      0.12131543   
     71000   360.60847      1304.06        1664.6685      162.28559      291.85131      0.13349868   
     72000   391.32596      1385.1338      1776.4597      117.8442       309.99578      0.11796922   
     73000   357.50824      1356.1047      1713.6129      152.08717      303.49901      0.12630581   
     74000   381.8296       1333.3195      1715.1491      153.84886      298.39965      0.12427046   
     75000   372.79887      1327.244       1700.0428      163.24772      297.03992      0.12818959   
     76000   368.14382      1393.7786      1761.9224      172.48019      311.93052      0.12777069   
     77000   409.35042      1342.6245      1751.9749      110.0245       300.48211      0.12437925   
     78000   364.21906      1332.8761      1697.0952      146.72546      298.30042      0.13134378   
     79000   390.26314      1316.9372      1707.2003      163.95107      294.73324      0.1307734    
     80000   377.53178      1324.9251      1702.4568      138.91525      296.52095      0.12380605   
     81000   359.42541      1310.3907      1669.8161      168.07779      293.26812      0.13242751   
     82000   353.26724      1322.0615      1675.3287      150.89676      295.88008      0.13058461   
     83000   364.35061      1340.8321      1705.1827      86.704483      300.08097      0.12630986   
     84000   386.4432       1319.1636      1705.6068      59.630705      295.23152      0.11999131   
     85000   380.1133       1313.0503      1693.1636      72.164326      293.86335      0.12183785   
     86000   373.39613      1317.894       1691.2902      185.10864      294.94739      0.13064721   
     87000   375.26448      1365.646       1740.9105      222.47303      305.63437      0.13242268   
     88000   377.58867      1320.0224      1697.611       239.57484      295.42371      0.13197029   
     89000   364.85417      1360.1225      1724.9766      129.90153      304.3982       0.131335     
     90000   390.21692      1386.3682      1776.5851      75.273976      310.27205      0.12679876   
     91000   367.49237      1298.3402      1665.8326      62.065034      290.5712       0.12646383   
     92000   386.4919       1332.7768      1719.2687      98.271734      298.27818      0.12446619   
     93000   386.96585      1331.5382      1718.5041      195.60774      298.00098      0.1336424    
     94000   411.94942      1367.674       1779.6234      193.42844      306.08824      0.12974336   
     95000   386.89409      1345.1439      1732.038       162.21352      301.04597      0.1272624    
     96000   382.03626      1291.1473      1673.1836      61.07094       288.96142      0.12552509   
     97000   381.36233      1305.5158      1686.8781      16.891483      292.17711      0.12550793   
     98000   404.81815      1292.3932      1697.2114      56.75068       289.24026      0.1264284    
     99000   383.91588      1348.1082      1732.0241      233.86635      301.70939      0.13070437   
    100000   379.96927      1427.6046      1807.5738      287.54423      319.50083      0.13191254   
    101000   379.1436       1342.509       1721.6526      199.45469      300.45627      0.14052766   
    102000   376.84347      1349.8006      1726.644       70.10088       302.08814      0.12961543   
    103000   386.91331      1411.9761      1798.8894      53.066908      316.00315      0.13206421   
    104000   379.65465      1376.5735      1756.2281      97.287181      308.07997      0.13040258   
    104502   365.21739      1349.7724      1714.9898      132.42003      302.08183      0.13545404   
Loop time of 346.53 on 8 procs for 50000 steps with 1500 atoms

Performance: 3.117 ns/day, 7.701 hours/ns, 144.288 timesteps/s, 216.431 katom-step/s
99.4% CPU use with 8 MPI tasks x 1 OpenMP threads

MPI task timing breakdown:
Section |  min time  |  avg time  |  max time  |%varavg| %total
---------------------------------------------------------------
Pair    | 7.761      | 8.4673     | 9.3753     |  16.0 |  2.44
Bond    | 0.52592    | 0.56859    | 0.59566    |   3.3 |  0.16
Kspace  | 154.31     | 155.23     | 156        |   3.9 | 44.79
Neigh   | 0.092439   | 0.092829   | 0.093127   |   0.1 |  0.03
Comm    | 3.8808     | 3.9002     | 3.941      |   1.1 |  1.13
Output  | 0.0020271  | 0.0022138  | 0.0034156  |   1.0 |  0.00
Modify  | 160.92     | 170.03     | 177.84     |  51.1 | 49.07
Other   |            | 8.24       |            |       |  2.38

Nlocal:          187.5 ave         217 max         149 min
Histogram: 1 0 1 0 0 2 2 1 0 1
Nghost:        1494.25 ave        1537 max        1473 min
Histogram: 2 1 1 1 1 1 0 0 0 1
Neighs:        11361.9 ave       13549 max        7912 min
Histogram: 1 0 1 0 0 0 2 1 2 1

Total # of neighbors = 90895
Ave neighs/atom = 60.596667
Ave special neighs/atom = 2
Neighbor list builds = 196
Dangerous builds = 0
PPPM initialization ...
  using 12-bit tables for long-range coulomb (src/kspace.cpp:342)
  G vector (1/distance) = 0.26705041
  grid = 50 50 50
  stencil order = 5
  estimated absolute RMS force accuracy = 0.00040721621
  estimated relative force accuracy = 1.2263195e-06
  using single precision FFTW3
  3d grid and FFT values/proc = 32768 16250
Generated 1 of 1 mixed pair_coeff terms from arithmetic mixing rule
Last active /omp style is kspace_style pppm/omp
Setting up Verlet run ...
  Unit style    : real
  Current step  : 104502
  Time step     : 0.5
Per MPI rank memory allocation (min/avg/max) = 8.649 | 8.671 | 8.693 Mbytes
   Step         PotEng         KinEng         TotEng         Press           Temp        v_Density   
    104502   365.21991      1349.7724      1714.9923      132.41827      302.08183      0.13545404   
    105000   438.68911      1364.2445      1802.9336      162.36084      305.32072      0.15398866   
    106000   441.11589      1284.5493      1725.6652      216.77567      287.48477      0.1534741    
    107000   478.23188      1314.0666      1792.2985      44.475425      294.09081      0.15302216   
    108000   520.38056      1326.2126      1846.5932      117.34765      296.80911      0.14643623   
    109000   450.13248      1322.0859      1772.2184      256.76719      295.88554      0.16199609   
    110000   470.29977      1346.361       1816.6608      110.85322      301.31837      0.15104351   
    111000   485.53685      1355.319       1840.8558      123.80813      303.32316      0.14867945   
    112000   443.58519      1357.2582      1800.8434      211.28601      303.75717      0.15107391   
    113000   470.93586      1290.2322      1761.1681      108.66913      288.75662      0.15302212   
    114000   453.79636      1351.5824      1805.3787      110.76058      302.48691      0.14955401   
    115000   476.06107      1329.7935      1805.8546      221.35039      297.61051      0.16080708   
    116000   482.60919      1317.8736      1800.4828      85.213455      294.94281      0.14623335   
    117000   434.35778      1325.8853      1760.2431      119.26526      296.73585      0.15547172   
    118000   453.13235      1300.3675      1753.4999      201.48897      291.02492      0.16104337   
    119000   462.7647       1357.0406      1819.8053      111.69406      303.70847      0.1530348    
    120000   481.47103      1373.0272      1854.4982      157.80093      307.2863       0.15149024   
    121000   476.18652      1343.0103      1819.1968      158.26712      300.56846      0.15639384   
    122000   442.46938      1344.4073      1786.8767      145.90802      300.88112      0.15188478   
    123000   474.32818      1403.135       1877.4631      161.15806      314.02449      0.15656936   
    124000   461.9192       1309.8551      1771.7743      149.38141      293.14826      0.14776687   
    125000   473.56232      1330.2238      1803.7861      132.50909      297.70681      0.15207073   
    126000   456.59548      1351.0947      1807.6902      146.99251      302.37777      0.15379632   
    127000   471.77232      1293.8073      1765.5796      144.62046      289.55672      0.14908356   
    128000   470.88299      1342.6391      1813.5221      109.11689      300.48539      0.14539417   
    129000   475.70589      1361.3396      1837.0454      149.94519      304.67059      0.14842046   
    130000   468.47337      1329.911       1798.3844      141.85569      297.63682      0.14550784   
    131000   481.72995      1350.609       1832.339       130.36472      302.26907      0.14684399   
    132000   445.79707      1294.25        1740.0471      122.29531      289.65581      0.15381753   
    133000   480.568        1361.9348      1842.5028      153.3406       304.8038       0.15252605   
    134000   447.47218      1351.2553      1798.7275      148.36088      302.41372      0.15487353   
    135000   467.98527      1284.8498      1752.835       100.89559      287.55201      0.15647348   
    136000   462.40215      1394.0274      1856.4295      122.82447      311.98618      0.15127731   
    137000   464.94882      1364.9556      1829.9044      116.22117      305.47987      0.15353306   
    138000   452.02637      1376.6925      1828.7189      204.9441       308.1066       0.16020418   
    139000   483.55435      1325.3241      1808.8785      86.422554      296.61026      0.14505373   
    140000   487.05403      1381.7165      1868.7706      157.45364      309.23099      0.15460385   
    141000   460.11896      1339.9249      1800.0438      171.22049      299.87793      0.16722012   
    142000   452.16478      1326.6602      1778.825       143.91905      296.90927      0.16118621   
    143000   466.04543      1338.1234      1804.1688      120.60961      299.47476      0.15826916   
    144000   482.70848      1330.7874      1813.4959      81.312525      297.83294      0.15253252   
    145000   467.08845      1303.9042      1770.9926      123.03819      291.81643      0.1537896    
    146000   465.94544      1326.7303      1792.6757      177.94388      296.92496      0.16021491   
    147000   477.73514      1333.7522      1811.4874      39.473357      298.49649      0.15108598   
    148000   477.36438      1344.3436      1821.708       157.46688      300.86687      0.1499524    
    149000   459.20564      1339.4236      1798.6292      155.49736      299.76575      0.15259567   
    150000   492.86417      1330.2511      1823.1153      111.31784      297.71293      0.15046845   
    151000   473.90833      1331.3057      1805.214       155.50637      297.94895      0.1511132    
    152000   454.70717      1318.2232      1772.9304      164.29482      295.02106      0.16051977   
    153000   471.46556      1336.7223      1808.1879      128.68125      299.1612       0.15625623   
    154000   432.6849       1302.6163      1735.3012      200.44899      291.5282       0.15878041   
    154502   467.58491      1352.1757      1819.7606      181.36529      302.61969      0.15134295   
Loop time of 274.02 on 8 procs for 50000 steps with 1500 atoms

Performance: 7.883 ns/day, 3.045 hours/ns, 182.468 timesteps/s, 273.703 katom-step/s
99.4% CPU use with 8 MPI tasks x 1 OpenMP threads

MPI task timing breakdown:
Section |  min time  |  avg time  |  max time  |%varavg| %total
---------------------------------------------------------------
Pair    | 8.9742     | 9.5708     | 10.201     |  10.1 |  3.49
Bond    | 0.54508    | 0.55832    | 0.57572    |   1.3 |  0.20
Kspace  | 117.83     | 118.43     | 119.02     |   2.8 | 43.22
Neigh   | 0.21054    | 0.21074    | 0.21106    |   0.0 |  0.08
Comm    | 3.8752     | 3.9226     | 3.9569     |   1.2 |  1.43
Output  | 0.0019594  | 0.0021583  | 0.0034639  |   1.1 |  0.00
Modify  | 126.66     | 134.09     | 140.87     |  48.9 | 48.93
Other   |            | 7.237      |            |       |  2.64

Nlocal:          187.5 ave         215 max         164 min
Histogram: 2 0 0 1 2 1 0 1 0 1
Nghost:        1613.75 ave        1656 max        1570 min
Histogram: 1 0 0 2 0 2 2 0 0 1
Neighs:          13072 ave       16572 max        9929 min
Histogram: 1 0 1 2 1 1 0 0 1 1

Total # of neighbors = 104576
Ave neighs/atom = 69.717333
Ave special neighs/atom = 2
Neighbor list builds = 411
Dangerous builds = 0
PPPM initialization ...
  using 12-bit tables for long-range coulomb (src/kspace.cpp:342)
  G vector (1/distance) = 0.26899346
  grid = 50 50 50
  stencil order = 5
  estimated absolute RMS force accuracy = 0.00036704472
  estimated relative force accuracy = 1.1053443e-06
  using single precision FFTW3
  3d grid and FFT values/proc = 32768 16250
Generated 1 of 1 mixed pair_coeff terms from arithmetic mixing rule
Last active /omp style is kspace_style pppm/omp
Setting up Verlet run ...
  Unit style    : real
  Current step  : 0
  Time step     : 0.5
Per MPI rank memory allocation (min/avg/max) = 8.649 | 8.672 | 8.694 Mbytes
   Step         PotEng         KinEng         TotEng         Press           Temp        v_Density   
         0   467.58426      1352.1757      1819.7599      181.36543      302.61969      0.15134295   
      1000   492.22261      1366.7558      1858.9784      171.0857       305.88274      0.15319495   
      2000   460.66354      1344.2047      1804.8682      84.680652      300.83576      0.15477048   
      3000   491.04743      1352.721       1843.7684      56.930812      302.74174      0.1555894    
      4000   484.13738      1368.507       1852.6444      102.71723      306.27469      0.15948234   
      5000   452.06326      1417.4642      1869.5274      104.39897      317.23139      0.16299975   
      6000   477.91151      1354.7249      1832.6364      118.60659      303.19022      0.16300401   
      7000   477.52485      1330.4454      1807.9703      103.92698      297.75641      0.16159385   
      8000   453.5719       1370.2466      1823.8185      171.87888      306.664        0.15740017   
      9000   447.00864      1347.8649      1794.8735      186.54446      301.65493      0.15064291   
     10000   458.26253      1347.2291      1805.4916      213.57389      301.51263      0.14797495   
     11000   474.64182      1318.9008      1793.5426      148.42105      295.1727       0.14823741   
     12000   475.78038      1307.0043      1782.7847      77.909526      292.51025      0.15027389   
     13000   463.67197      1343.6288      1807.3008      106.37952      300.70688      0.1534898    
     14000   459.75502      1334.0274      1793.7824      113.6658       298.55807      0.15473314   
     15000   464.12777      1319.7131      1783.8409      107.60902      295.3545       0.1547283    
     16000   458.82198      1287.4376      1746.2595      140.56534      288.13117      0.15501547   
     17000   443.06237      1318.7563      1761.8187      154.19334      295.14037      0.15552335   
     18000   461.75689      1317.6122      1779.3691      141.83164      294.88432      0.15779701   
     19000   471.80317      1316.2826      1788.0858      124.62811      294.58674      0.16007208   
     20000   466.90509      1365.8572      1832.7623      116.49519      305.68164      0.1594823    
     21000   485.32228      1392.0646      1877.3869      117.70023      311.54691      0.15417281   
     22000   496.54102      1351.7622      1848.3032      129.1448       302.52716      0.14711802   
     23000   466.14273      1348.1939      1814.3366      133.60657      301.72857      0.14346894   
     24000   480.53907      1330.2053      1810.7443      157.35486      297.70267      0.14420862   
     25000   461.48897      1345.7201      1807.209       173.71907      301.17491      0.14593588   
     26000   465.37046      1342.8391      1808.2095      184.80193      300.53015      0.14751076   
     27000   472.29803      1342.5452      1814.8432      174.98352      300.46437      0.14923373   
     28000   446.35929      1322.1729      1768.5322      137.39141      295.905        0.14971728   
     29000   471.54435      1327.6912      1799.2355      136.28685      297.14001      0.1513413    
     30000   445.04293      1339.0184      1784.0613      124.62529      299.67507      0.15272796   
     31000   466.15195      1313.6074      1779.7594      149.28962      293.98804      0.1519317    
     32000   454.13102      1313.4654      1767.5964      141.23564      293.95624      0.14566221   
     33000   462.95693      1368.3932      1831.3501      167.22243      306.2492       0.14125762   
     34000   485.66295      1393.5137      1879.1767      188.95506      311.87124      0.14246671   
     35000   476.5441       1352.9888      1829.5329      198.57192      302.80168      0.14707874   
     36000   467.01484      1390.6349      1857.6497      223.82409      311.22694      0.15254599   
     37000   485.11002      1356.2491      1841.3591      168.33467      303.53133      0.15601458   
     38000   466.34919      1372.2017      1838.5509      115.47509      307.10156      0.15800399   
     39000   465.5987       1418.8914      1884.4901      81.539628      317.55081      0.15732259   
     40000   487.02781      1360.6969      1847.7247      23.18777       304.52675      0.15200947   
     41000   505.56437      1327.2007      1832.765       29.90601       297.03023      0.14570408   
     42000   475.61714      1362.3186      1837.9357      84.697535      304.8897       0.14288163   
     43000   464.21804      1358.8741      1823.0921      156.19668      304.11881      0.14232446   
     44000   500.02014      1317.5675      1817.5876      220.43075      294.8743       0.14311994   
     45000   463.89442      1309.7369      1773.6313      235.46601      293.1218       0.14511348   
     46000   462.44985      1327.6265      1790.0763      181.20495      297.12553      0.1490624    
     47000   451.96377      1327.6836      1779.6473      140.22177      297.1383       0.15284081   
     48000   469.55121      1341.4519      1811.0031      72.029814      300.21969      0.15213851   
     49000   441.82819      1314.522       1756.3502      122.61725      294.19273      0.14828606   
     50000   444.69294      1344.2288      1788.9217      183.69003      300.84116      0.14222774   
     51000   505.60106      1296.1899      1801.7909      177.45294      290.08995      0.13583545   
     52000   477.95186      1294.1849      1772.1368      191.18444      289.64125      0.13554283   
     53000   466.87238      1305.9866      1772.859       152.48091      292.28249      0.14006081   
     54000   487.03954      1325.9005      1812.9401      146.45267      296.73926      0.14425199   
     55000   471.46165      1336.756       1808.2176      142.21637      299.16874      0.14457669   
     56000   472.42892      1340.9105      1813.3394      112.41019      300.09851      0.14273122   
     57000   482.55557      1286.1935      1768.749       70.040211      287.85274      0.14299244   
     58000   493.23598      1313.2281      1806.4641      45.421052      293.90314      0.14758066   
     59000   475.55819      1258.5659      1734.1241      120.79524      281.66964      0.15220989   
     60000   456.54122      1309.0114      1765.5526      152.95262      292.95943      0.15377987   
     61000   453.38384      1325.2617      1778.6455      163.36209      296.59628      0.15300814   
     62000   474.33312      1322.6303      1796.9634      154.74131      296.00738      0.15035525   
     63000   460.47104      1325.5049      1785.9759      129.1973       296.65071      0.14686184   
     64000   447.31088      1271.3004      1718.6113      139.63934      284.51964      0.14571153   
     65000   482.84163      1283.0173      1765.859       128.74363      287.14191      0.14700954   
     66000   482.37153      1323.5981      1805.9696      162.18874      296.22397      0.14934203   
     67000   466.02064      1343.5756      1809.5963      181.97572      300.69499      0.14919053   
     68000   430.30171      1371.774       1802.0757      213.75322      307.00583      0.14881352   
     69000   482.25073      1328.3096      1810.5603      183.17477      297.27841      0.15077765   
     70000   464.10135      1345.4887      1809.5901      168.39328      301.12314      0.15780425   
     71000   447.72726      1364.3539      1812.0812      135.4772       305.34521      0.16206958   
     72000   454.53009      1347.8511      1802.3812      73.426636      301.65184      0.16041732   
     73000   460.69994      1369.4602      1830.1601      72.529078      306.488        0.15741499   
     74000   462.95305      1350.6336      1813.5866      135.92073      302.27456      0.15336166   
     75000   475.33325      1328.0639      1803.3972      171.92935      297.22344      0.1505441    
     76000   446.72341      1312.6243      1759.3478      185.47132      293.76802      0.15055078   
     77000   471.17957      1314.229       1785.4086      179.09001      294.12715      0.15372277   
     78000   500.85752      1303.584       1804.4415      119.88382      291.74478      0.15628902   
     79000   450.10847      1312.9623      1763.0708      96.185563      293.84366      0.15826202   
     80000   464.13916      1304.5276      1768.6668      99.252048      291.95596      0.1601491    
     81000   452.49381      1300.097       1752.5908      107.36504      290.96437      0.16020484   
     82000   478.21782      1338.8307      1817.0485      204.16223      299.63306      0.1604601    
     83000   456.66638      1359.7627      1816.4291      240.22278      304.31768      0.15619187   
     84000   485.0587       1345.6952      1830.7539      267.41949      301.16935      0.15095792   
     85000   479.58953      1352.0189      1831.6085      216.47025      302.58461      0.14651706   
     86000   478.00268      1390.5496      1868.5523      170.98689      311.20785      0.1449108    
     87000   480.5722       1374.6264      1855.1986      122.24037      307.6442       0.14524368   
     88000   471.65211      1355.1593      1826.8114      119.22403      303.28744      0.14977749   
     89000   460.91582      1336.2422      1797.158       144.50204      299.05375      0.15394627   
     90000   498.53471      1305.2362      1803.7709      153.35686      292.11455      0.15334775   
     91000   478.59345      1288.3428      1766.9363      159.349        288.33377      0.15118119   
     92000   464.65313      1324.9714      1789.6245      142.86703      296.53132      0.14963982   
     93000   446.0826       1356.8115      1802.8941      136.80308      303.65721      0.14903038   
     94000   480.05147      1325.0016      1805.0531      114.09493      296.53808      0.14908565   
     95000   477.87205      1345.6001      1823.4721      130.34146      301.14806      0.15007421   
     96000   473.07127      1368.047       1841.1182      153.53973      306.17172      0.15414586   
     97000   475.36222      1361.5129      1836.8751      216.96615      304.70938      0.16252033   
     98000   458.93656      1346.524       1805.4606      225.36551      301.35484      0.16288599   
     99000   492.2429       1314.0912      1806.3341      278.70081      294.09632      0.15830507   
    100000   463.38469      1325.7142      1789.0989      263.8412       296.69755      0.15359062   
    101000   476.66631      1312.7401      1789.4064      210.63259      293.79393      0.15183069   
    102000   451.22744      1295.9125      1747.1399      147.49748      290.02788      0.15151061   
    103000   433.11301      1316.1554      1749.2684      125.98168      294.55827      0.15249303   
    104000   451.14138      1330.6219      1781.7632      72.719978      297.7959       0.15498377   
    105000   463.68047      1318.9035      1782.584       86.454161      295.17331      0.15615521   
    106000   448.18258      1320.624       1768.8066      126.77539      295.55836      0.15494554   
    107000   462.29687      1285.7768      1748.0736      157.83631      287.75948      0.14924197   
    108000   474.02121      1287.247       1761.2682      194.68256      288.08852      0.14212526   
    109000   476.05354      1308.2504      1784.304       200.02922      292.78913      0.14138793   
    110000   452.34111      1348.0796      1800.4207      185.09171      301.70298      0.14480137   
    111000   482.12858      1319.9275      1802.0561      138.79536      295.40248      0.14849743   
    112000   453.25375      1325.9301      1779.1839      81.584506      296.74589      0.14963216   
    113000   470.52862      1338.4093      1808.9379      72.411326      299.53874      0.14985032   
    114000   452.27723      1358.5855      1810.8627      98.687488      304.05422      0.14815733   
    115000   506.37504      1379.6589      1886.034       89.647772      308.7705       0.14582971   
    116000   475.92968      1368.2966      1844.2263      148.52849      306.22759      0.14472397   
    117000   462.27503      1360.9374      1823.2124      171.018        304.58058      0.1460083    
    118000   467.35131      1355.6419      1822.9932      250.17907      303.39544      0.15182269   
    119000   466.82511      1395.7188      1862.544       299.15106      312.36474      0.15649413   
    120000   466.12378      1345.5023      1811.6261      247.84096      301.12618      0.15717806   
    121000   458.96361      1315.226       1774.1896      205.73382      294.35028      0.15590705   
    122000   458.09598      1329.9617      1788.0577      126.9897       297.64816      0.15075651   
    123000   495.57377      1302.0468      1797.6206      70.652377      291.40074      0.14650942   
    124000   481.89051      1291.5648      1773.4553      37.835571      289.05485      0.14602217   
    125000   490.17204      1279.8393      1770.0113      40.967732      286.43066      0.14734488   
    126000   466.64213      1312.5826      1779.2247      115.26003      293.75868      0.15039765   
    127000   477.53977      1324.1631      1801.7029      138.22109      296.35042      0.15165322   
    128000   452.05941      1324.4886      1776.5481      191.10387      296.42328      0.15127631   
    129000   477.74864      1338.9136      1816.6623      187.60963      299.65162      0.15245445   
    130000   480.99677      1367.0007      1847.9975      152.60852      305.93757      0.15354265   
    131000   489.91485      1337.2483      1827.1632      95.92892       299.27892      0.15240254   
    132000   461.48423      1380.959       1842.4432      92.869602      309.06145      0.14908305   
    133000   504.27286      1338.8878      1843.1606      42.998653      299.64583      0.14402019   
    134000   479.04824      1343.4568      1822.5051      38.188536      300.66839      0.14229037   
    135000   452.51731      1315.2942      1767.8115      49.567009      294.36554      0.14724633   
    136000   473.61351      1331.763       1805.3765      136.84982      298.05129      0.15442522   
    137000   456.35079      1318.9413      1775.2921      191.10749      295.18178      0.15572166   
    138000   490.08159      1296.9389      1787.0205      232.81966      290.25758      0.15559575   
    139000   463.6386       1298.9706      1762.6092      204.45109      290.71229      0.15483258   
    140000   462.74903      1342.821       1805.57        195.38007      300.5261       0.15459979   
    141000   469.63086      1364.1207      1833.7516      138.92308      305.29302      0.15289282   
    142000   453.08954      1382.6038      1835.6933      70.874157      309.42957      0.14814326   
    143000   469.09312      1375.3293      1844.4224      110.19869      307.80152      0.14557324   
    144000   500.67539      1347.8857      1848.5611      87.085671      301.6596       0.14567548   
    145000   464.42267      1386.5831      1851.0058      100.30865      310.32015      0.14820747   
    146000   441.29833      1326.3605      1767.6588      143.83728      296.8422       0.15735687   
    147000   442.57524      1328.8069      1771.3821      142.46553      297.3897       0.16236413   
    148000   460.27509      1311.7313      1772.0064      163.89286      293.56816      0.16351913   
    149000   465.49012      1316.4979      1781.9881      158.20539      294.63494      0.16043198   
    150000   492.54778      1326.6805      1819.2283      164.09748      296.91383      0.1558439    
    151000   488.26424      1372.2243      1860.4885      134.14359      307.10661      0.15110808   
    152000   486.08715      1355.7259      1841.8131      101.23596      303.41424      0.14845797   
    153000   484.88241      1352.8273      1837.7097      122.1025       302.76553      0.14915738   
    154000   493.77487      1392.284       1886.0588      219.4959       311.59601      0.15285951   
    155000   480.58515      1384.8601      1865.4453      202.62633      309.93454      0.1552643    
    156000   468.65061      1359.5942      1828.2448      136.53786      304.27996      0.15683264   
    157000   449.07863      1360.7263      1809.8049      97.239997      304.53334      0.15657412   
    158000   491.08969      1369.0172      1860.1069      54.221661      306.38885      0.15478181   
    159000   461.39553      1355.7514      1817.147       79.887142      303.41996      0.15235741   
    160000   475.22556      1342.455       1817.6805      139.05268      300.44417      0.151978     
    161000   483.05501      1375.6649      1858.7199      156.58024      307.87663      0.15403111   
    162000   477.15101      1427.0453      1904.1963      176.26416      319.37566      0.15680895   
    163000   459.35225      1371.363       1830.7152      175.68631      306.91385      0.16106232   
    164000   434.95119      1363.8957      1798.8469      217.30807      305.24266      0.1651093    
    165000   459.44237      1345.0975      1804.5399      194.60276      301.03559      0.1644325    
    166000   491.52059      1315.2186      1806.7392      125.90173      294.34863      0.15792492   
    167000   466.36614      1320.5184      1786.8845      96.106814      295.53473      0.15188176   
    168000   458.58124      1320.6284      1779.2097      92.982489      295.55936      0.1504677    
    169000   468.45126      1334.7579      1803.2091      91.487061      298.72155      0.15143624   
    170000   457.85523      1332.7547      1790.6099      84.264341      298.27323      0.15325146   
    171000   427.84202      1321.9413      1749.7833      89.269251      295.85318      0.15701249   
    172000   448.71845      1278.4581      1727.1766      113.90205      286.12155      0.16132721   
    173000   453.84338      1331.1952      1785.0385      156.91057      297.92421      0.16302845   
    174000   444.33898      1349.373       1793.712       169.98076      301.99246      0.16095208   
    175000   457.92294      1345.5267      1803.4496      133.50843      301.13163      0.15622467   
    176000   465.55308      1350.4765      1816.0296      132.19866      302.23941      0.15290632   
    177000   470.36292      1379.3468      1849.7097      182.9252       308.70064      0.15312318   
    178000   500.76075      1399.5471      1900.3079      188.37568      313.22152      0.15395859   
    179000   471.31969      1374.3564      1845.6761      198.09509      307.58378      0.15399772   
    180000   467.08738      1356.1435      1823.2309      159.30022      303.50769      0.15321641   
    181000   483.71597      1364.6054      1848.3214      102.62929      305.40149      0.15285995   
    182000   478.40944      1349.244       1827.6534      74.897244      301.96357      0.15214813   
    183000   459.78431      1345.764       1805.5484      40.95642       301.18476      0.15048434   
    184000   460.58365      1286.6967      1747.2803      29.02488       287.96536      0.15277985   
    185000   441.91072      1334.2258      1776.1365      87.065168      298.60248      0.15884417   
    186000   444.81639      1334.669       1779.4854      102.71328      298.70167      0.1613126    
    187000   436.22321      1346.8462      1783.0694      161.51088      301.42695      0.15958424   
    188000   454.26292      1326.108       1780.371       214.00355      296.7857       0.15592813   
    189000   449.63517      1314.8476      1764.4828      218.48859      294.26559      0.1533386    
    190000   472.17878      1335.5835      1807.7623      196.54212      298.90632      0.1522888    
    191000   474.83244      1314.7687      1789.6011      121.63882      294.24792      0.15069272   
    192000   478.91238      1325.9905      1804.9029      106.98347      296.7594       0.14860056   
    193000   481.46529      1330.8816      1812.3468      124.5503       297.85403      0.14578251   
    194000   482.09562      1366.1774      1848.273       181.25033      305.7533       0.14457988   
    195000   489.14744      1336.2445      1825.3919      200.86976      299.05426      0.14603179   
    196000   470.68722      1370.1049      1840.7921      208.34113      306.63229      0.15215224   
    197000   472.59147      1381.7138      1854.3052      194.22757      309.23037      0.1579583    
    198000   466.46842      1356.6396      1823.1081      171.14645      303.61874      0.16054553   
    199000   441.51185      1354.308       1795.8198      150.20227      303.0969       0.16039136   
    200000   437.62178      1373.6986      1811.3203      104.0171       307.43656      0.15585013   
    201000   493.76285      1342.9702      1836.7331      106.13051      300.55949      0.15111694   
    202000   459.83156      1346.9018      1806.7334      135.1528       301.43939      0.14707418   
    203000   472.73991      1290.8194      1763.5593      183.63506      288.88803      0.14586929   
    204000   467.13202      1277.1274      1744.2594      229.15943      285.82373      0.14681809   
    205000   470.16218      1330.345       1800.5072      262.14127      297.73394      0.14844899   
    206000   458.00876      1346.5048      1804.5136      249.16413      301.35054      0.1480846    
    207000   473.2097       1318.0594      1791.2691      192.67731      294.9844       0.14763342   
    208000   453.2064       1276.5107      1729.7171      128.81067      285.68571      0.14827188   
    209000   424.04551      1334.8166      1758.8622      111.54267      298.73471      0.15364728   
    210000   439.2529       1331.0487      1770.3016      110.90051      297.89143      0.15982592   
    211000   444.07675      1324.4784      1768.5552      106.8241       296.421        0.16266177   
    212000   439.41535      1324.7408      1764.1562      119.82178      296.47971      0.16525152   
    213000   452.70263      1377.3577      1830.0604      169.97015      308.25548      0.16781311   
    214000   456.03717      1363.56        1819.5971      183.31564      305.16752      0.16885096   
    215000   445.07981      1382.6583      1827.7382      195.12497      309.44177      0.16909505   
    216000   489.994        1338.5059      1828.4999      161.35205      299.56038      0.16205109   
    217000   474.65298      1355.6599      1830.3129      139.51613      303.39948      0.15174663   
    218000   462.76578      1355.1456      1817.9114      116.33272      303.28436      0.15099284   
    219000   459.04493      1351.302       1810.3469      88.018102      302.42416      0.15521847   
    220000   451.90728      1322.9275      1774.8348      106.25053      296.0739       0.16065023   
    221000   434.94465      1349.5501      1784.4947      131.17926      302.03207      0.16589274   
    222000   472.65386      1320.8361      1793.49        131.28082      295.60583      0.1683734    
    223000   447.1032       1343.4028      1790.506       177.24455      300.65631      0.16573345   
    224000   469.29768      1380.204       1849.5016      170.9003       308.89248      0.16032649   
    225000   455.07402      1344.7888      1799.8629      141.12069      300.9665       0.15576979   
    226000   460.00941      1330.0578      1790.0672      158.93883      297.66966      0.15388659   
    227000   467.80788      1296.4159      1764.2238      169.79297      290.14054      0.15300639   
    228000   478.4822       1315.8974      1794.3796      157.15312      294.50054      0.1524023    
    229000   472.13861      1327.6618      1799.8004      163.35087      297.13344      0.15431377   
    230000   477.06217      1346.8392      1823.9014      138.4854       301.42538      0.15724813   
    231000   477.82253      1328.0187      1805.8412      139.62846      297.21331      0.16244603   
    232000   455.65015      1377.2971      1832.9472      159.95226      308.24191      0.16470986   
    233000   465.84525      1430.9339      1896.7791      138.0441       320.24594      0.16123806   
    234000   490.54405      1365.2689      1855.813       137.17538      305.54998      0.15489721   
    235000   484.57306      1344.9241      1829.4972      211.03733      300.99678      0.1523508    
    236000   473.33258      1380.4422      1853.7747      224.64509      308.94579      0.15220188   
    237000   476.69153      1395.5854      1872.2769      190.26402      312.33488      0.15348133   
    238000   493.19789      1361.923       1855.1209      108.47752      304.80115      0.15615035   
    239000   468.48361      1359.0653      1827.5489      106.25866      304.16159      0.16056775   
    240000   450.48026      1364.8681      1815.3483      95.942414      305.46028      0.16252762   
    241000   461.18912      1339.8274      1801.0165      132.06068      299.85612      0.16182689   
    242000   468.49494      1323.9981      1792.493       153.88159      296.31349      0.15301969   
    243000   463.81881      1395.92        1859.7388      116.00912      312.40976      0.14433439   
    244000   488.16276      1302.9379      1791.1007      51.04719       291.60018      0.14236615   
    245000   510.97114      1312.0344      1823.0056      36.067332      293.63599      0.14553915   
    246000   459.95794      1343.7573      1803.7152      56.589156      300.73564      0.15030031   
    247000   468.52791      1299.2488      1767.7768      137.78651      290.77456      0.15355904   
    248000   457.84585      1338.3448      1796.1907      221.89596      299.52432      0.15353623   
    249000   470.98465      1332.6231      1803.6077      271.91507      298.24378      0.15147956   
    250000   442.51064      1294.7125      1737.2232      264.5423       289.75932      0.14902261   
    251000   480.40383      1281.0322      1761.436       191.83071      286.69763      0.14800474   
    252000   467.35267      1317.7345      1785.0871      118.67273      294.91168      0.15157512   
    253000   452.26193      1325.8692      1778.1311      94.861782      296.73224      0.15730721   
    254000   471.15776      1297.9445      1769.1022      88.311398      290.48264      0.15964392   
    255000   461.25892      1245.7197      1706.9786      120.40285      278.79462      0.1584357    
    256000   458.70423      1322.8941      1781.5983      164.07762      296.06642      0.15673901   
    257000   447.65622      1337.279       1784.9352      195.11021      299.28579      0.15628876   
    258000   436.09522      1351.9793      1788.0745      150.79767      302.57574      0.15282852   
    259000   478.0894       1295.4583      1773.5477      115.04304      289.92624      0.15075052   
    260000   483.88246      1324.7364      1808.6188      117.68554      296.47872      0.15000691   
    261000   461.67102      1317.9548      1779.6258      146.02097      294.96099      0.15206028   
    262000   463.72179      1331.1701      1794.8919      221.64268      297.9186       0.15933881   
    263000   487.29817      1318.3912      1805.6894      242.92325      295.05866      0.16415796   
    264000   457.5347       1369.1556      1826.6903      217.24164      306.41983      0.16237227   
    265000   466.3734       1325.5551      1791.9284      166.16912      296.66194      0.15580058   
    266000   464.70179      1324.8705      1789.5723      106.67591      296.50874      0.15151578   
    267000   465.63073      1331.5372      1797.1679      81.839329      298.00075      0.14896707   
    268000   479.42447      1396.36        1875.7845      136.09081      312.50824      0.14803925   
    269000   480.76116      1355.5501      1836.3112      192.15225      303.37489      0.14699128   
    270000   487.3067       1353.5083      1840.815       209.77578      302.91794      0.1460241    
    271000   488.36624      1387.2125      1875.5787      211.91862      310.46101      0.14461174   
    272000   480.59209      1384.5149      1865.107       161.56806      309.85728      0.14317469   
    273000   499.05339      1353.6382      1852.6916      117.80323      302.94701      0.14255227   
    274000   497.94478      1353.5202      1851.465       32.481216      302.9206       0.14424241   
    275000   487.56514      1400.9569      1888.5221      50.187216      313.53703      0.14893411   
    276000   474.78797      1406.0079      1880.7959      106.55229      314.66745      0.15187662   
    277000   483.15493      1363.8883      1847.0433      155.45762      305.24101      0.15349647   
    278000   460.51052      1361.2529      1821.7634      168.96918      304.6512       0.15398114   
    279000   468.96583      1357.486       1826.4518      157.87489      303.80815      0.15272724   
    280000   465.27344      1321.2473      1786.5207      129.26376      295.69785      0.1481591    
    281000   483.22595      1296.6579      1779.8838      175.74278      290.19469      0.14536561   
    282000   469.32631      1318.3981      1787.7245      173.42648      295.06021      0.14533694   
    283000   488.64         1329.7862      1818.4262      178.73045      297.60888      0.14973867   
    284000   463.5291       1320.7657      1784.2948      162.10865      295.59008      0.15366104   
    285000   447.62598      1308.2031      1755.829       133.06193      292.77853      0.1536384    
    286000   453.43815      1304.1267      1757.5648      81.324181      291.86623      0.15135934   
    287000   479.92728      1300.5207      1780.448       99.88571       291.0592       0.15066104   
    288000   472.64076      1318.2502      1790.891       117.55452      295.0271       0.14723692   
    289000   470.33886      1314.5285      1784.8674      165.37437      294.19418      0.14189131   
    290000   488.16755      1335.6357      1823.8033      201.50375      298.91802      0.13897126   
    291000   498.82369      1382.1743      1880.998       182.53284      309.33344      0.13970388   
    292000   519.38499      1330.6685      1850.0534      127.29096      297.80633      0.14308542   
    293000   464.42744      1338.5907      1803.0182      109.90183      299.57935      0.14929687   
    294000   476.88102      1314.3505      1791.2315      70.238967      294.15434      0.15394656   
    295000   467.17765      1288.8286      1756.0063      105.11256      288.44249      0.15657681   
    296000   466.0464       1339.5272      1805.5736      143.17134      299.78894      0.15636265   
    297000   452.74894      1344.8717      1797.6206      218.99468      300.98504      0.15490114   
    298000   446.22153      1321.8741      1768.0956      204.7038       295.83813      0.15011696   
    299000   482.84376      1332.6869      1815.5307      218.9608       298.25807      0.14756746   
    300000   514.92578      1296.9109      1811.8367      156.41209      290.25132      0.14480055   
    301000   474.43464      1255.5393      1729.9739      161.2951       280.99226      0.14619504   
    302000   458.91919      1307.1909      1766.1101      128.82089      292.55202      0.15583906   
    303000   461.88451      1305.4305      1767.315       81.726975      292.15802      0.16151952   
    304000   484.32855      1327.8498      1812.1783      91.147562      297.17551      0.1620658    
    305000   477.14701      1328.4392      1805.5862      121.91811      297.30743      0.15798886   
    306000   480.08256      1342.1621      1822.2446      187.28193      300.37863      0.15302655   
    307000   466.69111      1338.0114      1804.7025      183.29009      299.4497       0.15007934   
    308000   454.11087      1348.9846      1803.0955      177.15597      301.90552      0.15058817   
    309000   475.44095      1346.7686      1822.2095      124.50742      301.40957      0.15334561   
    310000   504.87782      1341.3869      1846.2647      122.70617      300.20514      0.1562897    
    311000   482.68099      1355.0271      1837.708       156.06761      303.25784      0.15639599   
    312000   465.55416      1364.5126      1830.0667      155.278        305.38071      0.1553425    
    313000   488.77868      1354.4054      1843.1841      158.69207      303.11872      0.15438686   
    314000   456.1261       1305.2485      1761.3746      152.01319      292.11729      0.15432803   
    315000   467.88873      1301.3867      1769.2754      178.39071      291.25302      0.15502596   
    316000   452.61403      1320.521       1773.135       207.76451      295.53531      0.15747486   
    317000   462.33622      1326.6572      1788.9934      218.2882       296.9086       0.1590995    
    318000   471.38025      1289.0926      1760.4728      170.87641      288.50157      0.15764224   
    319000   470.17367      1329.5885      1799.7622      161.11851      297.56465      0.15374492   
    320000   472.63174      1331.1801      1803.8118      109.21183      297.92084      0.14806749   
    321000   470.00584      1325.6089      1795.6148      117.75665      296.674        0.14806184   
    322000   481.47489      1347.4332      1828.9081      89.952788      301.55831      0.15213944   
    323000   493.04761      1332.5451      1825.5927      90.688291      298.22634      0.15418925   
    324000   478.76065      1345.6702      1824.4309      82.329253      301.16376      0.15425309   
    325000   492.25924      1319.7568      1812.016       88.163241      295.36427      0.15426659   
    326000   475.39263      1348.3892      1823.7818      98.998171      301.77226      0.15534537   
    327000   487.39969      1373.8803      1861.2799      75.993153      307.47722      0.15704288   
    328000   501.9116       1318.7149      1820.6265      97.230153      295.1311       0.15762727   
    329000   483.27262      1339.7549      1823.0275      107.75697      299.83989      0.15512726   
    330000   464.67387      1355.8564      1820.5303      175.17056      303.44345      0.15432727   
    331000   471.77711      1387.9308      1859.7079      225.01539      310.62176      0.1588349    
    332000   441.15254      1385.631       1826.7835      305.09142      310.10705      0.16660805   
    333000   452.87865      1383.1344      1836.0131      250.86444      309.54833      0.1680929    
    334000   463.64803      1350.5371      1814.1852      245.89549      302.25298      0.16653495   
    335000   453.09739      1363.3402      1816.4376      160.0185       305.11834      0.16208844   
    336000   447.20883      1360.4096      1807.6184      98.420018      304.46246      0.15728285   
    337000   484.27711      1364.8199      1849.097       58.276461      305.44948      0.15349943   
    338000   471.16851      1347.8463      1819.0148      46.956832      301.65078      0.15126502   
    339000   471.30824      1357.9635      1829.2718      47.275716      303.91502      0.15016571   
    340000   483.24402      1349.225       1832.469       87.02468       301.95932      0.1502702    
    341000   499.74665      1408.2382      1907.9848      164.93485      315.1666       0.15183527   
    342000   498.83411      1365.1699      1864.004       230.27746      305.52783      0.1523149    
    343000   476.70451      1344.5785      1821.283       251.03685      300.91943      0.15266575   
    344000   465.20312      1353.5734      1818.7765      227.62453      302.9325       0.15469164   
    345000   474.66981      1374.926       1849.5958      177.00739      307.71127      0.15833547   
    346000   438.59363      1363.444       1802.0376      144.84582      305.14156      0.16072541   
    347000   473.76131      1348.0666      1821.8279      61.799414      301.70007      0.16002231   
    348000   469.80647      1326.4973      1796.3038      56.487376      296.87282      0.15433584   
    349000   486.87652      1303.5707      1790.4473      64.493345      291.7418       0.14749383   
    350000   477.73823      1320.2449      1797.9831      123.43159      295.47351      0.14569505   
    351000   460.77603      1303.986       1764.762       163.97377      291.83473      0.14665875   
    352000   434.65863      1318.104       1752.7627      214.74744      294.99439      0.14916285   
    353000   484.85237      1305.7105      1790.5629      190.20084      292.22069      0.15155956   
    354000   469.19481      1313.1932      1782.388       180.69455      293.89532      0.15217957   
    355000   459.55663      1356.1997      1815.7563      128.15305      303.52027      0.15090827   
    356000   468.75535      1342.7694      1811.5248      86.42514       300.51455      0.14945509   
    357000   476.57726      1317.0275      1793.6048      146.72875      294.75346      0.1497749    
    358000   450.13744      1334.5494      1784.6868      210.40993      298.67489      0.15556555   
    359000   451.32674      1331.8976      1783.2244      227.21753      298.08142      0.16217608   
    360000   454.87353      1307.472       1762.3455      182.16801      292.61491      0.16247751   
    361000   454.91463      1309.0136      1763.9282      149.59642      292.95993      0.15833197   
    362000   470.92577      1317.4553      1788.3811      98.454855      294.8492       0.15299339   
    363000   435.40726      1265.3663      1700.7736      84.667697      283.19158      0.1515243    
    364000   468.84385      1294.7718      1763.6156      142.26797      289.77259      0.15146303   
    365000   455.96541      1333.4812      1789.4466      152.56967      298.43583      0.15025067   
    366000   447.75832      1346.7497      1794.508       148.69447      301.40534      0.14852433   
    367000   466.10596      1334.2438      1800.3498      156.6448       298.60651      0.14973471   
    368000   468.88489      1311.6381      1780.523       154.96519      293.5473       0.15240533   
    369000   493.47496      1359.7171      1853.1921      145.14895      304.30749      0.15514689   
    370000   487.02026      1351.4305      1838.4508      114.52044      302.45293      0.15346642   
    371000   491.68424      1355.1011      1846.7853      88.21837       303.2744       0.15042015   
    372000   489.07724      1378.7122      1867.7895      77.543339      308.55863      0.14596784   
    373000   471.59638      1372.881       1844.4774      86.959252      307.25358      0.14456213   
    374000   485.11294      1343.9938      1829.1068      129.4234       300.78858      0.14835223   
    375000   482.53877      1404.1805      1886.7193      126.5073       314.25848      0.15408188   
    376000   483.46808      1351.6999      1835.1679      150.96722      302.5132       0.15763651   
    377000   471.68741      1350.9999      1822.6873      183.32634      302.35655      0.15821207   
    378000   472.51055      1365.2874      1837.7979      160.01094      305.55412      0.15770685   
    379000   466.55384      1357.648       1824.2018      156.17078      303.84441      0.15638284   
    380000   479.62929      1368.5611      1848.1904      165.43631      306.28678      0.15568835   
    381000   459.42391      1352.6594      1812.0833      147.31541      302.72794      0.15325785   
    382000   469.87272      1358.5737      1828.4465      122.83917      304.05159      0.15194096   
    383000   501.68669      1372.9999      1874.6866      52.463122      307.28019      0.15072491   
    384000   484.03939      1361.3733      1845.4127      43.654755      304.67815      0.149129     
    385000   473.35168      1350.8415      1824.1931      52.322102      302.32109      0.15096072   
    386000   478.19472      1333.355       1811.5497      113.84191      298.40759      0.15460276   
    387000   437.38514      1322.7613      1760.1464      119.81972      296.03668      0.15547763   
    388000   454.32617      1293.2413      1747.5675      150.85962      289.43005      0.15677921   
    389000   457.92741      1289.4836      1747.411       156.33334      288.58908      0.15856572   
    390000   467.43146      1310.4925      1777.924       174.59518      293.29092      0.15954174   
    391000   475.82832      1330.3118      1806.1401      159.55875      297.72651      0.15819118   
    392000   447.06014      1355.7114      1802.7715      217.05212      303.41099      0.1542625    
    393000   465.96912      1342.0069      1807.976       194.56178      300.3439       0.14943931   
    394000   479.52246      1336.3179      1815.8403      145.54704      299.07068      0.14704568   
    395000   497.05564      1321.8313      1818.887       123.82352      295.82856      0.14575934   
    396000   469.58102      1287.1605      1756.7415      82.674777      288.06916      0.14578849   
    397000   464.74295      1330.5657      1795.3086      129.28436      297.78332      0.1510269    
    398000   483.81469      1330.7963      1814.611       201.27776      297.83494      0.15750491   
    399000   467.26074      1347.567       1814.8277      213.60838      301.58826      0.15956062   
    400000   461.30991      1364.055       1825.3649      229.31025      305.27831      0.15871259   
Loop time of 2135.33 on 8 procs for 400000 steps with 1500 atoms

Performance: 8.092 ns/day, 2.966 hours/ns, 187.325 timesteps/s, 280.987 katom-step/s
99.4% CPU use with 8 MPI tasks x 1 OpenMP threads

MPI task timing breakdown:
Section |  min time  |  avg time  |  max time  |%varavg| %total
---------------------------------------------------------------
Pair    | 70.963     | 74.496     | 79.796     |  30.7 |  3.49
Bond    | 4.2256     | 4.3823     | 4.5889     |   6.1 |  0.21
Kspace  | 922.33     | 927.88     | 931.78     |   9.3 | 43.45
Neigh   | 1.2188     | 1.2207     | 1.223      |   0.1 |  0.06
Comm    | 31.19      | 31.48      | 31.77      |   3.5 |  1.47
Output  | 0.015543   | 0.017146   | 0.028049   |   3.1 |  0.00
Modify  | 980.38     | 1043.1     | 1092.3     | 139.1 | 48.85
Other   |            | 52.78      |            |       |  2.47

Nlocal:          187.5 ave         218 max         152 min
Histogram: 1 0 1 0 1 3 0 0 0 2
Nghost:        1676.12 ave        1705 max        1639 min
Histogram: 1 0 0 2 1 0 0 2 1 1
Neighs:        13915.9 ave       17443 max       10500 min
Histogram: 1 1 1 0 2 0 1 0 1 1

Total # of neighbors = 111327
Ave neighs/atom = 74.218
Ave special neighs/atom = 2
Neighbor list builds = 2514
Dangerous builds = 0
PPPM initialization ...
  using 12-bit tables for long-range coulomb (src/kspace.cpp:342)
  G vector (1/distance) = 0.26777425
  grid = 48 48 48
  stencil order = 5
  estimated absolute RMS force accuracy = 0.00041751489
  estimated relative force accuracy = 1.2573337e-06
  using single precision FFTW3
  3d grid and FFT values/proc = 29791 13824
Generated 1 of 1 mixed pair_coeff terms from arithmetic mixing rule
Last active /omp style is kspace_style pppm/omp
Setting up Verlet run ...
  Unit style    : real
  Current step  : 0
  Time step     : 0.5
Per MPI rank memory allocation (min/avg/max) = 8.466 | 8.468 | 8.469 Mbytes
   Step         PotEng         KinEng         TotEng         Press           Temp        v_Density   
         0   461.31019      1364.055       1825.3652      229.31185      305.27831      0.15871259   
      1000   454.83149      1374.2401      1829.0716      193.17255      307.55776      0.15641725   
      2000   475.29186      1356.1506      1831.4425      192.16914      303.5093       0.15124762   
      3000   469.95547      1361.4037      1831.3592      105.14042      304.68495      0.14693599   
      4000   469.42368      1332.1079      1801.5316      108.45733      298.12848      0.1470263    
      5000   473.25842      1297.847       1771.1054      127.23099      290.46082      0.14795495   
      6000   460.73064      1272.9474      1733.6781      119.51016      284.88825      0.14690047   
      7000   456.21635      1331.174       1787.3903      152.58408      297.91947      0.14787565   
      8000   488.37013      1311.357       1799.7271      139.16592      293.48439      0.15148411   
      9000   493.98422      1309.2504      1803.2346      138.29745      293.01292      0.15399895   
     10000   488.13384      1306.0271      1794.1609      128.63993      292.29155      0.15425322   
     11000   473.00965      1329.0696      1802.0793      188.7844       297.4485       0.15639606   
     12000   489.12348      1333.2322      1822.3557      178.90524      298.38011      0.16119513   
     13000   441.31584      1338.5594      1779.8752      150.38193      299.57234      0.17061018   
     14000   442.43288      1323.4612      1765.8941      172.38147      296.19333      0.17401599   
     15000   450.36448      1310.3069      1760.6713      133.69255      293.24936      0.16702636   
     16000   459.27265      1374.2559      1833.5285      152.85604      307.56128      0.15877341   
     17000   469.38848      1372.7757      1842.1642      135.20457      307.23002      0.15346277   
     18000   503.91662      1350.8641      1854.7808      122.02762      302.32617      0.15070974   
     19000   472.44107      1364.8539      1837.295       92.894805      305.45711      0.14898377   
     20000   480.80459      1402.9787      1883.7833      72.799496      313.98951      0.14907728   
     21000   488.24656      1381.3855      1869.6321      52.707027      309.15691      0.14884303   
     22000   468.86844      1369.3556      1838.2241      76.928635      306.4646       0.15054088   
     23000   470.45527      1340.432       1810.8873      103.69859      299.99144      0.15448171   
     24000   497.66258      1335.9465      1833.6091      146.00245      298.98758      0.15861663   
     25000   465.15163      1364.0371      1829.1888      214.8333       305.27431      0.15924182   
     26000   463.67133      1338.4122      1802.0836      255.49639      299.53941      0.15694013   
     27000   485.28388      1301.4295      1786.7134      226.31724      291.26259      0.15234739   
     28000   472.79636      1341.7855      1814.5818      191.88508      300.29435      0.14832794   
     29000   460.36154      1321.7629      1782.1244      137.63794      295.81325      0.14486198   
     30000   504.97253      1325.5933      1830.5658      74.281629      296.67049      0.14287481   
     31000   487.35767      1323.1329      1810.4905      63.624881      296.11985      0.14402996   
     32000   468.30996      1328.6495      1796.9594      41.498578      297.35448      0.14532123   
     33000   492.921        1328.2563      1821.1773      78.057845      297.26649      0.14725406   
     34000   465.93792      1310.6663      1776.6042      97.623278      293.3298       0.14916506   
     35000   479.32288      1329.5823      1808.9052      121.06939      297.56325      0.15011164   
     36000   472.89835      1306.3203      1779.2187      185.89781      292.35717      0.14973956   
     37000   482.14213      1260.5731      1742.7152      177.89403      282.11884      0.14772888   
     38000   517.69458      1269.7138      1787.4084      119.93092      284.16455      0.14608311   
     39000   456.80607      1336.2087      1793.0148      127.06995      299.04626      0.14641218   
     40000   475.46377      1326.552       1802.0157      54.063944      296.88505      0.14802356   
     41000   443.99071      1316.5943      1760.585       96.550517      294.65651      0.15342992   
     42000   458.37751      1336.921       1795.2985      111.07459      299.20566      0.15735338   
     43000   470.42806      1299.1611      1769.5891      207.8635       290.75492      0.15817551   
     44000   489.02086      1313.9628      1802.9837      226.28807      294.06758      0.15520785   
     45000   451.92155      1316.2754      1768.197       166.34542      294.58514      0.14681979   
     46000   483.71353      1273.2344      1756.9479      71.144948      284.95247      0.14319115   
     47000   494.7753       1313.9849      1808.7602      5.9715561      294.07252      0.14418727   
     48000   475.31573      1344.4001      1819.7158     -0.61322154     300.8795       0.14548939   
     49000   477.98329      1358.5734      1836.5567      69.659349      304.05152      0.14850891   
     50000   504.13321      1322.8598      1826.9931      142.72954      296.05875      0.15247526   
     51000   488.11721      1361.5966      1849.7138      191.33292      304.72812      0.15395481   
     52000   445.50373      1368.8843      1814.3881      192.59456      306.35912      0.15343532   
     53000   472.3501       1351.2178      1823.5679      176.72569      302.40531      0.15162938   
     54000   516.01784      1345.6367      1861.6545      154.91689      301.15625      0.1454643    
     55000   466.21687      1355.1832      1821.4         157.55146      303.29278      0.14176046   
     56000   488.71541      1322.1205      1810.8359      127.25371      295.89328      0.14257102   
     57000   467.71813      1305.8225      1773.5406      125.06742      292.24575      0.14650541   
     58000   504.49892      1301.2537      1805.7526      62.570015      291.22325      0.14883438   
     59000   466.7234       1335.3297      1802.0531      72.930729      298.84954      0.15062552   
     60000   498.22348      1333.9339      1832.1574      106.51249      298.53715      0.15400522   
     61000   506.01472      1338.6864      1844.7012      131.6194       299.60077      0.15649501   
     62000   464.86508      1354.6864      1819.5515      129.86744      303.18159      0.15557446   
     63000   473.74474      1341.5483      1815.293       117.19028      300.24126      0.15442144   
     64000   493.27835      1355.495       1848.7733      134.22562      303.36255      0.1531248    
     65000   480.88278      1401.9386      1882.8213      166.34151      313.75673      0.15155511   
     66000   468.11527      1370.5438      1838.6591      199.30568      306.73051      0.14944134   
     67000   510.01235      1359.8349      1869.8473      178.93596      304.33385      0.14867629   
     68000   505.14083      1396.6116      1901.7524      160.4564       312.56455      0.14873835   
     69000   491.16323      1373.8943      1865.0576      73.97353       307.48037      0.1469186    
     70000   483.27096      1342.2013      1825.4723      75.927399      300.38741      0.14507721   
     71000   476.06117      1360.1821      1836.2432      103.17281      304.41154      0.1459708    
     72000   488.69179      1347.3211      1836.0129      149.38798      301.53323      0.15020827   
     73000   455.05161      1299.8953      1754.9469      172.87728      290.91923      0.15771164   
     74000   478.81733      1318.3101      1797.1275      222.60325      295.04052      0.16283123   
     75000   451.69149      1325.5263      1777.2178      208.77212      296.6555       0.16088448   
     76000   445.36522      1291.8358      1737.201       160.43631      289.11551      0.15565023   
     77000   456.51181      1294.4216      1750.9334      98.57442       289.69421      0.15284495   
     78000   469.67384      1308.8128      1778.4867      59.173703      292.915        0.15261889   
     79000   489.54036      1330.1048      1819.6451      46.40287       297.68018      0.15399376   
     80000   459.53993      1350.3964      1809.9364      69.298175      302.2215       0.15431979   
     81000   474.15405      1342.2495      1816.4035      107.4762       300.39818      0.15339955   
     82000   462.75655      1362.7104      1825.467       81.084104      304.97739      0.15099693   
     83000   502.99382      1359.1827      1862.1766      82.887957      304.18789      0.15074019   
     84000   503.91687      1385.0509      1888.9678      78.461577      309.97724      0.15476556   
     85000   471.83425      1364.6621      1836.4964      100.34004      305.41419      0.16027975   
     86000   453.54696      1350.4913      1804.0383      122.98342      302.24273      0.16463119   
     87000   457.75995      1363.2376      1820.9976      151.72431      305.09538      0.16499243   
     88000   479.73889      1335.179       1814.9179      158.96329      298.81579      0.16275028   
     89000   488.6189       1310.0733      1798.6922      190.26497      293.1971       0.15752257   
     90000   457.47096      1299.8766      1757.3475      172.76659      290.91505      0.15154751   
     91000   479.13462      1318.2103      1797.3449      184.43275      295.01817      0.15067333   
     92000   451.92496      1350.59        1802.5149      171.64178      302.26481      0.15224556   
     93000   471.91632      1353.2226      1825.139       170.45639      302.854        0.15606457   
     94000   479.90977      1377.6787      1857.5884      123.58472      308.32731      0.15959227   
     95000   454.81764      1379.9045      1834.7222      103.5081       308.82547      0.16175288   
     96000   468.74466      1368.9877      1837.7323      121.66988      306.38225      0.16052089   
     97000   463.75134      1382.3872      1846.1385      166.93987      309.38108      0.15999369   
     98000   495.27838      1354.0334      1849.3118      146.43574      303.03546      0.15896861   
     99000   488.17751      1344.344       1832.5215      146.68122      300.86694      0.15680345   
    100000   487.9233       1376.1713      1864.0946      152.13295      307.98995      0.15284982   
    101000   503.91654      1298.1102      1802.0268      104.63095      290.51973      0.14714242   
    102000   503.87534      1299.5649      1803.4402      73.633078      290.84528      0.14412466   
    103000   483.8489       1317.324       1801.1729      84.973063      294.81981      0.14523886   
    104000   482.91094      1338.7011      1821.612       97.326998      299.60405      0.14769506   
    105000   494.78447      1312.3687      1807.1532      110.85547      293.71081      0.15070304   
    106000   459.88819      1306.7304      1766.6186      139.24637      292.44894      0.15507805   
    107000   475.17968      1329.5297      1804.7094      194.11532      297.55148      0.15962448   
    108000   469.72696      1349.3088      1819.0358      142.13382      301.97809      0.15968872   
    109000   479.50319      1335.6153      1815.1185      133.54518      298.91346      0.15684259   
    110000   495.47852      1364.3626      1859.8412      160.74084      305.34716      0.15252551   
    111000   505.0307       1377.9173      1882.948       107.14514      308.38073      0.15016048   
    112000   476.4153       1336.9978      1813.4131      81.812246      299.22285      0.14897834   
    113000   486.00325      1339.2033      1825.2065      36.256502      299.71644      0.14804527   
    114000   470.06111      1305.6324      1775.6935      55.806135      292.20321      0.15056813   
    115000   494.50703      1357.2906      1851.7977      107.44466      303.76443      0.15399492   
    116000   499.55292      1338.4246      1837.9775      161.19634      299.54216      0.15233407   
    117000   494.66266      1349.2275      1843.8902      151.71761      301.95988      0.14863637   
    118000   488.36727      1368.1501      1856.5174      171.17177      306.19481      0.14770021   
    119000   517.49099      1366.1016      1883.5925      178.80822      305.73633      0.14773435   
    120000   503.91352      1386.9325      1890.846       123.98569      310.39834      0.14709999   
    121000   463.28121      1358.2976      1821.5788      127.41203      303.98979      0.14814393   
    122000   508.90796      1323.5324      1832.4404      98.915416      296.20928      0.15249808   
    123000   474.57894      1345.6335      1820.2124      141.39117      301.15553      0.16008939   
    124000   486.18867      1389.941       1876.1296      137.09324      311.07164      0.16124851   
    125000   469.18572      1327.4561      1796.6418      115.05526      297.0874       0.15686101   
    126000   482.5801       1340.0518      1822.6319      86.82248       299.90634      0.1531881    
    127000   487.83495      1359.3558      1847.1907      76.267939      304.22661      0.15201326   
    128000   473.60078      1367.8578      1841.4586      112.34188      306.12938      0.15244489   
    129000   502.75702      1333.9159      1836.6729      92.990267      298.53312      0.15258488   
    130000   470.18493      1376.6803      1846.8652      125.10467      308.10387      0.15188199   
    131000   490.65915      1391.078       1881.7371      94.949526      311.32611      0.14805222   
    132000   507.11548      1339.9096      1847.0251      92.624514      299.87452      0.13916061   
    133000   512.72117      1329.1423      1841.8634      106.66262      297.46477      0.13601913   
    134000   462.95495      1319.8815      1782.8365      106.93849      295.39219      0.13957753   
    135000   498.57894      1316.2561      1814.835       132.48444      294.58081      0.14757266   
    136000   480.94622      1319.4079      1800.3541      160.41703      295.2862       0.15186122   
    137000   504.21926      1318.0701      1822.2893      121.62745      294.98679      0.15224531   
    138000   477.27425      1327.1933      1804.4676      95.001198      297.02858      0.15125379   
    139000   495.4272       1315.1015      1810.5287      89.952826      294.32241      0.14982746   
    140000   453.10673      1345.5589      1798.6657      88.827614      301.13885      0.1459257    
    141000   459.72113      1305.4625      1765.1836      63.241415      292.16519      0.1413427    
    142000   476.04687      1311.5995      1787.6464      76.46034       293.53866      0.14068411   
    143000   482.55019      1314.9069      1797.4571      121.66125      294.27886      0.14571157   
    144000   482.2712       1327.1355      1809.4067      153.45042      297.01564      0.15208008   
    145000   454.20829      1314.6737      1768.8819      187.92937      294.22666      0.15422703   
    146000   482.85426      1311.2194      1794.0737      172.28067      293.4536       0.15395192   
    147000   468.14033      1331.3192      1799.4596      137.89805      297.95197      0.15191063   
    148000   465.72241      1310.0714      1775.7938      83.256849      293.19667      0.15005795   
    149000   484.60345      1321.4922      1806.0956      75.155019      295.75266      0.14988128   
    150000   479.39098      1344.414       1823.8049      80.301393      300.8826       0.14834477   
    151000   475.57004      1364.967       1840.537       101.27866      305.48241      0.14624098   
    152000   480.73334      1323.9821      1804.7154      124.21623      296.30991      0.14604303   
    153000   460.67521      1369.3056      1829.9808      152.85003      306.4534       0.15303764   
    154000   450.2401       1352.1449      1802.385       186.39859      302.6128       0.15900872   
    155000   461.19852      1350.4322      1811.6307      168.10063      302.22949      0.16073939   
    156000   472.71666      1349.8681      1822.5847      134.83464      302.10324      0.16064527   
    157000   458.69535      1368.294       1826.9894      153.63786      306.22701      0.15914053   
    158000   499.60122      1372.3913      1871.9926      119.56205      307.144        0.1565183    
    159000   499.33805      1402.2618      1901.5998      119.17797      313.82907      0.15372347   
    160000   477.75528      1347.4251      1825.1804      76.950846      301.5565       0.150077     
    161000   479.05397      1340.4645      1819.5184      43.336077      299.9987       0.14908704   
    162000   478.35979      1341.1873      1819.5471      50.113315      300.16046      0.15330667   
    163000   467.93839      1366.6394      1834.5778      87.054295      305.85671      0.16211621   
    164000   475.01448      1299.444       1774.4585      137.02092      290.81823      0.16585447   
    165000   444.86535      1305.2595      1750.1248      153.4711       292.11975      0.16496959   
    166000   463.77648      1328.6167      1792.3932      160.82663      297.34714      0.16359704   
    167000   466.1345       1352.5229      1818.6574      174.17855      302.69741      0.1609828    
    168000   460.67475      1360.5331      1821.2079      151.19545      304.4901       0.1554612    
    169000   460.91366      1405.9185      1866.8322      149.71692      314.64745      0.15109524   
    170000   482.38426      1359.0277      1841.412       153.02565      304.1532       0.14997618   
    171000   475.52966      1344.446       1819.9757      160.48704      300.88978      0.15182237   
    172000   486.83616      1359.3032      1846.1394      158.18444      304.21485      0.15352684   
    173000   493.59196      1342.9933      1836.5852      163.41449      300.56465      0.15364899   
    174000   513.81772      1344.3117      1858.1294      100.08017      300.85971      0.15278551   
    175000   489.11631      1348.1314      1837.2477      85.097676      301.71457      0.15526342   
    176000   469.44147      1368.9899      1838.4314      76.721262      306.38275      0.16031368   
    177000   453.57918      1315.3606      1768.9398      96.996133      294.38041      0.16317144   
    178000   472.85683      1303.1139      1775.9708      88.996929      291.63957      0.16338078   
    179000   451.32908      1352.7728      1804.1019      215.15733      302.75334      0.16494046   
    180000   445.94061      1350.9094      1796.8501      207.77003      302.33631      0.16222089   
    181000   485.84161      1323.139       1808.9806      205.45554      296.12122      0.15725217   
    182000   474.90934      1311.1461      1786.0554      162.36336      293.43718      0.15157547   
    183000   502.27916      1307.6078      1809.8869      122.1334       292.6453       0.14949966   
    184000   481.97611      1334.9851      1816.9612      94.933972      298.7724       0.14924306   
    185000   494.86059      1351.6472      1846.5078      63.410308      302.50141      0.15136395   
    186000   481.40391      1392.5252      1873.9291      64.223574      311.65         0.15513731   
    187000   515.15016      1325.8062      1840.9564      27.554358      296.71816      0.15830837   
    188000   511.07248      1359.7944      1870.8669      60.008374      304.32479      0.15956656   
    189000   447.34553      1347.9246      1795.2701      124.61856      301.66829      0.16599731   
    190000   449.23636      1366.6444      1815.8807      142.66062      305.85782      0.17380942   
    191000   442.61104      1367.4418      1810.0528      95.130074      306.03628      0.17350673   
    192000   470.78571      1347.0708      1817.8565      63.220764      301.47721      0.1689858    
    193000   453.99898      1356.8277      1810.8267      98.219508      303.66083      0.16323927   
    194000   468.04125      1350.3722      1818.4134      146.3707       302.21606      0.15871391   
    195000   496.55135      1334.3088      1830.8601      156.68145      298.62104      0.15480897   
    196000   477.51755      1338.3816      1815.8992      193.64183      299.53256      0.15125841   
    197000   503.25659      1330.0301      1833.2867      146.26888      297.66346      0.14898024   
    198000   511.50462      1334.0396      1845.5442      79.002173      298.5608       0.14998608   
    199000   461.38238      1357.2956      1818.6779      63.408815      303.76553      0.15366146   
    200000   490.2155       1349.2156      1839.4311      70.540999      301.95722      0.15962141   
    201000   487.33661      1388.1864      1875.523       109.95568      310.67896      0.16152699   
    202000   493.75978      1372.2375      1865.9973      165.46326      307.10958      0.15873743   
    203000   476.66583      1378.0117      1854.6775      228.5058       308.40185      0.15609022   
    204000   468.56986      1355.4389      1824.0087      309.89723      303.35         0.15566505   
    205000   486.2215       1369.8656      1856.0871      331.65263      306.57874      0.15461671   
    206000   487.34508      1349.4029      1836.748       267.97969      301.99913      0.1524249    
    207000   496.81274      1365.4922      1862.3049      126.90139      305.59996      0.14952064   
    208000   509.88996      1359.3531      1869.2431      22.043404      304.22601      0.14815018   
    209000   493.48759      1368.219       1861.7066     -12.480383      306.21022      0.1472909    
    210000   517.12472      1367.9831      1885.1078      27.031094      306.15742      0.14801583   
    211000   485.86426      1356.1298      1841.994       112.8458       303.50463      0.15497448   
    212000   449.82962      1348.0331      1797.8627      235.11117      301.69257      0.16408582   
    213000   457.28412      1298.4519      1755.736       185.84654      290.5962       0.16369232   
    214000   460.40432      1352.8617      1813.266       152.2086       302.77322      0.16070061   
    215000   477.22557      1352.7374      1829.9629      104.74058      302.7454       0.15553433   
    216000   468.7462       1363.9511      1832.6973      112.87084      305.25505      0.15169607   
    217000   472.90503      1354.3673      1827.2723      122.73277      303.11018      0.15005394   
    218000   513.55208      1325.5919      1839.144       154.38086      296.6702       0.15145762   
    219000   486.27682      1351.2034      1837.4803      137.13848      302.4021       0.15370228   
    220000   471.34843      1326.6534      1798.0018      130.8963       296.90775      0.15681208   
    221000   465.13981      1312.1025      1777.2423      107.87453      293.65123      0.15681064   
    222000   496.82668      1344.4619      1841.2885      51.481497      300.89332      0.1532914    
    223000   481.65971      1348.5434      1830.2031      39.182612      301.80678      0.14732334   
    224000   487.49938      1327.5738      1815.0732      34.793217      297.11374      0.141591     
    225000   500.89917      1315.7017      1816.6009      34.890076      294.45675      0.13997128   
    226000   509.80874      1306.2409      1816.0497      66.107022      292.3394       0.14216742   
    227000   472.30066      1287.3904      1759.691       86.336407      288.12061      0.14625559   
    228000   481.03471      1316.4521      1797.4868      113.90974      294.62469      0.14946353   
    229000   483.8023       1335.2379      1819.0402      132.44488      298.82899      0.15032777   
    230000   485.29175      1329.5211      1814.8129      149.42025      297.54955      0.15082805   
    231000   480.86464      1342.5079      1823.3725      192.6604       300.45602      0.15047401   
    232000   496.19872      1311.7873      1807.986       180.25945      293.58069      0.14735945   
    233000   494.08641      1314.9996      1809.086       190.24531      294.29961      0.14471821   
    234000   473.58508      1297.3341      1770.9192      173.71559      290.34603      0.14621267   
    235000   489.28388      1313.9875      1803.2714      123.0879       294.07311      0.15338007   
    236000   463.00784      1322.6973      1785.7051      82.624169      296.02236      0.1583243    
    237000   471.95602      1288.4915      1760.4475     -5.4522345      288.36704      0.15598157   
    238000   462.91003      1300.9212      1763.8312      3.8525541      291.14883      0.15346085   
    239000   481.94955      1301.0241      1782.9736     -16.879763      291.17186      0.15139999   
    240000   486.92158      1311.5754      1798.497       43.059056      293.53327      0.15034366   
    241000   469.21157      1348.4757      1817.6873      161.39879      301.79164      0.15438161   
    242000   483.29006      1329.7493      1813.0394      235.87828      297.60063      0.15898966   
    243000   473.61043      1324.5678      1798.1782      208.49569      296.44099      0.15965224   
    244000   444.11906      1294.2827      1738.4018      166.54717      289.66313      0.16059391   
    245000   465.05833      1313.0947      1778.153       153.84092      293.87329      0.16187541   
    246000   477.89346      1304.4437      1782.3371      97.925076      291.93717      0.15978587   
    247000   468.7436       1342.2839      1811.0275      72.142015      300.40589      0.15531126   
    248000   467.47725      1319.1045      1786.5818      46.455069      295.21829      0.14907924   
    249000   471.21737      1290.3886      1761.606       45.459736      288.79161      0.14714359   
    250000   460.80479      1299.4976      1760.3024      115.11172      290.83023      0.15196701   
    251000   466.51162      1334.929       1801.4406      87.292132      298.75984      0.15716197   
    252000   483.32643      1313.2093      1796.5358      82.958749      293.89894      0.1597354    
    253000   460.93335      1322.3788      1783.3121      80.98516       295.95108      0.15887553   
    254000   485.84182      1323.0437      1808.8855      150.58529      296.09989      0.15698363   
    255000   481.22321      1286.4896      1767.7128      165.5621       287.91901      0.15440052   
    256000   496.62191      1321.2519      1817.8738      171.01644      295.69889      0.15238556   
    257000   507.99183      1334.1669      1842.1587      139.9822       298.58928      0.14997601   
    258000   512.04015      1330.0941      1842.1343      58.562497      297.6778       0.14588187   
    259000   501.16966      1340.7976      1841.9672      58.998665      300.07325      0.14258864   
    260000   520.33136      1333.6986      1854.03        88.549944      298.48449      0.14193959   
    261000   493.62328      1367.0886      1860.7118      96.652004      305.95723      0.1481126    
    262000   473.77487      1354.6445      1828.4194      108.04571      303.17222      0.15534684   
    263000   478.12658      1343.1434      1821.27        117.69282      300.59825      0.15905399   
    264000   476.10764      1348.1341      1824.2417      84.632507      301.71518      0.15970591   
    265000   500.23263      1323.9007      1824.1333      105.36664      296.29169      0.15801199   
    266000   511.36642      1350.8407      1862.2071      160.44292      302.32091      0.15555934   
    267000   490.41749      1398.2871      1888.7046      158.01872      312.93953      0.15090029   
    268000   511.79082      1399.5054      1911.2962      177.88305      313.21218      0.14635343   
    269000   497.40145      1342.0946      1839.496       134.69711      300.36353      0.14507798   
    270000   487.08712      1328.4105      1815.4976      153.4375       297.30099      0.14716227   
    271000   485.2954       1327.213       1812.5084      111.42931      297.033        0.14897859   
    272000   475.74298      1291.9989      1767.7419      100.35208      289.15201      0.15040039   
    273000   467.76523      1347.2809      1815.0461      84.382371      301.52422      0.1522285    
    274000   482.79651      1307.1051      1789.9016      90.029591      292.5328       0.15350048   
    275000   481.84294      1332.5277      1814.3707      185.00051      298.22244      0.15577977   
    276000   467.04432      1356.062       1823.1063      219.68803      303.48946      0.15635988   
    277000   491.39968      1315.7021      1807.1018      246.10195      294.45684      0.15544693   
    278000   531.03442      1340.7551      1871.7896      234.17241      300.06375      0.15134732   
    279000   491.01041      1395.6052      1886.6156      206.46365      312.3393       0.14604965   
    280000   533.70199      1384.0356      1917.7376      177.26699      309.75002      0.14302029   
    281000   510.35863      1368.6882      1879.0468      159.85983      306.31522      0.14393857   
    282000   530.99572      1347.1518      1878.1475      93.208919      301.49533      0.14462854   
    283000   485.24938      1355.2684      1840.5178      98.2907        303.31184      0.1491997    
    284000   470.07048      1377.344       1847.4144      174.5569       308.25241      0.15798217   
    285000   470.7618       1363.5698      1834.3316      197.43039      305.16972      0.15943664   
    286000   499.62461      1317.7597      1817.3843      234.96496      294.91733      0.15731994   
    287000   472.83497      1308.5906      1781.4256      171.64298      292.86526      0.15138162   
    288000   475.62405      1346.943       1822.5671      135.11122      301.44861      0.14876754   
    289000   475.01644      1340.6853      1815.7017      68.558622      300.04812      0.14762681   
    290000   484.22549      1318.2737      1802.4992      8.6279068      295.03237      0.14913364   
    291000   498.06086      1294.1004      1792.1613      29.420677      289.62233      0.1536997    
    292000   454.83832      1269.9037      1724.742       113.65482      284.20705      0.15716154   
    293000   447.51483      1337.513       1785.0279      199.27297      299.33816      0.16062637   
    294000   486.16666      1327.289       1813.4557      274.15371      297.05         0.16394784   
    295000   486.40554      1315.4881      1801.8937      229.59619      294.40895      0.16229883   
    296000   493.76277      1326.9364      1820.6992      149.48056      296.97109      0.15679786   
    297000   492.75927      1318.9766      1811.7359      87.041411      295.18967      0.15234814   
    298000   487.12207      1391.5386      1878.6607      29.018094      311.4292       0.15098376   
    299000   494.90843      1376.1896      1871.0981     -38.986312      307.99406      0.1522873    
    300000   471.79512      1383.0592      1854.8543     -1.5093268      309.53149      0.1571087    
    301000   460.75716      1356.7617      1817.5189      91.251755      303.64605      0.16384234   
    302000   495.41909      1307.2528      1802.6719      174.78119      292.56587      0.16750638   
    303000   460.19958      1319.2716      1779.4712      254.74461      295.2557       0.16495561   
    304000   449.2472       1310.7371      1759.9843      265.04527      293.34566      0.16034203   
    305000   476.7828       1248.8607      1725.6435      233.45241      279.49759      0.15711788   
    306000   457.54515      1333.5917      1791.1369      189.22188      298.46056      0.15734834   
    307000   470.38427      1334.1142      1804.4985      138.27397      298.5775       0.15718607   
    308000   464.40201      1332.8352      1797.2372      63.865674      298.29125      0.15742023   
    309000   504.22933      1375.8462      1880.0755      36.96698       307.9172       0.15750499   
    310000   483.80187      1374.7729      1858.5748      42.433827      307.67699      0.15427826   
    311000   500.15047      1355.0821      1855.2325      9.8789237      303.27015      0.15202052   
    312000   483.80466      1383.6582      1867.4629      76.036419      309.66555      0.15927175   
    313000   465.62773      1422.3199      1887.9476      130.86507      318.31811      0.16732288   
    314000   469.04513      1369.7518      1838.7969      177.27086      306.55326      0.1673707    
    315000   453.69904      1357.1888      1810.8878      136.86209      303.74163      0.163784     
    316000   490.8393       1341.8866      1832.7259      134.0287       300.31697      0.16062092   
    317000   500.25717      1305.1004      1805.3576      107.296        292.08415      0.15771239   
    318000   483.47194      1332.8012      1816.2731      85.095595      298.28363      0.15435475   
    319000   477.01265      1302.5316      1779.5443      138.5824       291.50925      0.15044868   
    320000   470.91436      1338.2037      1809.118       139.69385      299.49273      0.14823956   
    321000   494.48721      1309.7837      1804.2709      160.78043      293.13228      0.15035548   
    322000   513.13322      1293.9661      1807.0993      128.17513      289.59226      0.15441599   
    323000   475.63352      1313.1304      1788.764       70.731438      293.88129      0.15883948   
    324000   468.21         1296.6966      1764.9066      39.468645      290.20335      0.16162309   
    325000   482.88814      1277.3812      1760.2694      83.836909      285.88054      0.16077556   
    326000   478.20787      1328.2599      1806.4677      108.65726      297.26728      0.15823567   
    327000   437.38662      1314.2999      1751.6865      156.23584      294.14302      0.15663216   
    328000   488.25385      1305.077       1793.3309      153.20114      292.07891      0.15627007   
    329000   469.86853      1329.315       1799.1836      148.0918       297.50344      0.15863752   
    330000   454.91514      1335.6155      1790.5306      156.44733      298.91349      0.15975802   
    331000   471.14879      1300.245       1771.3938      99.44832       290.99749      0.15722572   
    332000   452.88909      1286.785       1739.6741      95.582516      287.98513      0.15650193   
    333000   488.01563      1308.3604      1796.376       160.55268      292.81373      0.15962394   
    334000   490.08846      1341.169       1831.2575      221.56022      300.15638      0.16422364   
    335000   489.1029       1333.8485      1822.9514      229.75996      298.51803      0.16464341   
    336000   475.99565      1368.7459      1844.7416      166.79463      306.32815      0.1581256    
    337000   477.25838      1343.2098      1820.4682      111.24782      300.61311      0.15169355   
    338000   478.99188      1374.9695      1853.9614      141.35355      307.72101      0.15108288   
    339000   510.52191      1390.8408      1901.3627      215.60786      311.27302      0.15324435   
    340000   466.83043      1386.0231      1852.8536      216.66833      310.19482      0.15527158   
    341000   471.85421      1364.6978      1836.552       169.51844      305.42218      0.15841224   
    342000   470.09489      1335.8871      1805.982       158.7183       298.97428      0.16032229   
    343000   476.32438      1320.3179      1796.6423      132.21683      295.48986      0.16049856   
    344000   457.24762      1302.193       1759.4406      151.62503      291.43346      0.16129006   
    345000   446.18502      1267.2156      1713.4006      118.71712      283.60546      0.16055322   
    346000   485.45705      1330.8361      1816.2932      119.56135      297.84385      0.1595793    
    347000   479.59621      1321.2776      1800.8738      83.833585      295.70463      0.15701234   
    348000   483.83871      1324.8354      1808.6741      99.957862      296.50087      0.15402027   
    349000   483.2455       1319.3478      1802.5933      104.24419      295.27274      0.14832824   
    350000   460.24668      1301.8507      1762.0973      125.34175      291.35685      0.14379639   
    351000   497.98662      1295.1978      1793.1844      114.99779      289.86793      0.14403557   
    352000   498.92377      1322.0084      1820.9322      181.22002      295.8682       0.15012487   
    353000   447.10988      1349.3375      1796.4474      233.82943      301.9845       0.15644281   
    354000   479.58122      1375.0661      1854.6474      194.48651      307.74262      0.15788786   
    355000   504.1338       1374.8781      1879.0119      124.85938      307.70053      0.1554785    
    356000   497.38939      1344.986       1842.3754      76.482006      301.01064      0.1530217    
    357000   493.36502      1341.4775      1834.8425      44.745437      300.22541      0.15112707   
    358000   480.08095      1357.3647      1837.4457      68.293719      303.78101      0.15021211   
    359000   493.5104       1386.2552      1879.7656      137.64248      310.24675      0.15172734   
    360000   474.30202      1356.8192      1831.1212      169.97859      303.65892      0.15327536   
    361000   486.82245      1348.1228      1834.9452      180.24636      301.71264      0.15571801   
    362000   490.45928      1325.8782      1816.3375      141.09281      296.73426      0.15677963   
    363000   484.35878      1323.0002      1807.3589      44.656226      296.09015      0.15196443   
    364000   498.49433      1353.1506      1851.6449      22.078743      302.83788      0.14595504   
    365000   471.86427      1390.7984      1862.6626      47.659485      311.26353      0.14304528   
    366000   463.55924      1398.4679      1862.0271      91.328739      312.97998      0.14353318   
    367000   489.7387       1349.6993      1839.438       126.03461      302.06547      0.14661088   
    368000   491.19386      1375.9528      1867.1466      191.66796      307.94106      0.15137956   
    369000   491.01527      1348.6471      1839.6624      187.8758       301.83         0.15311988   
    370000   492.54989      1346.0889      1838.6388      178.93597      301.25747      0.15419264   
    371000   493.4443       1334.3626      1827.8069      173.49069      298.63309      0.15495036   
    372000   464.63392      1314.3512      1778.9851      153.98607      294.15449      0.15433993   
    373000   477.56709      1338.5457      1816.1128      127.34133      299.56927      0.15445563   
    374000   487.65185      1313.9196      1801.5714      130.28018      294.0579       0.15469302   
    375000   484.08128      1274.7677      1758.849       74.612927      285.29563      0.15474593   
    376000   446.93826      1285.7144      1732.6526      61.170149      287.74551      0.15736293   
    377000   483.79177      1306.3141      1790.1059      37.430789      292.35579      0.16155785   
    378000   467.95096      1332.5163      1800.4673      77.574264      298.21989      0.16466025   
    379000   446.919        1327.9881      1774.9071      86.715178      297.20646      0.16488936   
    380000   470.84384      1333.8434      1804.6872      95.619201      298.51689      0.16365665   
    381000   462.25516      1295.3447      1757.5998      79.496844      289.90079      0.15998487   
    382000   448.44541      1332.21        1780.6555      99.950076      298.15134      0.15627915   
    383000   476.16308      1331.5034      1807.6665      83.322709      297.9932       0.15259937   
    384000   488.1484       1335.5648      1823.7132      86.257533      298.90213      0.15084892   
    385000   493.88617      1352.6442      1846.5303      125.09032      302.72454      0.15340614   
    386000   482.12743      1356.1858      1838.3132      110.59872      303.51717      0.15877137   
    387000   484.95578      1373.5376      1858.4934      132.65516      307.40053      0.16413579   
    388000   498.2152       1381.1404      1879.3556      161.26689      309.10205      0.16471734   
    389000   477.37064      1316.5005      1793.8711      141.6577       294.63551      0.15818425   
    390000   462.68446      1347.5537      1810.2381      133.39152      301.58528      0.15258219   
    391000   470.16994      1333           1803.17        104.01399      298.32814      0.15004605   
    392000   503.62345      1289.3181      1792.9416      97.209439      288.55204      0.14957422   
    393000   490.25944      1315.9742      1806.2336      121.29685      294.51772      0.15220326   
    394000   482.51636      1324.7187      1807.235       124.10982      296.47476      0.15597818   
    395000   489.6897       1315.5352      1805.2249      167.71419      294.41949      0.16001591   
    396000   474.62653      1330.9671      1805.5937      167.2447       297.87318      0.16141974   
    397000   495.59432      1349.8966      1845.4909      153.45257      302.10962      0.15945748   
    398000   476.84559      1344.9088      1821.7544      125.25381      300.99334      0.15624183   
    399000   494.74408      1314.8954      1809.6394      123.75018      294.27628      0.15258115   
    400000   464.41593      1288.2502      1752.6661      100.7939       288.31303      0.14957411   
    401000   493.61152      1299.081       1792.6925      113.84749      290.737        0.14750159   
    402000   480.58339      1329.2105      1809.7939      139.76861      297.48005      0.14706747   
    403000   497.09587      1334.6424      1831.7383      149.81665      298.69571      0.14921668   
    404000   458.27842      1321.6625      1779.9409      158.62325      295.79078      0.15161606   
    405000   496.1289       1313.2652      1809.3941      125.20028      293.91144      0.15497303   
    406000   467.31952      1336.4592      1803.7787      142.31875      299.10231      0.15708719   
    407000   477.49212      1329.7848      1807.2769      124.45546      297.60857      0.15782883   
    408000   460.5343       1363.1647      1823.699       127.02846      305.07907      0.15546521   
    409000   490.0569       1346.1944      1836.2513      76.115844      301.28106      0.14822825   
    410000   496.98602      1338.5396      1835.5256      100.1423       299.56791      0.14452256   
    411000   514.36415      1331.782       1846.1461      119.0268       298.05554      0.14304499   
    412000   513.21195      1334.3212      1847.5332      124.24141      298.62383      0.14235991   
    413000   510.63349      1277.3072      1787.9407      127.96775      285.86396      0.14468501   
    414000   471.90694      1325.3721      1797.279       149.22459      296.62099      0.14800626   
    415000   492.12531      1329.1475      1821.2729      121.25982      297.46595      0.14919782   
    416000   483.07328      1325.4809      1808.5542      108.62507      296.64535      0.14846187   
    417000   513.91115      1325.6161      1839.5273      53.273219      296.6756       0.14656127   
    418000   470.10837      1330.1194      1800.2278      52.799112      297.68345      0.14610987   
    419000   456.2576       1354.2061      1810.4637      52.939943      303.0741       0.14590507   
    420000   477.31126      1371.3942      1848.7055      83.255106      306.92084      0.14612685   
    421000   490.56428      1334.6359      1825.2002      170.11464      298.69426      0.14692634   
    422000   489.95795      1331.8075      1821.7654      207.38862      298.06124      0.1487881    
    423000   470.08713      1344.2534      1814.3406      251.45942      300.84668      0.15296353   
    424000   514.80403      1333.9981      1848.8022      308.11856      298.55152      0.15894584   
    425000   484.9171       1346.6683      1831.5854      284.91319      301.38712      0.16224035   
    426000   458.55328      1378.889       1837.4423      187.99342      308.59819      0.16288366   
    427000   459.09349      1353.415       1812.5085      115.22229      302.89705      0.16263319   
    428000   508.51745      1349.1743      1857.6917      36.742692      301.94797      0.16123389   
    429000   494.85554      1412.4114      1907.267       20.141589      316.10058      0.15864893   
    430000   498.26785      1388.5422      1886.81        99.96687       310.75859      0.15559144   
    431000   493.18901      1365.3949      1858.584       83.100986      305.57819      0.15133294   
    432000   461.80375      1361.3683      1823.172       155.62486      304.67702      0.14891625   
    433000   475.3636       1407.0394      1882.403       189.90538      314.8983       0.15148901   
    434000   493.36875      1333.293       1826.6618      216.66414      298.39372      0.15852833   
    435000   475.82615      1338.0127      1813.8389      206.40509      299.44999      0.16388189   
    436000   454.40834      1343.9121      1798.3204      162.71702      300.77029      0.16436929   
    437000   484.14829      1331.5442      1815.6925      159.43709      298.00233      0.16155901   
    438000   471.46686      1323.2954      1794.7623      172.67539      296.15624      0.15739118   
    439000   482.16991      1316.3243      1798.4942      200.10827      294.59607      0.15626812   
    440000   475.25054      1311.5795      1786.83        203.91228      293.53417      0.15430537   
    441000   477.99753      1254.2447      1732.2422      157.85774      280.70254      0.15194095   
    442000   471.64541      1319.7712      1791.4166      164.80047      295.36751      0.15035482   
    443000   482.48376      1347.1265      1829.6102      119.56369      301.48967      0.14724388   
    444000   487.77702      1339.0984      1826.8754      110.51768      299.69298      0.14699588   
    445000   494.24646      1347.6666      1841.9131      133.27175      301.61056      0.15265829   
    446000   479.16193      1360.3356      1839.4975      175.37851      304.4459       0.15736569   
    447000   500.52946      1351.415       1851.9445      178.11667      302.44945      0.15853887   
    448000   484.45428      1350.8556      1835.3099      152.9486       302.32427      0.15835555   
    449000   487.94008      1364.8425      1852.7826      158.75951      305.45455      0.15852054   
    450000   491.15233      1378.3086      1869.4609      99.047843      308.46829      0.15855377   
    451000   492.64703      1396.8835      1889.5306      127.23654      312.62541      0.15928001   
    452000   495.02954      1358.6724      1853.702       192.19586      304.07368      0.15473441   
    453000   480.40116      1367.2582      1847.6594      215.62589      305.9952       0.15123253   
    454000   467.61193      1366.6277      1834.2396      281.15144      305.85407      0.15211371   
    455000   502.78738      1342.9438      1845.7312      269.58602      300.55358      0.15749591   
    456000   473.60464      1332.5444      1806.149       259.66218      298.22616      0.16340666   
    457000   453.90277      1349.1329      1803.0357      159.40254      301.93872      0.16476492   
    458000   454.67406      1363.2202      1817.8943      60.449896      305.09149      0.16194315   
    459000   473.19134      1356.5571      1829.7484      16.592073      303.60026      0.1557074    
    460000   477.96717      1348.2967      1826.2638      39.472807      301.75156      0.15126149   
    461000   473.01338      1318.0754      1791.0888      71.81001       294.98798      0.15028757   
    462000   486.22458      1286.8125      1773.0371      110.80221      287.99129      0.15335624   
    463000   481.02404      1319.78        1800.8041      163.52116      295.36948      0.15782548   
    464000   483.82629      1343.7399      1827.5661      155.8909       300.73174      0.15924133   
    465000   470.83813      1340.0532      1810.8914      117.60591      299.90667      0.15913297   
    466000   487.46917      1347.0857      1834.5549      119.42323      301.48055      0.16070035   
    467000   493.64415      1393.8046      1887.4487      164.69193      311.93632      0.16298247   
    468000   495.50223      1372.1957      1867.6979      191.99968      307.10021      0.1637076    
    469000   489.09365      1356.8343      1845.9279      194.22116      303.66229      0.16179951   
    470000   457.9457       1348.8603      1806.806       176.4743       301.8777       0.1592027    
    471000   486.11586      1372.6022      1858.718       128.39265      307.19119      0.15817351   
    472000   486.53215      1340.155       1826.6872      122.43571      299.92944      0.15745399   
    473000   468.35282      1358.8564      1827.2092      72.198217      304.11485      0.1561204    
    474000   490.93061      1385.1664      1876.097       105.81482      310.00308      0.15749086   
    475000   477.74807      1364.2997      1842.0478      158.22785      305.33308      0.15799553   
    476000   480.54661      1376.4668      1857.0134      151.46694      308.05609      0.15377983   
    477000   491.99443      1371.4437      1863.4381      159.36035      306.93192      0.14786684   
    478000   508.39695      1345.1402      1853.5372      175.98885      301.04515      0.14328273   
    479000   494.45105      1348.48        1842.9311      180.34793      301.79259      0.14184749   
    480000   493.34995      1361.6411      1854.991       150.74992      304.73807      0.14574881   
    481000   474.55677      1312.589       1787.1458      103.33656      293.76012      0.15493452   
    482000   455.80472      1284.9282      1740.733       115.71468      287.56958      0.15870365   
    483000   464.48087      1336.4621      1800.943       150.42588      299.10296      0.1586801    
    484000   463.32505      1327.9334      1791.2585      133.46293      297.19423      0.15666422   
    485000   466.72266      1325.6655      1792.3882      151.36914      296.68666      0.15346053   
    486000   463.74998      1305.4653      1769.2153      131.03496      292.16581      0.15178379   
    487000   468.38698      1329.9115      1798.2985      114.9256       297.63693      0.1536824    
    488000   479.72325      1314.771       1794.4943      109.46088      294.24846      0.15747209   
    489000   459.73404      1346.1555      1805.8896      114.42514      301.27237      0.16044944   
    490000   468.54803      1350.065       1818.613       140.25058      302.14731      0.16098182   
    491000   497.96899      1370.2649      1868.2339      130.89265      306.66811      0.15686727   
    492000   474.64088      1364.2104      1838.8513      119.11755      305.31309      0.15034912   
    493000   495.91818      1354.8286      1850.7468      117.95977      303.21343      0.14578698   
    494000   491.38234      1367.5058      1858.8881      120.88929      306.0506       0.14663067   
    495000   505.22005      1371.9434      1877.1635      141.36155      307.04375      0.151721     
    496000   461.78071      1377.7082      1839.4889      217.59551      308.33393      0.15622334   
    497000   459.60558      1314.5224      1774.1279      182.1854       294.1928       0.15834869   
    498000   461.01089      1317.9342      1778.9451      158.7799       294.95639      0.16103353   
    499000   457.75572      1325.4646      1783.2203      158.89477      296.64169      0.16398179   
    500000   446.24098      1332.0312      1778.2722      125.73151      298.11132      0.16245768   
    501000   477.18983      1329.3045      1806.4943      86.008153      297.50107      0.15856199   
    502000   460.78384      1357.3742      1818.158       90.562523      303.78312      0.15647975   
    503000   465.75494      1321.5151      1787.2701      128.80131      295.7578       0.15445059   
    504000   480.53119      1333.9552      1814.4864      109.17741      298.54192      0.15259508   
    505000   481.55748      1312.8207      1794.3782      125.42866      293.81198      0.15165485   
    506000   456.34596      1307.4521      1763.798       133.75063      292.61046      0.15160952   
    507000   444.14518      1289.3039      1733.4491      132.64773      288.54887      0.1543291    
    508000   437.77722      1345.4115      1783.1887      164.85273      301.10585      0.16034664   
    509000   450.97855      1342.3397      1793.3182      237.57324      300.41837      0.16494054   
    510000   418.92237      1324.7163      1743.6387      228.06421      296.47423      0.16385811   
    511000   467.68034      1331.8381      1799.5185      157.71099      298.06811      0.16290765   
    512000   466.0691       1328.8981      1794.9672      102.57529      297.41012      0.16249392   
    513000   482.31885      1314.7042      1797.0231      88.870459      294.23351      0.15920145   
    514000   494.95624      1309.382       1804.3383      53.929402      293.04239      0.15187641   
    515000   491.93771      1320.3138      1812.2515      74.666557      295.48894      0.14778088   
    516000   478.69825      1368.838       1847.5362      109.71817      306.34875      0.14862892   
    517000   487.74597      1371.7775      1859.5235      166.12464      307.00663      0.15319008   
    518000   463.11375      1370.3061      1833.4199      238.45825      306.67732      0.15654794   
    519000   473.99428      1353.4814      1827.4757      241.29862      302.91191      0.15859883   
    520000   492.04795      1371.3344      1863.3823      226.8379       306.90745      0.15925769   
    521000   481.7716       1350.443       1832.2146      176.319        302.23191      0.15758032   
    522000   475.29755      1371.6275      1846.925       115.28325      306.97305      0.15240383   
    523000   489.07012      1381.6083      1870.6784      122.71639      309.20677      0.14794096   
    524000   501.6092       1359.4267      1861.0359      126.25595      304.24249      0.14741766   
    525000   499.41415      1313.8438      1813.258       133.42093      294.04095      0.14882508   
    526000   462.25637      1332.9702      1795.2266      143.55083      298.32148      0.15253378   
    527000   485.95543      1321.5018      1807.4572      116.1109       295.75481      0.15502215   
    528000   492.38886      1330.4388      1822.8277      99.490131      297.75493      0.15655689   
    529000   445.88189      1351.4977      1797.3796      117.30376      302.46796      0.15776161   
    530000   477.71867      1337.047       1814.7657      128.81303      299.23386      0.15767584   
    531000   492.95782      1335.48        1828.4378      142.04378      298.88316      0.1537247    
    532000   470.13451      1358.7916      1828.9261      184.63334      304.10036      0.15093304   
    533000   502.99969      1363.534       1866.5336      147.7012       305.1617       0.15136131   
    534000   484.31525      1340.4399      1824.7552      139.41048      299.99321      0.15471385   
    535000   466.55336      1359.0526      1825.606       152.80026      304.15876      0.15913107   
    536000   475.30088      1358.6977      1833.9986      115.15124      304.07933      0.1601506    
    537000   487.01968      1352.9739      1839.9935      106.45585      302.79833      0.1573772    
    538000   504.41321      1339.6915      1844.1047      130.63285      299.8257       0.14706091   
    539000   489.03299      1344.9556      1833.9886      148.05756      301.00383      0.14228446   
    540000   508.46096      1372.7002      1881.1611      146.21502      307.21312      0.14425407   
    541000   490.66184      1359.6457      1850.3076      111.24406      304.29151      0.14882204   
    542000   470.50881      1356.4988      1827.0077      65.778345      303.58723      0.15249262   
    543000   472.18846      1344.8353      1817.0237      71.681642      300.97689      0.15510612   
    544000   474.90617      1323.7359      1798.6421      123.48808      296.25482      0.15467447   
    545000   458.02471      1361.9433      1819.968       146.72812      304.80571      0.15189055   
    546000   491.14932      1334.6931      1825.8424      135.30999      298.70705      0.1497856    
    547000   480.04787      1317.6718      1797.7197      154.06293      294.89766      0.14893924   
    548000   479.75235      1296.7182      1776.4706      183.67812      290.2082       0.14925732   
    549000   484.60095      1299.7066      1784.3076      196.05143      290.87701      0.15135003   
    550000   461.20936      1298.2692      1759.4786      155.34016      290.55531      0.15628567   
    551000   460.13673      1330.8634      1791.0002      101.78894      297.84997      0.16099253   
    552000   502.74442      1280.8141      1783.5585      41.901207      286.64883      0.16164222   
    553000   462.35717      1307.6218      1769.979       56.527924      292.64845      0.16201021   
    554000   458.58108      1314.5904      1773.1715      84.864046      294.20803      0.16188512   
    555000   480.56183      1324.1106      1804.6724      105.94731      296.33867      0.1561428    
    556000   504.74323      1323.9139      1828.6572      125.74069      296.29466      0.14963574   
    557000   478.5066       1333.4052      1811.9118      168.84069      298.41883      0.14697377   
    558000   471.32549      1391.9636      1863.289       175.92185      311.5243       0.14784254   
    559000   485.36072      1341.8206      1827.1814      126.57429      300.30221      0.15152714   
    560000   488.04677      1369.7298      1857.7766      179.98731      306.54834      0.15689213   
    561000   479.64037      1367.0247      1846.6651      172.57427      305.94294      0.15807551   
    562000   483.65919      1362.7135      1846.3727      158.13325      304.97807      0.15716958   
    563000   463.89332      1361.3603      1825.2536      165.85412      304.67523      0.15685529   
    564000   480.35576      1346.4748      1826.8306      139.19524      301.34384      0.15679946   
    565000   522.60447      1349.9088      1872.5133      146.64009      302.11237      0.15777951   
    566000   498.2373       1334.0779      1832.3152      155.85661      298.56937      0.15932125   
    567000   445.85514      1393.301       1839.1562      170.80085      311.82363      0.16133093   
    568000   446.12488      1377.4033      1823.5282      136.54181      308.2657       0.16177202   
    569000   470.35136      1365.6426      1835.994       131.96442      305.63362      0.15746565   
    570000   467.17233      1342.9595      1810.1319      167.44696      300.5571       0.14894701   
    571000   512.11692      1329.6739      1841.7908      164.66814      297.58374      0.14640209   
    572000   494.73524      1315.616       1810.3512      178.5761       294.43756      0.14808736   
    573000   477.85377      1297.3477      1775.2014      129.31357      290.34907      0.15054979   
    574000   467.46347      1329.5864      1797.0499      123.31807      297.56416      0.15472199   
    575000   448.80249      1306.6405      1755.443       128.80255      292.42883      0.15902074   
    576000   464.83335      1335.7523      1800.5857      103.34515      298.94411      0.16283666   
    577000   452.51589      1332.5033      1785.0192      154.51211      298.21698      0.16484569   
    578000   464.6475       1364.9409      1829.5884      154.21403      305.47657      0.16482158   
    579000   477.46839      1352.963       1830.4314      113.04222      302.79589      0.16081782   
    580000   506.0576       1358.1159      1864.1735      109.28703      303.94912      0.15777955   
    581000   481.39184      1337.8043      1819.1961      157.26264      299.40335      0.1567324    
    582000   467.40343      1343.8407      1811.2442      165.44503      300.75431      0.15560924   
    583000   485.60561      1358.425       1844.0306      177.21794      304.0183       0.15654294   
    584000   480.93728      1386.1981      1867.1353      180.61693      310.23397      0.15753517   
    585000   468.3813       1376.2441      1844.6254      124.85909      308.00626      0.15374579   
    586000   463.92337      1367.6587      1831.582       133.26548      306.08482      0.14845611   
    587000   503.3996       1331.471       1834.8706      134.19998      297.98593      0.14642734   
    588000   498.61883      1302.3789      1800.9977      157.72375      291.47507      0.14869249   
    589000   483.49361      1314.5488      1798.0424      187.60527      294.19872      0.15353321   
    590000   453.88346      1331.9861      1785.8695      227.84102      298.10122      0.15862911   
    591000   467.57842      1325.971       1793.5495      199.67578      296.75504      0.16168721   
    592000   481.38732      1315.7655      1797.1528      152.10105      294.47102      0.16215846   
    593000   463.12747      1348.4446      1811.572       117.16118      301.78466      0.15724043   
    594000   506.45941      1329.7167      1836.1761      78.038168      297.59332      0.14936526   
    595000   490.69569      1327.9304      1818.6261      97.400566      297.19355      0.14605276   
    596000   498.28307      1301.2007      1799.4838      88.111777      291.21139      0.14826891   
    597000   478.80946      1306.8195      1785.629       108.97302      292.46889      0.15345182   
    598000   463.73121      1319.8337      1783.5649      165.67911      295.3815       0.15690562   
    599000   450.96579      1342.0367      1793.0025      149.79628      300.35057      0.15753731   
    600000   441.62975      1345.073       1786.7027      148.14397      301.0301       0.15676783   
    601000   479.83377      1303.9324      1783.7661      118.08408      291.82274      0.15692236   
    602000   469.55218      1331.4812      1801.0334      158.8794       297.98822      0.15766931   
    603000   493.68183      1312.367       1806.0489      136.05513      293.71043      0.15541031   
    604000   498.863        1345.853       1844.7161      159.9491       301.20467      0.150907     
    605000   455.81335      1360.5912      1816.4045      99.448933      304.5031       0.14762043   
    606000   473.32485      1370.2689      1843.5938      101.76433      306.669        0.14664982   
    607000   475.45355      1371.4298      1846.8834      105.80291      306.92881      0.1491162    
    608000   486.52884      1341.2952      1827.8241      99.990859      300.18463      0.15343559   
    609000   447.36103      1360.0453      1807.4063      130.02192      304.38092      0.15852271   
    610000   479.26107      1337.6699      1816.931       166.03205      299.37327      0.16176851   
    611000   458.42627      1366.7089      1825.1352      231.45104      305.87227      0.16284879   
    612000   468.12135      1335.947       1804.0683      233.92841      298.98767      0.16126561   
    613000   464.08492      1312.3274      1776.4123      175.99633      293.70156      0.15527302   
    614000   463.84659      1336.0415      1799.8881      146.61737      299.00883      0.14809368   
    615000   498.67894      1344.0571      1842.7361      109.36568      300.80274      0.14410887   
    616000   503.36013      1373.4804      1876.8405      56.027562      307.38773      0.14355147   
    617000   490.05909      1356.0439      1846.1029      108.90199      303.4854       0.14569427   
    618000   482.97424      1381.7875      1864.7618      166.17479      309.24689      0.1497777    
    619000   492.09694      1353.4966      1845.5935      218.91524      302.91531      0.15324171   
    620000   471.28253      1382.6587      1853.9413      238.36721      309.44186      0.15526931   
    621000   503.04016      1378.1308      1881.1709      210.50801      308.4285       0.15499316   
    622000   472.85747      1319.133       1791.9905      145.41729      295.22467      0.15322078   
    623000   458.96122      1352.4744      1811.4356      108.67388      302.68654      0.15223062   
    624000   454.67038      1349.4792      1804.1496      95.582477      302.01622      0.15182977   
    625000   481.73056      1327.6478      1809.3783      139.76508      297.1303       0.15247962   
    626000   487.20716      1304.1823      1791.3894      194.40212      291.87867      0.15043229   
    627000   474.32671      1281.021       1755.3477      203.68189      286.69514      0.1457571    
    628000   487.36464      1322.008       1809.3727      229.48935      295.86811      0.14755845   
    629000   480.49397      1346.3204      1826.8144      213.328        301.30927      0.15486869   
    630000   453.24647      1342.3881      1795.6346      171.96787      300.42921      0.15882458   
    631000   471.19803      1286.2326      1757.4306      65.43314       287.8615       0.15746833   
    632000   483.24063      1318.5098      1801.7504      98.716771      295.08519      0.15646408   
    633000   442.94123      1317.7157      1760.6569      161.5969       294.90747      0.15480575   
    634000   474.7606       1314.7086      1789.4692      212.43071      294.23449      0.15477059   
    635000   485.3139       1318.1644      1803.4783      143.87742      295.00791      0.15776383   
    636000   440.27524      1299.2997      1739.5749      83.304466      290.78594      0.16238532   
    637000   440.37576      1298.004       1738.3798      41.614331      290.49596      0.16643622   
    638000   456.55099      1304.7671      1761.3181      49.109081      292.00955      0.16646515   
    639000   480.51669      1308.3843      1788.901       38.634007      292.8191       0.16018321   
    640000   523.91672      1317.7265      1841.6432      33.713866      294.90989      0.15053763   
    641000   480.88733      1319.9545      1800.8418      118.89567      295.40852      0.14956595   
    642000   470.23305      1339.7678      1810.0009      215.9002       299.84279      0.1527037    
    643000   469.69905      1325.3836      1795.0827      223.13699      296.62357      0.15611164   
    644000   460.52867      1307.6564      1768.1851      227.73103      292.65618      0.15879996   
    645000   459.51555      1363.9999      1823.5155      192.65416      305.26599      0.15844747   
    646000   489.53183      1338.1265      1827.6583      93.7844        299.47545      0.15574731   
    647000   499.07749      1334.8019      1833.8794      79.201903      298.73141      0.15142206   
    648000   501.50002      1343.8378      1845.3379      48.599676      300.75367      0.14245051   
    649000   508.79021      1381.2788      1890.069       50.099102      309.13303      0.14048437   
    650000   479.70655      1368.2892      1847.9957      60.815565      306.22592      0.14359235   
    651000   491.52715      1350.8419      1842.3691      112.77796      302.3212       0.14930822   
    652000   488.58306      1348.3475      1836.9305      200.82636      301.76293      0.15397256   
    653000   482.37807      1362.5515      1844.9296      244.2334       304.94183      0.15589445   
    654000   472.69882      1312.5545      1785.2533      164.03833      293.75239      0.15650721   
    655000   478.60305      1308.2355      1786.8386      125.44423      292.78579      0.157937     
    656000   465.54381      1343.568       1809.1118      138.89145      300.69328      0.15783668   
    657000   461.4854       1347.3863      1808.8717      112.11141      301.54782      0.15655732   
    658000   486.1809       1335.3363      1821.5172      138.89638      298.85101      0.15701334   
    659000   464.71849      1329.8616      1794.5801      158.33758      297.62576      0.16006789   
    660000   457.79618      1274.7068      1732.503       167.94346      285.28199      0.16414919   
    661000   454.10862      1293.1788      1747.2875      155.22888      289.41608      0.16720621   
    662000   456.65228      1312.8105      1769.4628      150.95942      293.80969      0.16839537   
    663000   481.88356      1319.6535      1801.537       135.8974       295.34116      0.16363396   
    664000   461.42912      1311.2066      1772.6357      145.9578       293.45072      0.15629022   
    665000   467.52198      1315.3188      1782.8407      126.05104      294.37104      0.15322923   
    666000   486.85715      1304.9897      1791.8468      126.182        292.05937      0.15259975   
    667000   478.7856       1291.2273      1770.0129      72.218214      288.97931      0.15358373   
    668000   474.61174      1327.8512      1802.4629      96.330839      297.17582      0.15780427   
    669000   481.39786      1317.9937      1799.3916      68.937285      294.9697       0.15917082   
    670000   481.93341      1310.8692      1792.8026      100.21012      293.37523      0.15648262   
    671000   458.19846      1354.6278      1812.8263      190.54033      303.16849      0.15313648   
    672000   499.8284       1322.4471      1822.2755      206.71561      295.96638      0.1507383    
    673000   480.10964      1337.4877      1817.5974      222.33124      299.3325       0.15070478   
    674000   462.80494      1345.2353      1808.0402      190.05282      301.06641      0.15189088   
    675000   476.55989      1335.8345      1812.3944      160.14194      298.96251      0.15570663   
    676000   460.25367      1319.5369      1779.7906      132.2186       295.31507      0.16359836   
    677000   477.80676      1356.8922      1834.699       104.77478      303.67526      0.16722356   
    678000   472.44029      1367.9739      1840.4142      52.989629      306.15537      0.16346015   
    679000   493.52568      1342.6672      1836.1929      59.838863      300.49168      0.15670949   
    680000   506.31462      1360.2275      1866.5421      21.966624      304.42171      0.15208278   
    681000   492.77655      1364.3573      1857.1338      35.984809      305.34595      0.15252225   
    682000   487.32132      1359.1071      1846.4284      82.115427      304.17095      0.15603859   
    683000   466.93168      1301.3202      1768.2518      92.085968      291.23812      0.16008408   
    684000   446.93424      1325.5411      1772.4753      116.28847      296.65882      0.16283303   
    685000   469.06248      1329.382       1798.4445      145.51573      297.51842      0.16405941   
    686000   477.86072      1318.2209      1796.0816      161.05841      295.02053      0.16202733   
    687000   472.14547      1335.9269      1808.0724      188.71403      298.98318      0.15980662   
    688000   455.47174      1306.1636      1761.6354      242.83853      292.3221       0.15878279   
    689000   472.94807      1327.3734      1800.3214      199.31772      297.06888      0.15817194   
    690000   467.68723      1325.7143      1793.4016      128.56602      296.69759      0.15708405   
    691000   468.37894      1307.4611      1775.8401      87.771423      292.61248      0.15674884   
    692000   491.36701      1321.9669      1813.3339      100.06281      295.8589       0.15474779   
    693000   459.92036      1310.9151      1770.8355      72.568604      293.38549      0.15212176   
    694000   499.67462      1326.0586      1825.7332      111.21998      296.77464      0.15242098   
    695000   460.85972      1349.1873      1810.047       141.65976      301.95089      0.15303645   
    696000   462.08541      1313.7942      1775.8796      146.20634      294.02984      0.15577501   
    697000   472.07925      1328.9569      1801.0362      158.84026      297.42329      0.160632     
    698000   457.46337      1305.8152      1763.2786      166.99469      292.24413      0.1632468    
    699000   457.43112      1335.843       1793.2741      136.44271      298.9644       0.16142648   
    700000   480.72729      1307.41        1788.1373      90.493548      292.60105      0.15641836   
    701000   522.20321      1337.2424      1859.4456      73.591002      299.2776       0.15080594   
    702000   505.47224      1355.1503      1860.6225      50.002258      303.28542      0.14843728   
    703000   487.1161       1344.4578      1831.5739      90.225468      300.89241      0.15107196   
    704000   458.64162      1373.0683      1831.7099      144.41892      307.2955       0.15489414   
    705000   480.4199       1349.5016      1829.9215      155.79595      302.02123      0.15896825   
    706000   492.7157       1365.7493      1858.465       137.44673      305.65751      0.16351958   
    707000   473.7872       1347.6892      1821.4764      139.52615      301.6156       0.1652221    
    708000   443.75054      1340.7256      1784.4762      114.01497      300.05715      0.16186208   
    709000   490.19829      1305.7743      1795.9726      114.47888      292.23497      0.15732032   
    710000   504.04318      1276.7034      1780.7466      126.41049      285.72884      0.15661207   
    711000   491.60781      1321.5857      1813.1935      147.42747      295.77359      0.1576073    
    712000   464.42612      1352.1241      1816.5502      133.11683      302.60815      0.15642255   
    713000   484.58006      1363.6752      1848.2553      119.68315      305.19331      0.15465324   
    714000   495.85411      1386.2039      1882.058       138.92338      310.23528      0.15442979   
    715000   498.69492      1380.2541      1878.949       107.59694      308.9037       0.15391892   
    716000   490.23082      1346.4885      1836.7193      100.43164      301.34689      0.15335689   
    717000   492.97458      1316.4689      1809.4435      95.724288      294.62844      0.15197789   
    718000   445.1613       1321.2678      1766.4291      119.17893      295.70246      0.15263932   
    719000   450.98554      1290.2149      1741.2004      140.61571      288.75275      0.15481736   
    720000   494.32275      1300.3989      1794.7216      215.31366      291.03194      0.1587731    
    721000   455.91939      1343.0177      1798.9371      254.40287      300.57011      0.16304391   
    722000   489.00627      1310.0311      1799.0374      264.15129      293.18765      0.16484953   
    723000   456.52345      1320.4726      1776.996       205.08345      295.52447      0.16122016   
    724000   482.51241      1326.8717      1809.3841      67.992165      296.9566       0.1551046    
    725000   482.34567      1313.6649      1796.0106      14.811135      294.0009       0.15203882   
    726000   480.2073       1327.3093      1807.5166     -15.739618      297.05454      0.15044043   
    727000   473.27093      1299.9768      1773.2477      21.111924      290.93747      0.14936259   
    728000   495.60051      1261.5011      1757.1017      55.586437      282.32655      0.15095637   
    729000   490.6074       1308.2668      1798.8742      132.39511      292.79279      0.15716843   
    730000   487.53362      1326.1112      1813.6448      214.33975      296.78641      0.16211612   
    731000   490.59616      1294.2329      1784.8291      227.21349      289.65198      0.1603239    
    732000   477.82697      1336.5554      1814.3824      210.39766      299.12385      0.1556887    
    733000   467.45711      1339.1749      1806.6321      111.2187       299.7101       0.15150953   
    734000   491.78238      1330.6643      1822.4467      76.505785      297.8054       0.15087015   
    735000   493.17179      1333.5112      1826.683       35.386123      298.44255      0.15255427   
    736000   478.40595      1342.1922      1820.5981      41.262927      300.38536      0.15490554   
    737000   469.61168      1361.0481      1830.6598      106.42982      304.60536      0.16017437   
    738000   481.97782      1361.9254      1843.9032      169.15752      304.80169      0.16592357   
    739000   479.60657      1335.7303      1815.3369      202.5171       298.93918      0.16848475   
    740000   454.11948      1388.0633      1842.1828      234.62921      310.65141      0.16906195   
    741000   439.45217      1373.9796      1813.4318      199.479        307.49945      0.16611071   
    742000   479.74386      1369.0462      1848.79        180.19035      306.39535      0.16105838   
    743000   483.19122      1386.2916      1869.4828      175.35155      310.25491      0.15829627   
    744000   481.09051      1366.2195      1847.31        178.98942      305.76272      0.15756679   
    745000   494.28179      1337.1595      1831.4413      204.43515      299.25905      0.15565219   
    746000   478.82292      1332.0627      1810.8857      204.29598      298.11838      0.1530366    
    747000   498.03502      1302.5182      1800.5533      143.13569      291.50626      0.15358179   
    748000   471.46367      1350.4153      1821.8789      123.6688       302.22571      0.15967406   
    749000   454.61036      1388.97        1843.5804      66.833987      310.85435      0.16773322   
    750000   482.21629      1385.2526      1867.4689      58.910666      310.02237      0.16886068   
    751000   479.84148      1324.5933      1804.4348      97.874836      296.44671      0.16793178   
    752000   486.24546      1331.7752      1818.0207      127.9771       298.05402      0.16459126   
    753000   462.22998      1297.2492      1759.4792      128.15258      290.32703      0.15932649   
    754000   494.23611      1312.766       1807.0021      115.86463      293.79973      0.15651018   
    755000   481.17069      1340.7123      1821.883       119.33398      300.05416      0.15533789   
    756000   514.5643       1308.799       1823.3633      95.936052      292.91189      0.15560341   
    757000   470.06869      1316.7873      1786.8559      98.648182      294.69969      0.15767115   
    758000   477.77526      1339.9421      1817.7174      116.87913      299.8818       0.16221058   
    759000   472.51459      1324.9438      1797.4584      170.63774      296.52515      0.16626918   
    760000   431.55239      1344.0565      1775.6088      206.64903      300.80259      0.16718757   
    761000   468.71068      1318.3963      1787.107       186.58438      295.0598       0.16265993   
    762000   472.12396      1339.6675      1811.7914      160.30048      299.82033      0.15495528   
    763000   457.8292       1322.1212      1779.9504      89.762836      295.89345      0.15159199   
    764000   492.00314      1281.7367      1773.7398      47.064136      286.8553       0.15282715   
    765000   463.50367      1306.7037      1770.2073      58.680249      292.44296      0.15625321   
    766000   465.46917      1338.0498      1803.519       107.28954      299.4583       0.15935041   
    767000   507.84851      1337.5288      1845.3773      116.96657      299.34169      0.16162267   
    768000   497.80451      1330.2218      1828.0263      117.87452      297.70637      0.16288062   
    769000   502.04583      1340.4709      1842.5167      147.84994      300.00014      0.1655434    
    770000   482.31087      1397.3299      1879.6408      152.88188      312.7253       0.16900415   
    771000   500.48508      1374.0899      1874.575       123.13251      307.52414      0.16552846   
    772000   491.1078       1350.3381      1841.4459      47.682626      302.20844      0.15769444   
    773000   490.83688      1374.5813      1865.4182      70.791484      307.63411      0.15366971   
    774000   495.78429      1372.7369      1868.5212      76.613664      307.22133      0.15332433   
    775000   507.6232       1382.028       1889.6513      75.769492      309.30071      0.15527498   
    776000   469.97684      1328.587       1798.5639      79.658354      297.3405       0.15868179   
    777000   463.60894      1336.8365      1800.4454      141.57421      299.18675      0.16252762   
    778000   471.49955      1317.8646      1789.3642      158.61592      294.94081      0.16162829   
    779000   450.90474      1299.4259      1750.3307      209.47981      290.81419      0.16063104   
    780000   470.99946      1289.7821      1760.7816      214.65849      288.65589      0.16129237   
    781000   455.41614      1321.5913      1777.0074      205.84927      295.77484      0.16285965   
    782000   455.23548      1329.123       1784.3585      149.50923      297.46045      0.16249312   
    783000   491.49154      1329.2975      1820.7891      118.48434      297.49951      0.16064919   
    784000   478.92524      1337.1082      1816.0335      80.842385      299.24757      0.15621627   
    785000   450.55851      1282.0094      1732.568       74.523337      286.91635      0.15361668   
    786000   473.20574      1297.9703      1771.176       158.05416      290.48841      0.15659266   
    787000   477.19597      1333.1444      1810.3404      220.77563      298.36045      0.1626809    
    788000   470.1401       1334.7244      1804.8645      211.31048      298.71405      0.16705018   
    789000   460.91118      1352.5089      1813.4201      194.61607      302.69427      0.16881601   
    790000   485.86831      1307.3506      1793.2189      193.42267      292.58774      0.16926616   
    791000   473.91182      1313.6594      1787.5713      178.33617      293.99968      0.16421011   
    792000   483.86044      1365.6066      1849.467       132.05373      305.62555      0.1562197    
    793000   470.37414      1376.594       1846.9681      110.29085      308.08456      0.15300717   
    794000   476.92312      1328.8712      1805.7944      84.12223       297.40411      0.15377274   
    795000   480.71547      1344.74        1825.4555      73.475963      300.95557      0.15663856   
    796000   457.35269      1348.8938      1806.2465      74.946573      301.8852       0.15951408   
    797000   459.21781      1351.5835      1810.8013      143.02028      302.48716      0.16280753   
    798000   469.35473      1345.9551      1815.3098      164.90648      301.22751      0.16197491   
    799000   498.52969      1298.5488      1797.0784      212.39273      290.61788      0.15909844   
    800000   508.36424      1333.1505      1841.5148      180.44972      298.36182      0.14900816   
    801000   502.20448      1316.6291      1818.8336      158.23949      294.6643       0.14363544   
    802000   497.4449       1304.4184      1801.8633      116.28369      291.93151      0.14644929   
    803000   476.09102      1346.8967      1822.9877      102.25482      301.43824      0.15193823   
    804000   498.75575      1356.4485      1855.2042      118.74083      303.57595      0.15622325   
    805000   473.9593       1348.399       1822.3583      126.70712      301.77447      0.15654322   
    806000   483.50954      1337.3153      1820.8248      125.13953      299.2939       0.15664731   
    807000   476.3299       1303.5607      1779.8906      121.80966      291.73956      0.15655382   
    808000   486.17896      1316.4668      1802.6457      126.89971      294.62796      0.15581062   
    809000   470.02264      1341.0188      1811.0414      76.793493      300.12276      0.1565198    
    810000   476.65596      1298.7991      1775.455       117.70215      290.6739       0.16324989   
    811000   494.4993       1287.1616      1781.6609      127.53586      288.06941      0.16845815   
    812000   462.9323       1284.7711      1747.7034      57.137279      287.53442      0.16632551   
    813000   488.85777      1308.375       1797.2328      58.161415      292.81702      0.16109278   
    814000   494.28744      1322.5054      1816.7929      60.710977      295.97943      0.15626415   
    815000   471.10707      1328.5315      1799.6386      130.41677      297.32808      0.15602899   
    816000   466.27644      1308.1182      1774.3946      150.08628      292.75953      0.15539857   
    817000   470.26372      1298.4879      1768.7516      166.48584      290.60425      0.15349106   
    818000   478.78595      1309.7117      1788.4976      160.82535      293.11616      0.15181304   
    819000   518.61728      1290.0871      1808.7044      166.43419      288.72414      0.15055069   
    820000   498.78027      1320.9938      1819.7741      135.24623      295.64113      0.14511556   
    821000   492.40481      1341.2825      1833.6873      125.38973      300.18177      0.13913052   
    822000   495.63998      1343.2724      1838.9123      88.120569      300.62711      0.13836173   
    823000   532.85489      1319.3212      1852.176       73.125757      295.26678      0.14126088   
    824000   486.04787      1352.9457      1838.9936      82.451333      302.79202      0.14786938   
    825000   521.49746      1368.9488      1890.4462      104.97061      306.37354      0.15200044   
    826000   481.18656      1380.1528      1861.3394      116.3925       308.88104      0.15233458   
    827000   493.71755      1370.1428      1863.8603      99.815289      306.64076      0.15235277   
    828000   501.45734      1373.7354      1875.1928      100.14155      307.44481      0.15202445   
    829000   486.01938      1357.4583      1843.4777      142.16267      303.80196      0.15406179   
    830000   492.59148      1360.3527      1852.9442      195.95086      304.44973      0.15924449   
    831000   505.42996      1385.432       1890.8619      190.74628      310.06252      0.16479986   
    832000   470.07907      1395.4701      1865.5492      163.28         312.30908      0.16668437   
    833000   470.19079      1345.8567      1816.0475      140.64946      301.20549      0.16338826   
    834000   497.93803      1350.603       1848.541       92.577188      302.26772      0.1553475    
    835000   516.19505      1363.0397      1879.2348      114.03476      305.05108      0.15024684   
    836000   499.55294      1375.0929      1874.6459      161.80564      307.74862      0.14962773   
    837000   507.79971      1351.2504      1859.0501      170.86331      302.41261      0.15143167   
    838000   478.29988      1319.707       1798.0069      165.34326      295.35313      0.15391239   
    839000   469.61883      1340.8563      1810.4751      144.79997      300.08638      0.15730331   
    840000   485.55356      1317.2336      1802.7872      135.05297      294.79958      0.15783046   
    841000   458.68349      1317.1648      1775.8483      218.05826      294.78418      0.1572248    
    842000   449.92397      1342.5121      1792.4361      227.88648      300.45697      0.15583942   
    843000   498.97715      1338.8849      1837.8621      216.39288      299.64519      0.15423834   
    844000   497.15394      1348.9353      1846.0893      160.56223      301.8945       0.15379585   
    845000   497.12477      1385.7155      1882.8403      125.77822      310.12597      0.1564556    
    846000   483.04934      1419.5556      1902.605       82.393617      317.69946      0.15885831   
    847000   500.75585      1343.4901      1844.246       75.838414      300.67585      0.15930257   
    848000   462.04465      1379.2655      1841.3101      161.76189      308.68245      0.15898484   
    849000   489.099        1365.3063      1854.4053      188.08734      305.55834      0.15573477   
    850000   516.48005      1395.0527      1911.5327      219.3117       312.21565      0.15046047   
    851000   492.6075       1352.3203      1844.9278      181.4017       302.65207      0.14732338   
    852000   470.15013      1382.704       1852.8541      73.278462      309.45198      0.14880123   
    853000   480.9679       1368.2242      1849.1921      42.594244      306.21138      0.15558746   
    854000   515.05783      1320.4507      1835.5086      35.246201      295.51959      0.16046321   
    855000   470.9073       1297.0337      1767.941       81.950291      290.2788       0.16069379   
    856000   486.62723      1332.8992      1819.5264      163.82747      298.30558      0.15738915   
    857000   485.74837      1305.8924      1791.6408      196.23422      292.26141      0.15301204   
    858000   508.96859      1325.5911      1834.5597      208.94898      296.67         0.15052808   
    859000   522.73943      1329.605       1852.3444      175.65647      297.56832      0.14974886   
    860000   487.30251      1360.5904      1847.8929      166.36642      304.50292      0.15388285   
    861000   468.18106      1376.2194      1844.4004      131.15174      308.00072      0.15844589   
    862000   508.80659      1392.8613      1901.6679      108.28473      311.72521      0.16072734   
    863000   511.21205      1372.9787      1884.1908      133.37735      307.27545      0.15876889   
    864000   512.89398      1362.7254      1875.6194      108.59677      304.98075      0.15525118   
    865000   496.88183      1346.3876      1843.2694      164.01607      301.3243       0.15360366   
    866000   498.87663      1360.5188      1859.3955      165.65345      304.48691      0.15293859   
    867000   477.7784       1407.1826      1884.961       238.85639      314.93035      0.15516004   
    868000   467.16655      1359.0309      1826.1974      246.46038      304.1539       0.15567126   
    869000   503.74953      1336.9967      1840.7462      231.46294      299.2226       0.15574151   
    870000   469.92175      1384.5444      1854.4661      178.30494      309.86388      0.15600246   
    871000   458.70438      1364.0636      1822.768       146.45665      305.28023      0.15882229   
    872000   461.42394      1345.427       1806.851       126.07967      301.10933      0.16313663   
    873000   462.97813      1358.5458      1821.5239      132.96696      304.04534      0.1660481    
    874000   482.44485      1336.891       1819.3358      57.851744      299.19895      0.16419355   
    875000   490.49713      1307.6546      1798.1517      64.520083      292.65577      0.16046424   
    876000   506.32709      1281.2695      1787.5966      60.512134      286.75074      0.15594583   
    877000   496.61294      1310.5307      1807.1436      117.88317      293.29945      0.15523814   
    878000   467.60788      1342.4748      1810.0827      147.68917      300.44861      0.15400759   
    879000   480.98177      1352.4071      1833.3889      149.72982      302.67149      0.15153827   
    880000   471.77201      1372.6509      1844.4229      176.78073      307.20208      0.1516406    
    881000   488.42772      1352.6213      1841.049       168.04701      302.71942      0.15809777   
    882000   473.91337      1379.9104      1853.8238      178.96988      308.82678      0.1658806    
    883000   504.17548      1339.6629      1843.8384      176.22292      299.8193       0.16931126   
    884000   452.70852      1380.7192      1833.4277      143.55235      309.00778      0.16828449   
    885000   476.84777      1385.1786      1862.0264      100.11572      310.00582      0.16305191   
    886000   522.0514       1389.9523      1912.0037      112.28723      311.07417      0.15741255   
    887000   501.09832      1369.5858      1870.6842      130.75129      306.51612      0.15396573   
    888000   463.57327      1376.8059      1840.3792      166.29188      308.13199      0.15356166   
    889000   493.30874      1371.6969      1865.0056      202.25841      306.98857      0.15514633   
    890000   507.2177       1360.8168      1868.0345      237.03194      304.55359      0.15729516   
    891000   496.31117      1390.4121      1886.7233      210.37961      311.17709      0.15830525   
    892000   494.91756      1346.2128      1841.1304      176.89193      301.2852       0.15833423   
    893000   511.92885      1319.9436      1831.8724      152.56362      295.40608      0.15474251   
    894000   510.04193      1338.4322      1848.4742      136.52679      299.54388      0.14950232   
    895000   485.18724      1324.1285      1809.3157      118.63161      296.34268      0.1442629    
    896000   517.47944      1316.7993      1834.2788      121.22551      294.70239      0.1448396    
    897000   487.86474      1332.9811      1820.8458      135.81551      298.3239       0.15058677   
    898000   484.00701      1335.9212      1819.9283      129.12811      298.98192      0.15640999   
    899000   482.25614      1325.433       1807.6892      128.58424      296.63463      0.15725343   
    900000   483.75322      1308.8033      1792.5565      147.52513      292.91286      0.15529946   
    901000   486.57326      1307.4886      1794.0619      139.69742      292.61863      0.15390853   
    902000   504.27265      1300.9366      1805.2093      106.19106      291.15228      0.15379084   
    903000   498.00854      1304.184       1802.1925      120.13044      291.87905      0.15438066   
    904000   469.91666      1333.4164      1803.333       97.750389      298.42132      0.15510976   
    905000   481.18568      1299.5587      1780.7443      140.02921      290.84389      0.15648493   
    906000   486.02458      1302.2679      1788.2925      106.24561      291.45023      0.15640748   
    907000   497.35807      1318.4672      1815.8253      154.19729      295.07567      0.15649241   
    908000   511.00187      1317.2159      1828.2178      189.63727      294.79562      0.15393844   
    909000   497.29795      1339.0041      1836.302       135.88736      299.67186      0.1497438    
    910000   486.5228       1328.3718      1814.8946      122.114        297.29233      0.14882067   
    911000   483.41493      1363.0551      1846.47        85.074154      305.05452      0.15030553   
    912000   492.4853       1345.6809      1838.1662      73.730007      301.16616      0.15428687   
    913000   489.54585      1364.4842      1854.0301      126.25215      305.37437      0.16106615   
    914000   490.68771      1349.9808      1840.6685      230.16         302.12847      0.16645344   
    915000   487.04192      1347.5586      1834.6005      221.28471      301.58638      0.16625434   
    916000   503.28885      1343.3317      1846.6206      157.56898      300.6404       0.16115508   
    917000   473.18047      1354.5362      1827.7167      82.044681      303.14798      0.15408687   
    918000   503.76464      1332.6648      1836.4295      6.6936098      298.25313      0.15141045   
    919000   513.08024      1298.0599      1811.1401      35.265342      290.50847      0.15274661   
    920000   479.02508      1294.2055      1773.2306      100.73294      289.64585      0.15454202   
    921000   511.70394      1304.3013      1816.0052      134.99415      291.9053       0.15517857   
    922000   477.82107      1328.9672      1806.7882      173.49938      297.42558      0.15649692   
    923000   476.53068      1326.072       1802.6027      205.23578      296.77764      0.15919033   
    924000   466.55913      1346.5233      1813.0824      215.90304      301.35468      0.16258791   
    925000   475.4358       1357.7414      1833.1772      174.79288      303.86532      0.16407308   
    926000   480.75183      1335.7939      1816.5457      102.85589      298.95341      0.15981573   
    927000   501.74694      1324.287       1826.0339      99.520294      296.37814      0.15385999   
    928000   517.35124      1368.3352      1885.6864      95.217369      306.23623      0.15156396   
    929000   496.5332       1352.5028      1849.036       71.08791       302.6929       0.15211394   
    930000   496.08018      1332.7757      1828.8558      71.496851      298.27793      0.15538734   
    931000   465.52033      1315.7141      1781.2345      99.788153      294.45952      0.16019572   
    932000   480.46788      1284.562       1765.0299      145.03209      287.48761      0.16302391   
    933000   483.57798      1317.0392      1800.6172      194.84964      294.75608      0.16307308   
    934000   487.16011      1290.1138      1777.2739      233.83021      288.73012      0.16260399   
    935000   490.64337      1330.9857      1821.6291      154.31443      297.87734      0.16020242   
    936000   480.8181       1344.5378      1825.3559      106.86135      300.91031      0.1573615    
    937000   495.5498       1346.3479      1841.8977      115.20055      301.31543      0.15531671   
    938000   500.37346      1367.8217      1868.1952      109.00674      306.12131      0.1532232    
    939000   509.95008      1401.7193      1911.6693      160.3585       313.70765      0.15458283   
    940000   477.42602      1411.6084      1889.0345      216.22571      315.92087      0.1608369    
    941000   464.99301      1367.002       1831.995       212.85647      305.93785      0.1697101    
    942000   474.25864      1361.4153      1835.6739      131.60144      304.68753      0.17060685   
    943000   483.53916      1373.0745      1856.6136      52.807727      307.29688      0.16630984   
    944000   502.95183      1350.1535      1853.1054     -12.054777      302.16714      0.16078643   
    945000   487.77523      1322.7178      1810.493      -0.71817335     296.02696      0.15716612   
    946000   486.17483      1329.2796      1815.4544      44.956457      297.4955       0.15562978   
    947000   493.05942      1290.8685      1783.9279      93.742626      288.89902      0.15433388   
    948000   474.24039      1292.3858      1766.6261      112.96166      289.23858      0.15437121   
    949000   476.82201      1319.5662      1796.3882      132.12539      295.32163      0.15869331   
    950000   497.78187      1315.133       1812.9148      87.932427      294.32946      0.16290353   
    951000   490.86538      1312.9499      1803.8153      48.246468      293.84089      0.16834847   
    952000   476.13262      1334.7726      1810.9052      129.48962      298.72485      0.17312421   
    953000   473.40402      1303.9464      1777.3505      198.99518      291.82589      0.1729677    
    954000   482.50929      1386.8668      1869.3761      216.14196      310.38363      0.1632677    
    955000   515.61505      1337.0218      1852.6368      186.22095      299.22822      0.15464602   
    956000   518.27901      1335.0832      1853.3622      179.23934      298.79437      0.15206271   
    957000   481.00804      1355.9061      1836.9141      158.01412      303.45457      0.15093448   
    958000   468.51188      1390.2398      1858.7517      196.12444      311.13852      0.15234929   
    959000   509.72674      1395.2196      1904.9463      173.90946      312.253        0.1514134    
    960000   558.93221      1341.9158      1900.848       106.72239      300.32352      0.14663324   
    961000   515.57019      1359.4933      1875.0635      151.87151      304.25739      0.14245167   
    962000   529.28576      1365.1603      1894.4461      183.01647      305.52568      0.14126995   
    963000   525.829        1435.596       1961.425       256.75951      321.28934      0.14644336   
    964000   507.41181      1361.5037      1868.9155      235.44286      304.70731      0.15165272   
    965000   500.3575       1359.9767      1860.3342      201.26399      304.36558      0.1531897    
    966000   497.55025      1354.215       1851.7653      130.09269      303.07611      0.15366431   
    967000   500.36957      1355.6249      1855.9944      109.89999      303.39163      0.15358476   
    968000   500.6089       1365.3615      1865.9704      97.02861       305.5707       0.15161817   
    969000   503.28588      1344.6684      1847.9543      79.525607      300.93954      0.15094602   
    970000   503.81582      1324.9554      1828.7712      59.444943      296.52774      0.15117473   
    971000   508.076        1295.9876      1804.0636      160.09866      290.04469      0.15573722   
    972000   482.18306      1318.4225      1800.6055      235.76056      295.06566      0.16222777   
    973000   499.23241      1312.5023      1811.7347      306.57564      293.7407       0.16478334   
    974000   476.18474      1322.3165      1798.5012      315.83872      295.93714      0.16138442   
    975000   496.16399      1337.5314      1833.6954      272.75325      299.34228      0.15693964   
    976000   498.99403      1351.2376      1850.2316      191.65933      302.40975      0.15332171   
    977000   482.73729      1399.9482      1882.6855      118.93871      313.31128      0.15205516   
    978000   487.5289       1364.6115      1852.1404      78.829796      305.40285      0.15218204   
    979000   513.36517      1347.44        1860.8052      110.15897      301.55984      0.15488686   
    980000   517.7932       1354.3811      1872.1743      126.00903      303.11327      0.1579262    
    981000   495.04754      1405.5765      1900.6241      181.82157      314.57091      0.16088405   
    982000   477.52489      1350.7426      1828.2675      188.16391      302.29897      0.16155094   
    983000   490.41775      1331.59        1822.0077      129.16996      298.01256      0.1595671    
    984000   482.46347      1310.5812      1793.0447      128.27306      293.31077      0.15910047   
    985000   480.82037      1314.6403      1795.4607      147.69428      294.2192       0.16146915   
    986000   474.62355      1354.0837      1828.7073      99.788289      303.04672      0.16362813   
    987000   472.73335      1398.1432      1870.8766      85.860563      312.90732      0.16604833   
    988000   496.79905      1365.9387      1862.7378      94.266511      305.69989      0.16789905   
    989000   486.11368      1352.7307      1838.8444      125.73958      302.74391      0.16595174   
    990000   480.46597      1358.226       1838.6919      186.69138      303.97376      0.15916455   
    991000   478.94946      1370.1159      1849.0654      202.27848      306.63475      0.1526122    
    992000   527.45793      1395.0634      1922.5214      215.73008      312.21806      0.15420636   
    993000   520.17312      1377.2847      1897.4579      207.57183      308.23915      0.1570378    
    994000   495.53917      1371.3282      1866.8674      147.06668      306.90607      0.16082431   
    995000   475.77652      1364.7437      1840.5202      65.760436      305.43244      0.16509098   
    996000   487.37618      1324.5007      1811.8769      27.700699      296.42598      0.16660321   
    997000   475.00618      1329.8523      1804.8585      43.272914      297.62368      0.16498029   
    998000   494.71048      1318.7072      1813.4177      111.15281      295.12938      0.16343612   
    999000   484.91671      1317.2601      1802.1768      149.82599      294.80552      0.16239194   
   1000000   462.16984      1306.8246      1768.9944      171.718        292.47002      0.16037532   
   1001000   485.80406      1307.7941      1793.5982      179.07478      292.687        0.15870556   
   1002000   496.50851      1310.6911      1807.1996      150.65995      293.33535      0.15894368   
   1003000   497.14225      1314.5558      1811.6981      129.28933      294.20029      0.16063529   
   1004000   481.4116       1358.6325      1840.0441      100.42987      304.06474      0.16019906   
   1005000   508.73975      1322.624       1831.3637      60.148316      296.00596      0.15654383   
   1006000   517.53806      1326.4129      1843.951       87.859402      296.85393      0.15167875   
   1007000   499.78648      1331.7526      1831.5391      127.26232      298.04897      0.15141355   
   1008000   477.99077      1345.2048      1823.1956      121.82523      301.05961      0.15499248   
   1009000   509.81829      1323.5655      1833.3838      115.69178      296.21668      0.16202121   
   1010000   494.35021      1320.5915      1814.9417      145.35609      295.55108      0.16462409   
   1011000   500.34247      1334.0489      1834.3914      177.54229      298.56289      0.16311103   
   1012000   496.90923      1318.6143      1815.5236      144.64762      295.10859      0.15924089   
   1013000   478.86695      1339.878       1818.7449      125.51362      299.86744      0.1574504    
   1014000   466.06331      1336.4954      1802.5587      63.461722      299.1104       0.15848318   
   1015000   473.18172      1344.1358      1817.3176      71.146876      300.82036      0.1605458    
   1016000   494.70312      1354.587       1849.2901      53.243975      303.15936      0.16398109   
   1017000   488.16475      1351.102       1839.2667      106.47398      302.37939      0.17069708   
   1018000   460.82071      1367.1743      1827.995       173.92797      305.97642      0.17332952   
   1019000   494.97313      1315.6082      1810.5813      168.01151      294.43581      0.1673475    
   1020000   479.9397       1358.1975      1838.1372      170.80641      303.9674       0.15606575   
   1021000   511.68656      1334.6416      1846.3282      124.70221      298.69553      0.15307586   
   1022000   487.61874      1326.4585      1814.0773      97.95523       296.86414      0.15395854   
   1023000   473.04662      1313.6934      1786.74        80.450638      294.00728      0.15713069   
   1024000   473.85482      1342.0047      1815.8595      83.660327      300.34341      0.15914855   
   1025000   478.61143      1330.9485      1809.56        172.43649      297.86902      0.16100322   
   1026000   450.8597       1311.5492      1762.4089      185.52333      293.52741      0.16082527   
   1027000   469.45738      1340.3036      1809.761       204.30265      299.96269      0.16148174   
   1028000   496.8825       1335.7795      1832.662       177.32593      298.95018      0.16218827   
   1029000   503.8572       1341.5993      1845.4565      158.95303      300.25268      0.16266969   
   1030000   475.32116      1346.9105      1822.2317      145.2568       301.44134      0.16282513   
   1031000   504.57461      1363.6814      1868.256       114.74314      305.1947       0.16278688   
   1032000   497.08786      1340.8133      1837.9011      108.19988      300.07677      0.16266215   
   1033000   474.91048      1372.309       1847.2194      89.697634      307.12556      0.16308852   
   1034000   492.39838      1337.6317      1830.03        98.866879      299.36471      0.1658409    
   1035000   478.10745      1375.0798      1853.1873      81.868171      307.74569      0.17012321   
   1036000   469.11012      1354.1192      1823.2293      86.169177      303.05466      0.17301801   
   1037000   462.49761      1367.9186      1830.4162      146.74084      306.14298      0.17246136   
   1038000   493.82621      1364.4807      1858.3069      143.2122       305.37358      0.16643817   
   1039000   514.7056       1329.8145      1844.5201      109.44993      297.6152       0.15979756   
   1040000   487.548        1362.3269      1849.8749      128.84155      304.89155      0.15721408   
   1041000   505.57619      1305.6322      1811.2084      113.05322      292.20317      0.15662873   
   1042000   484.02311      1332.6324      1816.6555      107.1668       298.24586      0.15838027   
   1043000   458.46596      1340.7488      1799.2148      128.72187      300.06234      0.16046735   
   1044000   484.05548      1331.2822      1815.3377      104.86834      297.94369      0.1601126    
   1045000   493.99336      1315.8486      1809.842       111.80088      294.48962      0.16062373   
   1046000   470.96066      1350.5016      1821.4622      66.696393      302.24502      0.15912121   
   1047000   471.76495      1308.131       1779.896       136.76232      292.76241      0.15775046   
   1048000   493.61858      1295.6604      1789.279       155.9362       289.97147      0.15738173   
   1049000   489.05721      1305.8481      1794.9053      143.36172      292.25149      0.15852585   
   1050000   500.17853      1306.0153      1806.1938      129.1134       292.2889       0.1589043    
   1051000   479.27673      1343.5903      1822.867       99.035376      300.69826      0.15780613   
   1052000   485.07449      1299.7037      1784.7782      73.81806       290.87636      0.15689476   
   1053000   495.93647      1320.6424      1816.5789      59.696921      295.56248      0.1562396    
   1054000   524.28586      1319.432       1843.7178      70.672267      295.29159      0.15416401   
   1055000   508.52022      1332.5236      1841.0438      148.80092      298.22152      0.15362473   
   1056000   499.77626      1333.4472      1833.2234      150.33277      298.42822      0.15937537   
   1057000   477.74811      1338.3279      1816.076       187.52038      299.52053      0.16701252   
   1058000   502.46973      1343.5907      1846.0604      191.05489      300.69835      0.16845988   
   1059000   484.91367      1331.2955      1816.2092      92.41383       297.94667      0.16425276   
   1060000   528.93608      1307.9578      1836.8939      74.309892      292.72365      0.15931306   
   1061000   478.19347      1368.0514      1846.2449      164.01338      306.17271      0.15615219   
   1062000   502.13653      1382.2014      1884.3379      210.35735      309.33951      0.15645772   
   1063000   535.47368      1386.4955      1921.9692      240.45808      310.30054      0.15800748   
   1064000   514.21886      1352.6085      1866.8273      227.93821      302.71655      0.15903944   
   1065000   491.3489       1353.9828      1845.3317      149.46621      303.02412      0.15559953   
   1066000   504.52707      1370.5122      1875.0392      98.541505      306.72344      0.14646492   
   1067000   513.0176       1340.2768      1853.2944      109.31165      299.95669      0.14157739   
   1068000   508.38394      1339.0323      1847.4162      119.40096      299.67817      0.14132024   
   1069000   555.7925       1342.2813      1898.0738      119.7392       300.40531      0.14602958   
   1070000   495.31915      1370.4065      1865.7257      141.94555      306.6998       0.15244579   
   1071000   525.54972      1356.667       1882.2167      96.575817      303.62487      0.15726622   
   1072000   500.28454      1329.2202      1829.5048      31.750999      297.48222      0.15972376   
   1073000   485.03894      1338.378       1823.4169      20.150061      299.53175      0.16056153   
   1074000   490.79272      1324.5002      1815.2929      59.078744      296.42586      0.1619971    
   1075000   488.50282      1338.2773      1826.7801      139.70539      299.5092       0.16170033   
   1076000   477.47245      1307.638       1785.1105      188.85503      292.65207      0.15710604   
   1077000   495.19816      1366.6456      1861.8437      223.77632      305.85808      0.15270776   
   1078000   485.72807      1363.926       1849.654       138.30658      305.24943      0.14778688   
   1079000   508.3191       1338.0507      1846.3698      90.064748      299.45849      0.14462775   
   1080000   508.3195       1283.9504      1792.2699      79.95576       287.35074      0.14445552   
   1081000   468.17996      1339.0494      1807.2294      158.81165      299.68201      0.15200538   
   1082000   495.96481      1331.5902      1827.5551      172.70931      298.01263      0.15779035   
   1083000   501.2216       1315.3297      1816.5513      167.79673      294.3735       0.16056008   
   1084000   476.2612       1346.0111      1822.2723      159.98595      301.24005      0.15884284   
   1085000   488.16845      1350.0518      1838.2202      144.45738      302.14436      0.15321882   
   1086000   498.77117      1331.5397      1830.3109      134.49907      298.00132      0.14813959   
   1087000   488.13243      1340.6502      1828.7826      172.19495      300.04027      0.14856337   
   1088000   497.36599      1326.6598      1824.0258      188.2298       296.90919      0.1502603    
   1089000   492.81211      1355.9981      1848.8102      184.81143      303.47515      0.15401217   
   1090000   523.92316      1349.1176      1873.0408      133.80937      301.93529      0.1580775    
   1091000   513.97282      1356.0122      1869.985       90.344963      303.4783       0.1605048    
   1092000   512.70253      1324.6782      1837.3807      50.930289      296.46569      0.16140689   
   1093000   472.86291      1297.0859      1769.9488      12.589036      290.29049      0.15745264   
   1094000   489.74836      1327.0332      1816.7816      39.764052      296.99275      0.15246299   
   1095000   510.09388      1314.0976      1824.1915      55.575929      294.09775      0.15039835   
   1096000   527.90764      1293.7128      1821.6204      133.81885      289.53558      0.15191577   
   1097000   490.43919      1283.7514      1774.1906      187.65731      287.3062       0.15389141   
   1098000   489.09293      1309.6748      1798.7677      205.504        293.10791      0.15627248   
   1099000   511.94555      1338.1207      1850.0662      195.7843       299.47415      0.15780847   
   1100000   493.60816      1327.3987      1821.0068      110.89758      297.07455      0.15723778   
   1101000   489.94545      1348.0251      1837.9706      55.968969      301.69079      0.15549178   
   1102000   468.88136      1328.9548      1797.8361      89.242446      297.42281      0.15458893   
   1103000   521.88422      1354.7563      1876.6405      48.181262      303.19723      0.15243707   
   1104000   494.56845      1345.0087      1839.5771      97.207911      301.0157       0.15312777   
   1105000   494.79169      1350.0568      1844.8485      96.726608      302.14548      0.15763907   
   1106000   494.41147      1381.2803      1875.6918      185.52264      309.13336      0.16426519   
   1107000   481.04685      1399.823       1880.8698      169.06167      313.28326      0.16432148   
   1108000   505.37334      1347.5484      1852.9218      170.86047      301.58411      0.15896834   
   1109000   491.14105      1361.7142      1852.8553      161.5782       304.75444      0.15303087   
   1110000   486.64488      1355.6507      1842.2956      178.46649      303.39741      0.15182133   
   1111000   511.64094      1365.356       1876.9969      238.42336      305.56946      0.15433192   
   1112000   513.85654      1331.2708      1845.1274      231.09697      297.94114      0.155004     
   1113000   463.06308      1328.6185      1791.6816      186.35182      297.34755      0.15405772   
   1114000   511.45876      1298.5439      1810.0027      137.1581       290.6168       0.15403103   
   1115000   485.92329      1295.8903      1781.8136      72.877316      290.02291      0.15285802   
   1116000   483.95056      1317.5486      1801.4992      54.417603      294.87008      0.15157337   
   1117000   521.66151      1316.7437      1838.4052      42.431179      294.68993      0.15274582   
   1118000   449.32218      1306.2525      1755.5747      53.732298      292.34199      0.15710822   
   1119000   489.681        1313.9477      1803.6287      71.78147       294.06419      0.16380563   
   1120000   477.05356      1321.7308      1798.7844      112.92578      295.80607      0.16807201   
   1121000   453.98185      1340.2597      1794.2415      189.10999      299.95287      0.16928937   
   1122000   478.52882      1293.8812      1772.41        209.60072      289.57327      0.16732686   
   1123000   502.23065      1317.8084      1820.0391      154.76         294.92823      0.16194442   
   1124000   507.56964      1328.6207      1836.1904      145.84912      297.34805      0.15869599   
   1125000   484.44703      1382.8372      1867.2842      125.19507      309.4818       0.15554882   
   1126000   513.06098      1334.7294      1847.7904      145.93196      298.71518      0.15357417   
   1127000   529.75246      1356.6769      1886.4293      142.77044      303.62707      0.15273868   
   1128000   507.56363      1404.9001      1912.4637      164.10859      314.41952      0.15242702   
   1129000   539.46328      1370.9891      1910.4524      192.67783      306.83018      0.15197675   
   1130000   521.5034       1360.5548      1882.0582      104.26284      304.49495      0.1488025    
   1131000   479.86189      1369.4521      1849.314       126.75424      306.4862       0.14971192   
   1132000   499.99538      1367.7439      1867.7393      115.93426      306.10389      0.15385125   
   1133000   489.75465      1355.6578      1845.4124      174.02535      303.39899      0.15925437   
   1134000   473.14836      1321.603       1794.7514      178.4764       295.77748      0.16061145   
   1135000   488.7967       1329.4188      1818.2155      220.50347      297.52666      0.16115362   
   1136000   487.5544       1317.1655      1804.7199      200.48598      294.78435      0.15882013   
   1137000   489.25512      1338.5492      1827.8043      179.35098      299.57006      0.15573918   
   1138000   494.67888      1313.185       1807.8639      185.47645      293.89351      0.15738989   
   1139000   506.83186      1329.0285      1835.8604      128.23005      297.43931      0.15870985   
   1140000   517.70992      1351.4916      1869.2015      91.511085      302.46659      0.15845474   
   1141000   515.88392      1359.0837      1874.9677      79.066493      304.16573      0.15788812   
   1142000   508.09965      1363.3141      1871.4138      121.65521      305.11249      0.15712941   
   1143000   500.96956      1357.9566      1858.9262      175.72252      303.91347      0.15477808   
   1144000   490.71958      1316.5577      1807.2772      240.58888      294.64831      0.15168185   
   1145000   481.16621      1308.4671      1789.6334      257.24286      292.83763      0.14640257   
   1146000   505.22778      1310.3179      1815.5457      240.24456      293.25183      0.14365012   
   1147000   507.88896      1332.6187      1840.5077      215.307        298.24281      0.14771405   
   1148000   477.80394      1319.1383      1796.9423      137.55732      295.22586      0.15427847   
   1149000   521.90626      1320.2368      1842.1431      116.40871      295.47171      0.15848584   
   1150000   490.05456      1311.2089      1801.2635      78.161229      293.45125      0.15843093   
   1151000   494.38891      1335.5094      1829.8983      91.692784      298.88975      0.15591463   
   1152000   499.12573      1375.1565      1874.2822      95.286162      307.76284      0.15227484   
   1153000   512.35673      1339.7376      1852.0943      141.42952      299.83602      0.15090495   
   1154000   501.71899      1365.9064      1867.6254      147.48653      305.69265      0.15009933   
   1155000   515.01719      1375.4831      1890.5003      180.16459      307.83593      0.14938295   
   1156000   500.81721      1382.185       1883.0022      190.98806      309.33584      0.15029215   
   1157000   490.64517      1386.7239      1877.3691      221.97272      310.35166      0.15402229   
   1158000   517.92112      1327.6956      1845.6168      186.9898       297.14101      0.16076333   
   1159000   468.39185      1353.89        1822.2818      157.06061      303.00336      0.16572023   
   1160000   483.25949      1362.77        1846.0295      77.871569      304.99073      0.16653099   
   1161000   493.148        1328.1095      1821.2575     -15.299627      297.23364      0.16186037   
   1162000   484.48536      1307.7353      1792.2206      7.1706489      292.67384      0.15660768   
   1163000   498.80357      1312.2005      1811.0041      51.226456      293.67317      0.15456806   
   1164000   499.6577       1307.7384      1807.3961      63.130306      292.67454      0.15450504   
   1165000   466.20149      1319.3495      1785.551       139.34468      295.27313      0.1571384    
   1166000   493.43302      1330.1311      1823.5641      107.79755      297.68607      0.15970154   
   1167000   492.52172      1302.5471      1795.0688      120.65078      291.5127       0.16196445   
   1168000   472.05889      1288.9265      1760.9854      123.00488      288.4644       0.16215075   
   1169000   460.48577      1317.6944      1778.1802      177.34422      294.90271      0.15847704   
   1170000   501.68901      1302.2943      1803.9833      159.09639      291.45614      0.1505639    
   1171000   503.61393      1318.6099      1822.2238      173.60994      295.1076       0.14742796   
   1172000   499.46551      1307.1837      1806.6492      137.38084      292.5504       0.14823465   
   1173000   495.77812      1326.253       1822.0311      117.66585      296.81813      0.15046258   
   1174000   485.3561       1309.2897      1794.6458      88.246084      293.02173      0.15317515   
   1175000   473.56571      1293.3337      1766.8994      93.083769      289.45073      0.15781891   
   1176000   505.6194       1288.4082      1794.0276      9.4583162      288.34839      0.16049213   
   1177000   483.4617       1318.9215      1802.3832      28.94253       295.17733      0.1625007    
   1178000   481.93299      1296.4773      1778.4103      75.609199      290.15429      0.16128924   
   1179000   472.34002      1309.7497      1782.0897      140.84699      293.12468      0.15844799   
   1180000   480.123        1322.2583      1802.3813      212.88948      295.92411      0.15428905   
   1181000   483.38404      1330.4958      1813.8799      240.25819      297.76769      0.15088204   
   1182000   491.76128      1355.4322      1847.1935      214.49923      303.34851      0.15032465   
   1183000   497.4237       1390.0262      1887.4499      215.00473      311.09072      0.15535851   
   1184000   520.18183      1385.2485      1905.4303      144.10018      310.02146      0.16144236   
   1185000   496.88124      1353.2249      1850.1062      59.836903      302.85451      0.16537087   
   1186000   469.0876       1366.4985      1835.5861      20.724893      305.82517      0.16703953   
   1187000   482.53927      1350.4543      1832.9936      46.317697      302.23444      0.16466047   
   1188000   480.45008      1363.5714      1844.0215      124.91888      305.17008      0.16065704   
   1189000   492.96605      1341.8709      1834.837       220.75992      300.31346      0.15729218   
   1190000   495.71127      1330.1159      1825.8272      233.58744      297.68267      0.15477614   
   1191000   472.26511      1272.9818      1745.247       213.4344       284.89595      0.15284131   
   1192000   510.83078      1277.8129      1788.6437      113.36251      285.97715      0.15464661   
   1193000   460.34778      1341.4644      1801.8122      89.623407      300.22248      0.16350714   
   1194000   477.60984      1337.3974      1815.0072      45.01065       299.31228      0.16798141   
   1195000   465.54506      1286.4208      1751.9658      53.618281      287.90361      0.1686565    
   1196000   462.452        1312.4251      1774.8771      115.45296      293.72343      0.16735792   
   1197000   465.05179      1366.955       1832.0068      221.43221      305.92734      0.16428861   
   1198000   497.21126      1369.7004      1866.9117      206.31772      306.54176      0.16198232   
   1199000   497.51384      1421.6749      1919.1887      222.87363      318.17375      0.16347372   
   1200000   465.00421      1393.2809      1858.2851      178.36298      311.81912      0.16625969   
   1201000   471.2036       1355.4545      1826.6581      193.66594      303.35351      0.17135249   
   1202000   479.10203      1355.4875      1834.5896      118.89041      303.36089      0.17770013   
   1203000   465.90471      1381.9944      1847.8991      87.838466      309.29319      0.18208501   
   1204000   486.83493      1390.8549      1877.6898      139.50553      311.27618      0.17982078   
   1205000   484.47887      1352.7463      1837.2252      71.879427      302.7474       0.1694963    
   1206000   496.55259      1346.8572      1843.4098      124.63205      301.42941      0.16476197   
   1207000   469.06363      1391.0777      1860.1413      171.48239      311.32605      0.1617397    
   1208000   495.28993      1384.4484      1879.7383      214.37116      309.84239      0.16078713   
   1209000   507.11117      1339.4676      1846.5788      256.16341      299.7756       0.16116798   
   1210000   484.51728      1353.3959      1837.9132      223.16683      302.89277      0.16246654   
   1211000   476.47936      1356.9433      1833.4227      205.57981      303.6867       0.16851485   
   1212000   454.13538      1393.1907      1847.3261      203.04634      311.79893      0.1738959    
   1213000   482.71154      1384.7873      1867.4989      204.63778      309.91825      0.17372436   
   1214000   498.19568      1350.8773      1849.073       211.60596      302.32912      0.16887445   
   1215000   511.40424      1346.0592      1857.4635      209.97242      301.25082      0.16446873   
   1216000   478.93758      1407.272       1886.2095      199.69473      314.95035      0.16284607   
   1217000   493.31088      1399.2109      1892.5218      146.7066       313.14627      0.16136689   
   1218000   487.7872       1367.0178      1854.805       66.894578      305.94139      0.15814789   
   1219000   520.44947      1366.1835      1886.633       42.636665      305.75467      0.15592079   
   1220000   483.07158      1351.3628      1834.4344      39.27764       302.43778      0.15619951   
   1221000   481.81719      1321.5603      1803.3775      68.247791      295.7679       0.16004071   
   1222000   476.00038      1327.491       1803.4913      95.461875      297.0952       0.16626652   
   1223000   465.94534      1298.3152      1764.2605      145.07174      290.5656       0.17114539   
   1224000   485.66922      1326.8956      1812.5648      229.16462      296.96196      0.17446778   
   1225000   465.98184      1315.7119      1781.6938      247.96913      294.45903      0.16993496   
   1226000   493.73789      1338.3262      1832.0641      201.23094      299.52015      0.15938036   
   1227000   490.66953      1341.3951      1832.0646      150.04951      300.20698      0.1557727    
   1228000   497.24502      1346.2968      1843.5418      78.342967      301.30399      0.15572295   
   1229000   486.2662       1387.6209      1873.8871      52.342403      310.55241      0.15807132   
   1230000   483.88592      1350.7489      1834.6348      94.15747       302.30037      0.1619871    
   1231000   491.66841      1347.2476      1838.916       163.60141      301.51678      0.16486236   
   1232000   480.54625      1358.1496      1838.6959      198.61426      303.95667      0.16544579   
   1233000   470.13507      1371.3906      1841.5257      173.24102      306.92004      0.1635484    
   1234000   497.71594      1366.2029      1863.9188      123.27353      305.75901      0.1560566    
   1235000   514.61441      1427.4141      1942.0285      85.073122      319.45821      0.15091574   
   1236000   516.28178      1385.4192      1901.701       75.922864      310.05967      0.15124418   
   1237000   506.71991      1346.6568      1853.3767      99.509472      301.38455      0.15323355   
   1238000   491.98918      1334.0874      1826.0766      68.233113      298.5715       0.15586726   
   1239000   481.8387       1306.5049      1788.3436      115.08251      292.39847      0.15869413   
   1240000   528.64024      1257.6144      1786.2546      148.60914      281.45668      0.15995146   
   1241000   493.00697      1289.3937      1782.4007      134.60003      288.56896      0.16094962   
   1242000   462.02747      1328.7187      1790.7462      178.9108       297.36998      0.16198455   
   1243000   476.60435      1333.5035      1810.1078      121.52953      298.44082      0.15800082   
   1244000   485.33985      1312.2324      1797.5723      95.966537      293.68031      0.15090081   
   1245000   497.09649      1292.9481      1790.0446      114.64151      289.36444      0.14978767   
   1246000   476.20757      1289.2218      1765.4294      104.07921      288.53049      0.15335498   
   1247000   511.6533       1302.2812      1813.9345      122.26843      291.4532       0.15943178   
   1248000   487.75373      1326.1527      1813.9064      123.43743      296.79569      0.16169296   
   1249000   460.38983      1341.7047      1802.0945      69.725564      300.27626      0.16067029   
   1250000   482.76808      1337.9999      1820.768       47.173079      299.44713      0.16134396   
   1251000   477.74412      1334.5702      1812.3143      71.891003      298.67956      0.16243675   
   1252000   497.07399      1391.9898      1889.0638      97.927425      311.53018      0.16331271   
   1253000   467.42565      1390.5693      1857.9949      125.96546      311.21226      0.1646308    
   1254000   483.72435      1371.7307      1855.455       148.2514       306.99614      0.16643275   
   1255000   497.46123      1345.9219      1843.3831      145.65544      301.22008      0.16667033   
   1256000   480.4521       1360.5176      1840.9697      146.32541      304.48663      0.1629774    
   1257000   497.00044      1361.5556      1858.556       201.70542      304.71893      0.15898962   
   1258000   520.02254      1421.7269      1941.7494      273.44066      318.18539      0.15520592   
   1259000   494.15342      1377.8485      1872.0019      282.66964      308.36531      0.15238969   
   1260000   521.91112      1350.7304      1872.6415      261.89171      302.29624      0.15160737   
   1261000   499.39913      1387.1772      1886.5763      231.98079      310.4531       0.15220499   
   1262000   501.87821      1341.7457      1843.6239      177.76148      300.28545      0.15705081   
   1263000   478.20064      1323.4339      1801.6346      100.81412      296.18723      0.16342285   
   1264000   481.12593      1298.6437      1779.7697      80.42476       290.63914      0.16719351   
   1265000   459.30915      1335.6018      1794.9109      44.547569      298.91042      0.16626645   
   1266000   482.88192      1320.729       1803.6109     -4.7289925      295.58185      0.16071894   
   1267000   466.78717      1300.4759      1767.2631      4.7229405      291.04917      0.15626668   
   1268000   492.72159      1307.4881      1800.2097      83.838707      292.61853      0.15409604   
   1269000   494.54054      1300.6618      1795.2024      128.04577      291.09079      0.15336772   
   1270000   531.74356      1306.1183      1837.8618      172.42307      292.31195      0.15467633   
   1271000   503.28551      1348.2926      1851.5781      183.69522      301.75065      0.15611961   
   1272000   492.95926      1382.5463      1875.5055      148.64803      309.41669      0.15808458   
   1273000   516.42516      1389.0002      1905.4253      129.86584      310.86109      0.16103968   
   1274000   518.74964      1384.4798      1903.2294      110.57638      309.84941      0.16169853   
   1275000   494.8986       1367.1756      1862.0742      159.7139       305.9767       0.16093414   
   1276000   501.88554      1339.1306      1841.0161      167.90503      299.70018      0.15628592   
   1277000   497.31907      1380.2859      1877.605       184.21995      308.91083      0.15187305   
   1278000   533.02094      1353.4843      1886.5052      153.60206      302.91256      0.15025965   
   1279000   489.47056      1325.5774      1815.048       143.67515      296.66694      0.15065535   
   1280000   471.12518      1324.688       1795.8132      200.59317      296.46789      0.1576984    
   1281000   466.57323      1333.9596      1800.5328      218.82325      298.54289      0.16508129   
   1282000   473.95329      1303.5998      1777.5531      241.82414      291.74831      0.16822083   
   1283000   489.81654      1321.585       1811.4015      168.07007      295.77343      0.16617107   
   1284000   484.00995      1315.562       1799.5719      169.86926      294.42547      0.1623792    
   1285000   463.45628      1343.5857      1807.0419      155.99922      300.69723      0.15800874   
   1286000   514.44075      1311.8519      1826.2927      151.96147      293.59515      0.15557819   
   1287000   504.5406       1296.7651      1801.3057      138.80025      290.2187       0.15421008   
   1288000   483.55966      1292.6113      1776.171       76.87814       289.28906      0.15570074   
   1289000   475.49145      1300.7055      1776.1969      44.61506       291.10056      0.15865771   
   1290000   489.72296      1319.5774      1809.3003      5.4824899      295.32413      0.16027982   
   1291000   481.10734      1329.9536      1811.0609      29.565064      297.64635      0.16175997   
   1292000   477.40815      1337.5029      1814.9111      85.584294      299.3359       0.16446492   
   1293000   457.19642      1286.4118      1743.6082      173.19262      287.9016       0.16842236   
   1294000   491.87598      1318.95        1810.826       195.84605      295.18372      0.1693294    
   1295000   446.44252      1356.2351      1802.6776      266.98728      303.52819      0.16951945   
   1296000   461.77         1298.412       1760.182       239.25115      290.58727      0.16664388   
   1297000   474.53734      1309.3293      1783.8666      167.90937      293.03057      0.16047395   
   1298000   495.25352      1305.0044      1800.2579      147.12764      292.06267      0.15377281   
   1299000   486.54371      1358.283       1844.8268      151.16138      303.98653      0.15159808   
   1300000   524.22674      1351.6681      1875.8948      133.97859      302.50609      0.15317605   
   1301000   503.63272      1342.231       1845.8637      153.47575      300.39405      0.15879936   
   1302000   510.89282      1375.9039      1886.7968      165.2865       307.93012      0.16517523   
   1303000   485.09208      1417.9015      1902.9935      212.94087      317.32926      0.16809489   
   1304000   499.47415      1376.7263      1876.2005      248.41579      308.11418      0.16702394   
   1305000   500.58754      1358.6059      1859.1935      201.13634      304.0588       0.16192531   
   1306000   505.57884      1381.2966      1886.8754      190.68661      309.13701      0.16052216   
   1307000   497.05082      1391.6798      1888.7306      142.42637      311.46079      0.16151215   
   1308000   478.91555      1343.904       1822.8195      133.10265      300.76846      0.1641535    
   1309000   465.25985      1347.8714      1813.1313      85.697484      301.65639      0.16406332   
   1310000   473.20005      1326.0348      1799.2349      89.341128      296.76932      0.16250775   
   1311000   494.63709      1323.9731      1818.6102      98.895714      296.3079       0.16015822   
   1312000   475.25883      1328.236       1803.4949      175.70654      297.26195      0.15961494   
   1313000   473.61619      1294.348       1767.9642      216.51995      289.67774      0.16148686   
   1314000   444.44199      1279.5758      1724.0178      203.32847      286.3717       0.16700467   
   1315000   458.27094      1317.256       1775.5269      148.47893      294.80459      0.17318451   
   1316000   465.70711      1336.2415      1801.9486      147.96115      299.05359      0.17489976   
   1317000   455.09723      1349.5927      1804.6899      139.92795      302.04161      0.16981668   
   1318000   506.1642       1286.0214      1792.1856      139.12114      287.81423      0.16369634   
   1319000   511.40605      1318.068       1829.4741      104.36539      294.98633      0.16043364   
   1320000   477.30897      1358.291       1835.6         89.773528      303.98832      0.1585882    
   1321000   485.90787      1342.4495      1828.3574      70.01107       300.44296      0.15735237   
   1322000   504.52903      1342.772       1847.3011      128.90814      300.51514      0.15614103   
   1323000   501.87145      1357.4936      1859.3651      131.83518      303.80986      0.15357156   
   1324000   474.18872      1428.5046      1902.6933      214.5812       319.70227      0.15249913   
   1325000   497.6649       1370.2549      1867.9198      236.63283      306.66586      0.15199824   
   1326000   535.42115      1340.9405      1876.3616      216.85456      300.10523      0.15328926   
   1327000   495.14751      1352.6305      1847.778       205.70541      302.72149      0.15994842   
   1328000   482.26483      1354.6292      1836.894       202.30195      303.16879      0.16556778   
   1329000   482.06996      1382.2384      1864.3083      144.49462      309.34779      0.16668992   
   1330000   514.2495       1338.8819      1853.1314      48.727522      299.64452      0.16371126   
   1331000   471.68389      1375.6816      1847.3655      45.110796      307.88037      0.15835756   
   1332000   507.18532      1352.6407      1859.8261      55.171378      302.72378      0.15512159   
   1333000   523.97765      1337.5137      1861.4914      109.16238      299.33832      0.15371565   
   1334000   509.44231      1332.3796      1841.8219      197.11702      298.18929      0.1559356    
   1335000   465.57907      1346.9709      1812.55        179.35255      301.45485      0.15825927   
   1336000   508.74114      1323.3334      1832.0745      116.2996       296.16473      0.16003524   
   1337000   497.34018      1334.8116      1832.1518      89.228115      298.73358      0.16207942   
   1338000   485.4587       1345.8127      1831.2714      49.380581      301.19565      0.16264104   
   1339000   447.79283      1334.9821      1782.7749      94.84677       298.77174      0.16467943   
   1340000   468.91292      1337.7886      1806.7016      123.13161      299.39984      0.16489406   
   1341000   461.66795      1331.0155      1792.6835      159.68428      297.88401      0.16342825   
   1342000   492.79339      1291.3907      1784.1841      168.25346      289.01588      0.16195154   
   1343000   506.02546      1255.885       1761.9105      138.96635      281.06964      0.15932226   
   1344000   492.18721      1300.2727      1792.4599      109.87864      291.00369      0.15478085   
   1345000   518.68985      1304.7661      1823.4559      95.648948      292.00932      0.14991531   
   1346000   534.25497      1299.8951      1834.1501      75.807752      290.91919      0.15050879   
   1347000   481.5456       1340.5649      1822.1105      115.15309      300.02118      0.15647749   
   1348000   474.91208      1362.5944      1837.5065      150.01233      304.95143      0.1630694    
   1349000   499.26931      1339.2919      1838.5612      182.47602      299.73627      0.16689058   
   1350000   464.73324      1346.7577      1811.4909      219.07533      301.40714      0.1645864    
   1351000   476.41845      1342.1086      1818.5271      147.49795      300.36667      0.15909984   
   1352000   492.57086      1278.1992      1770.77        63.153777      286.06359      0.15626007   
   1353000   492.13063      1311.8118      1803.9424      22.377601      293.58616      0.15587743   
   1354000   499.9217       1324.9003      1824.822       46.485974      296.5154       0.15795169   
   1355000   486.59534      1352.3806      1838.9759      95.671505      302.66555      0.15845993   
   1356000   481.99808      1343.9651      1825.9631      163.55643      300.78214      0.15587768   
   1357000   506.55573      1330.1128      1836.6685      184.19195      297.68197      0.15185392   
   1358000   504.95777      1315.5464      1820.5042      205.34942      294.42199      0.15229357   
   1359000   487.68559      1350.7172      1838.4028      191.49631      302.29328      0.15925278   
   1360000   478.87114      1345.3672      1824.2383      170.4653       301.09594      0.16842512   
   1361000   482.56038      1363.6975      1846.2579      126.57017      305.19831      0.17021383   
   1362000   505.48579      1387.3564      1892.8422      85.247197      310.4932       0.167405     
   1363000   494.2348       1397.9039      1892.1387      169.72959      312.85375      0.16465769   
   1364000   480.12977      1378.5638      1858.6936      172.57377      308.52541      0.16220851   
   1365000   510.73577      1349.5182      1860.254       164.4067       302.02495      0.16113338   
   1366000   497.19512      1348.8265      1846.0216      115.02695      301.87014      0.16157248   
   1367000   460.53683      1318.3177      1778.8545      127.30635      295.0422       0.1652703    
   1368000   473.34896      1330.2224      1803.5714      115.09342      297.70651      0.16572149   
   1369000   492.43248      1297.1998      1789.6323      136.92869      290.31599      0.16166782   
   1370000   486.543        1293.0849      1779.6279      126.25478      289.39506      0.15644026   
   1371000   505.38505      1325.0366      1830.4217      186.2641       296.54591      0.15503443   
   1372000   491.02081      1308.3554      1799.3762      185.3075       292.81262      0.15639894   
   1373000   482.65078      1284.7351      1767.3858      209.00159      287.52634      0.16220835   
   1374000   467.671        1304.3228      1771.9938      255.71644      291.91012      0.16799948   
   1375000   451.12287      1330.2334      1781.3563      263.97743      297.70896      0.16836886   
   1376000   514.02456      1311.3237      1825.3483      224.17838      293.47695      0.16453162   
   1377000   508.87345      1297.9731      1806.8465      176.69003      290.48904      0.15889723   
   1378000   480.77206      1320.84        1801.6121      152.09339      295.6067       0.15462156   
   1379000   495.539        1314.3843      1809.9233      122.0577       294.16189      0.15147577   
   1380000   499.3155       1347.1295      1846.445       114.03778      301.49034      0.15181446   
   1381000   509.41692      1333.722       1843.1389      128.3211       298.48971      0.157151     
   1382000   500.04052      1372.2865      1872.3271      143.33092      307.12055      0.16062795   
   1383000   493.10048      1363.2651      1856.3656      163.68215      305.10153      0.16353625   
   1384000   496.60367      1364.9593      1861.5629      124.57422      305.48068      0.16383555   
   1385000   516.77566      1398.1315      1914.9071      133.90133      312.90469      0.16270835   
   1386000   485.28341      1398.3685      1883.6519      115.08332      312.95774      0.15937772   
   1387000   516.12997      1344.2527      1860.3827      84.196912      300.84651      0.15813799   
   1388000   485.87222      1324.6499      1810.5221      106.82204      296.45936      0.15829534   
   1389000   477.5169       1313.5084      1791.0253      130.3022       293.96587      0.15989567   
   1390000   466.92987      1277.496       1744.4259      135.05191      285.90623      0.16234375   
   1391000   457.17726      1317.2962      1774.4734      121.58213      294.81359      0.16465427   
   1392000   468.6139       1329.8922      1798.5061      158.41117      297.63259      0.16791317   
   1393000   467.30546      1314.3525      1781.658       160.01721      294.1548       0.16475616   
   1394000   515.81882      1314.3405      1830.1593      106.73744      294.15211      0.15565286   
   1395000   488.80997      1355.2564      1844.0663      154.92511      303.30916      0.15225357   
   1396000   518.57367      1316.5313      1835.105       137.81323      294.64242      0.15281165   
   1397000   496.59975      1305.9725      1802.5723      98.358435      292.27933      0.1568155    
   1398000   480.38647      1347.2081      1827.5946      78.802581      301.50795      0.16183585   
   1399000   481.55785      1332.0537      1813.6116      70.713404      298.11636      0.16596199   
   1400000   478.42176      1328.6996      1807.1214      48.608281      297.3657       0.16553212   
   1401000   480.54539      1297.4269      1777.9723      70.787161      290.36681      0.16167431   
   1402000   486.51857      1294.6945      1781.2131      130.82415      289.75528      0.15821007   
   1403000   490.93537      1335.933       1826.8684      151.36633      298.98455      0.15587235   
   1404000   514.68544      1321.8571      1836.5425      177.9716       295.83433      0.15500048   
   1405000   497.64037      1340.2233      1837.8637      239.70765      299.94473      0.15506078   
   1406000   509.53621      1335.5924      1845.1286      205.02878      298.90831      0.15525125   
   1407000   482.56872      1331.7292      1814.2979      159.63763      298.04373      0.15509044   
   1408000   492.01582      1353.8786      1845.8944      153.15906      303.0008       0.15687222   
   1409000   533.68072      1393.3307      1927.0114      122.41977      311.83027      0.16392433   
   1410000   494.53389      1381.7049      1876.2388      131.26711      309.22839      0.16771404   
   1411000   465.32178      1379.152       1844.4738      105.77177      308.65705      0.16571299   
   1412000   533.68706      1377.3064      1910.9935      119.74644      308.24401      0.16005093   
   1413000   512.62453      1340.0862      1852.7107      95.90683       299.91404      0.15441785   
   1414000   489.87873      1354.6291      1844.5078      120.93244      303.16877      0.15314747   
   1415000   488.25818      1329.6103      1817.8685      125.68894      297.56952      0.15207754   
   1416000   499.4862       1337.587       1837.0732      137.35056      299.35471      0.15092232   
   1417000   479.05715      1330.3087      1809.3658      177.43592      297.72581      0.15195796   
   1418000   479.28713      1299.9882      1779.2754      213.06973      290.94003      0.15537231   
   1419000   480.3592       1323.749       1804.1082      205.79667      296.25775      0.15955267   
   1420000   446.58282      1314.0654      1760.6482      187.21161      294.09054      0.16108602   
   1421000   449.48055      1310.8644      1760.3449      169.70744      293.37414      0.16073283   
   1422000   501.42843      1308.2302      1809.6586      138.84194      292.78459      0.15856721   
   1423000   486.82525      1325.0524      1811.8776      193.26328      296.54944      0.1547603    
   1424000   525.83803      1313.8227      1839.6607      138.40884      294.03622      0.1487584    
   1425000   500.10226      1309.9149      1810.0172      144.54975      293.16164      0.14699298   
   1426000   471.27412      1338.1094      1809.3836      75.671969      299.47164      0.1491587    
   1427000   504.17619      1306.1094      1810.2856      49.433192      292.30996      0.15511397   
   1428000   494.23158      1282.4151      1776.6467      86.333161      287.00714      0.1583399    
   1429000   495.82351      1319.5018      1815.3253      161.17891      295.30722      0.15969227   
   1430000   481.46777      1332.6825      1814.1502      204.80115      298.25707      0.15842744   
   1431000   509.5601       1293.5347      1803.0948      202.74197      289.49572      0.15884557   
   1432000   493.24336      1321.0385      1814.2818      183.36729      295.65112      0.16191307   
   1433000   498.82398      1336.4407      1835.2647      145.92748      299.09818      0.165995     
   1434000   472.65266      1378.8878      1851.5405      125.38013      308.59793      0.16789792   
   1435000   504.7227       1342.3555      1847.0782      99.431469      300.42192      0.16391601   
   1436000   508.38654      1375.7036      1884.0902      122.99437      307.8853       0.15869389   
   1437000   517.52329      1395.4925      1913.0158      157.096        312.31409      0.15695506   
   1438000   493.85528      1385.2669      1879.1222      230.75836      310.02558      0.15850075   
   1439000   487.20663      1375.3467      1862.5533      238.18421      307.80542      0.16072414   
   1440000   489.02267      1347.8144      1836.8371      223.23651      301.64362      0.16431698   
   1441000   479.39701      1341.4144      1820.8114      157.61057      300.21129      0.16751928   
   1442000   458.89713      1324.541       1783.4382      72.657349      296.435        0.16786936   
   1443000   460.71987      1296.9832      1757.7031      26.551927      290.2675       0.16637422   
   1444000   519.41232      1296.9609      1816.3732      61.029255      290.26251      0.16486072   
   1445000   491.23069      1335.9155      1827.1462      104.41975      298.98063      0.16097606   
   1446000   476.85957      1317.4086      1794.2682      142.14412      294.83875      0.15489573   
   1447000   506.51479      1315.8794      1822.3942      183.05251      294.4965       0.15107531   
   1448000   505.5755       1329.3813      1834.9568      128.08323      297.51827      0.14728454   
   1449000   499.60871      1318.7982      1818.4069      130.44281      295.14974      0.14914399   
   1450000   488.05727      1326.8587      1814.916       162.58696      296.9537       0.15816865   
   1451000   499.28382      1326.9566      1826.2404      163.38319      296.97562      0.1643131    
   1452000   487.50117      1336.4756      1823.9767      122.9211       299.10598      0.16478413   
   1453000   496.7584       1339.585       1836.3434      102.49187      299.80187      0.1622681    
   1454000   532.24911      1332.2975      1864.5466      109.08061      298.17091      0.16016685   
   1455000   495.24662      1365.4725      1860.7191      176.83366      305.59555      0.16017256   
   1456000   496.81903      1398.5866      1895.4056      235.48735      313.00655      0.16084087   
   1457000   521.97021      1367.1207      1889.0909      250.37366      305.96442      0.15841593   
   1458000   525.45832      1344.4892      1869.9475      250.84266      300.89944      0.1550651    
   1459000   512.32927      1368.3216      1880.6509      194.4318       306.23318      0.15286166   
   1460000   524.61225      1361.0344      1885.6466      131.76207      304.60228      0.15284415   
   1461000   542.84107      1323.6807      1866.5218      118.24434      296.24246      0.15427887   
   1462000   503.75223      1363.1753      1866.9275      68.570137      305.08143      0.15910708   
   1463000   479.90733      1320.3921      1800.2994      30.643279      295.50646      0.1658198    
   1464000   471.06712      1322.2738      1793.3409     -27.922727      295.92758      0.16805005   
   1465000   463.68428      1332.1431      1795.8274      21.71007       298.13636      0.16742073   
   1466000   479.24137      1319.1793      1798.4207      67.836404      295.23504      0.16410647   
   1467000   512.22386      1379.3943      1891.6181      174.24207      308.71127      0.16052361   
   1468000   508.00646      1376.6398      1884.6463      175.54905      308.09481      0.15751841   
   1469000   485.44423      1379.0289      1864.4732      165.23067      308.62951      0.15727701   
   1470000   497.40011      1347.7673      1845.1674      160.0245       301.63309      0.15933545   
   1471000   483.82946      1310.6515      1794.481       165.44689      293.32651      0.16584524   
   1472000   460.83352      1328.0502      1788.8837      208.90616      297.22035      0.17577094   
   1473000   483.16411      1302.1997      1785.3638      184.85836      291.43496      0.17437171   
   1474000   468.24302      1290.8982      1759.1412      186.218        288.90566      0.16677203   
   1475000   492.32648      1331.7457      1824.0722      206.98934      298.04743      0.16276413   
   1476000   511.68407      1323.626       1835.3101      190.61943      296.23022      0.15889476   
   1477000   501.92659      1329.8191      1831.7457      133.66804      297.61624      0.15706766   
   1478000   500.69944      1316.9959      1817.6954      69.024061      294.74639      0.15680004   
   1479000   500.99471      1315.8854      1816.8801      40.963773      294.49786      0.15756163   
   1480000   494.84958      1374.9611      1869.8107      41.175419      307.71912      0.16002864   
   1481000   482.20012      1381.1774      1863.3776      74.349879      309.11035      0.16663637   
   1482000   492.86084      1369.1018      1861.9626      140.43775      306.40779      0.17503024   
   1483000   481.36976      1346.5311      1827.9008      195.14467      301.35642      0.17636472   
   1484000   481.25888      1343.2772      1824.536       263.75836      300.62819      0.17258726   
   1485000   500.99975      1360.5652      1861.565       262.50225      304.49729      0.16758742   
   1486000   516.56093      1366.8446      1883.4055      249.51947      305.90263      0.16134501   
   1487000   508.91768      1421.269       1930.1867      184.31868      318.08292      0.15564069   
   1488000   535.35013      1355.0219      1890.372       124.22402      303.25668      0.15305308   
   1489000   531.82596      1328.9384      1860.7644      70.720474      297.41915      0.15256554   
   1490000   481.87192      1345.2552      1827.1271      78.464048      301.07087      0.15287998   
   1491000   492.87481      1291.9125      1784.7873      128.35028      289.13266      0.15333806   
   1492000   498.635        1293.8596      1792.4946      185.75166      289.56844      0.15663197   
   1493000   471.17643      1338.272       1809.4484      280.43177      299.50801      0.16486928   
   1494000   469.31542      1359.1455      1828.4609      267.67451      304.17955      0.16826831   
   1495000   459.17282      1338.8958      1798.0686      216.45467      299.64762      0.16698414   
   1496000   480.83237      1322.4842      1803.3165      45.693679      295.97467      0.16373294   
   1497000   481.3831       1346.2164      1827.5995     -69.838101      301.28599      0.16179955   
   1498000   503.07902      1319.2604      1822.3395     -113.65884      295.2532       0.1628515    
   1499000   473.3431       1346.4556      1819.7987     -19.126444      301.33953      0.16552997   
   1500000   478.81078      1312.3668      1791.1775      99.123188      293.71038      0.16582992   
   1501000   496.16614      1316.8001      1812.9662      234.07734      294.70257      0.16257545   
   1502000   502.30318      1314.5503      1816.8535      252.40711      294.19906      0.15550879   
   1503000   472.28384      1317.0212      1789.305       244.23392      294.75204      0.15079508   
   1504000   479.34165      1306.0827      1785.4244      228.29317      292.304        0.15199299   
   1505000   498.00956      1319.2313      1817.2409      184.02144      295.24667      0.15547779   
   1506000   491.88835      1341.8227      1833.7111      184.43201      300.30268      0.15877068   
   1507000   471.92996      1335.9997      1807.9297      166.84491      298.99948      0.15778586   
   1508000   509.06548      1323.1012      1832.1666      134.41879      296.11276      0.15490007   
   1509000   514.84225      1315.4842      1830.3264      147.86591      294.40805      0.15030033   
   1510000   492.4657       1336.4263      1828.892       184.64984      299.09495      0.14878271   
   1511000   493.1294       1290.2618      1783.3912      150.7294       288.76325      0.15090419   
   1512000   494.22615      1304.968       1799.1941      126.28314      292.05451      0.15828868   
   1513000   453.1975       1348.7137      1801.9112      124.39182      301.8449       0.16538651   
   1514000   488.46494      1330.3724      1818.8374      134.44616      297.74008      0.1680115    
   1515000   475.28205      1318.6173      1793.8993      207.42119      295.10925      0.16882167   
   1516000   477.59055      1265.6571      1743.2476      141.14437      283.25665      0.16747884   
   1517000   476.65231      1310.6522      1787.3045      100.44509      293.32666      0.16554133   
   1518000   502.1238       1305.0277      1807.1515      53.621779      292.06788      0.16048778   
   1519000   489.91883      1330.0389      1819.9577      79.177451      297.66543      0.1553859    
   1520000   493.60809      1323.8596      1817.4677      109.19238      296.2825       0.15333201   
   1521000   488.99911      1291.1946      1780.1937      143.62016      288.972        0.15357367   
   1522000   489.26546      1284.5043      1773.7698      203.71737      287.47471      0.15817644   
   1523000   491.43414      1332.6711      1824.1053      220.87021      298.25454      0.16153531   
   1524000   489.72225      1320.744       1810.4663      186.64931      295.58523      0.16216392   
   1525000   472.71251      1342.5169      1815.2294      140.02713      300.45805      0.16083681   
   1526000   493.26848      1318.2095      1811.478       101.01237      295.01799      0.16042128   
   1527000   480.78139      1352.9442      1833.7256      81.356005      302.79169      0.16108967   
   1528000   469.67371      1353.7268      1823.4005      136.49573      302.96683      0.16256018   
   1529000   492.44352      1340.4523      1832.8958      124.91473      299.99597      0.1638351    
   1530000   481.81351      1392.6605      1874.474       235.02979      311.68029      0.16673079   
   1531000   501.78423      1403.0145      1904.7987      225.43823      313.99752      0.16422489   
   1532000   527.86348      1354.935       1882.7985      178.33827      303.23723      0.1566571    
   1533000   519.76985      1350.6891      1870.4589      95.968428      302.28699      0.15200471   
   1534000   516.34216      1336.2093      1852.5515      40.939757      299.04639      0.15202746   
   1535000   495.95713      1328.515       1824.4721      70.161239      297.32438      0.15371019   
   1536000   514.32112      1329.5539      1843.875       55.730419      297.55689      0.15572879   
   1537000   532.08657      1326.9506      1859.0372      93.382622      296.97426      0.15843288   
   1538000   504.85727      1359.6746      1864.5319      154.51657      304.29797      0.16365252   
   1539000   482.46705      1359.9858      1842.4528      202.41291      304.3676       0.16754305   
   1540000   479.06638      1354.8445      1833.9108      172.66613      303.21697      0.16692645   
   1541000   493.70727      1346.5294      1840.2367      189.85422      301.35605      0.16131466   
   1542000   499.51804      1338.2937      1837.8117      171.61531      299.51287      0.15334348   
   1543000   504.00793      1342.383       1846.3909      136.05249      300.42807      0.15202383   
   1544000   509.80604      1349.3385      1859.1445      110.77036      301.98472      0.15580212   
   1545000   484.44656      1358.0924      1842.539       118.0484       303.94387      0.16054928   
   1546000   502.96112      1342.4092      1845.3703      118.88818      300.43394      0.16315669   
   1547000   492.86983      1351.9435      1844.8133      130.06835      302.56773      0.1644501    
   1548000   486.88767      1359.9211      1846.8088      132.85359      304.35313      0.16480089   
   1549000   488.84412      1361.9712      1850.8153      145.9706       304.81195      0.16489913   
   1550000   509.4613       1375.4844      1884.9457      186.06472      307.83623      0.16367156   
   1551000   495.55327      1357.215       1852.7683      134.64918      303.7475       0.16119622   
   1552000   494.18201      1360.1938      1854.3758      151.47098      304.41416      0.16101488   
   1553000   472.47606      1391.2371      1863.7131      180.11254      311.36171      0.1633674    
   1554000   483.97619      1392.1789      1876.1551      187.72111      311.5725       0.16668684   
   1555000   504.10011      1320.6975      1824.7976      196.77359      295.57482      0.17022187   
   1556000   476.5237       1323.2584      1799.7821      166.60863      296.14794      0.16994604   
   1557000   455.98745      1296.3244      1752.3119      121.90099      290.12007      0.16412451   
   1558000   470.83452      1291.6275      1762.462       91.985462      289.06888      0.15816562   
   1559000   510.97132      1301.5132      1812.4845      95.797902      291.28133      0.15668923   
   1560000   503.91631      1330.6791      1834.5954      111.40806      297.80871      0.15411972   
   1561000   509.44546      1329.4627      1838.9082      118.77277      297.53649      0.15261003   
   1562000   486.30481      1332.3168      1818.6216      129.35081      298.17523      0.15521974   
   1563000   481.75198      1329.6914      1811.4434      87.73237       297.58766      0.16095524   
   1564000   464.09903      1304.1079      1768.2069      31.978685      291.86202      0.1658502    
   1565000   476.73765      1308.8789      1785.6165      44.962767      292.92978      0.16741447   
   1566000   465.93215      1340.6549      1806.5871      114.09541      300.04132      0.16481831   
   1567000   501.80976      1334.8333      1836.643       143.98216      298.73843      0.16262551   
   1568000   497.19081      1365.774       1862.9648      196.94588      305.66302      0.15985466   
   1569000   488.61387      1355.1979      1843.8118      198.72209      303.29607      0.15746524   
   1570000   524.55239      1360.4639      1885.0163      168.13751      304.47462      0.15656271   
   1571000   499.44714      1353.9863      1853.4334      166.96303      303.02491      0.15822986   
   1572000   465.02526      1350.5986      1815.6239      147.14452      302.26674      0.1607252    
   1573000   498.0641       1286.1693      1784.2333      188.00785      287.84732      0.16469728   
   1574000   478.11344      1332.9652      1811.0786      176.76162      298.32035      0.16728575   
   1575000   481.83113      1324.1215      1805.9526      166.53888      296.3411       0.16841384   
   1576000   485.0737       1294.8972      1779.9709      157.88438      289.80066      0.16361115   
   1577000   474.36597      1298.5353      1772.9013      118.1023       290.61486      0.15656836   
   1578000   493.09876      1300.3806      1793.4793      101.04667      291.02784      0.15365669   
   1579000   524.78161      1326.6181      1851.3997      53.231619      296.89985      0.15312594   
   1580000   504.72575      1367.7132      1872.4389      31.398354      306.09702      0.15537861   
   1581000   493.43055      1358.9728      1852.4034      16.387286      304.14091      0.16015828   
   1582000   529.73327      1323.0075      1852.7408      8.277511       296.09179      0.16298514   
   1583000   510.76215      1376.6368      1887.399       95.160844      308.09415      0.16326006   
   1584000   503.67755      1424.5443      1928.2219      169.13442      318.81595      0.15930433   
   1585000   525.71193      1359.7781      1885.49        182.18215      304.32112      0.15428887   
   1586000   506.77197      1359.9551      1866.727       214.19225      304.36074      0.15358713   
   1587000   473.84377      1364.0002      1837.844       198.90182      305.26605      0.15441906   
   1588000   495.38708      1353.3164      1848.7035      162.66306      302.87498      0.15499585   
   1589000   543.72381      1352.617       1896.3408      120.15627      302.71846      0.15625319   
   1590000   540.68429      1393.4567      1934.141       77.66843       311.85847      0.15612754   
   1591000   482.34277      1385.5394      1867.8822      114.67603      310.08657      0.15508827   
   1592000   495.6682       1369.0765      1864.7447      165.81971      306.40213      0.1555224    
   1593000   494.99112      1357.472       1852.4631      262.7898       303.80502      0.16013838   
   1594000   483.85616      1388.8524      1872.7086      320.46654      310.82802      0.1673318    
   1595000   489.09536      1390.5303      1879.6257      320.87238      311.20354      0.16988841   
   1596000   504.61664      1365.5872      1870.2038      262.25711      305.62121      0.16661249   
   1597000   484.56449      1371.2111      1855.7756      145.9795       306.87985      0.15921665   
   1598000   497.28744      1364.0104      1861.2979      98.836705      305.26834      0.15563114   
   1599000   501.63388      1356.2986      1857.9325      68.737814      303.54241      0.15538787   
   1600000   514.13464      1356.1249      1870.2596      111.99488      303.50355      0.15844106   
   1601000   500.746        1369.1022      1869.8482      119.07594      306.40787      0.16261334   
   1602000   496.72148      1377.5996      1874.3211      147.98313      308.30962      0.16492286   
   1603000   493.00251      1387.153       1880.1555      152.21519      310.44769      0.16380554   
   1604000   513.75814      1351.3402      1865.0983      124.36827      302.43271      0.15980892   
   1605000   501.02833      1339.4097      1840.438       155.58518      299.76263      0.15812599   
   1606000   494.44241      1361.3843      1855.8268      131.47977      304.68061      0.15822083   
   1607000   493.16113      1338.1098      1831.2709      137.8458       299.47171      0.15957559   
   1608000   503.49913      1383.1836      1886.6828      164.13713      309.55934      0.16187087   
   1609000   478.46166      1386.857       1865.3187      165.84358      310.38144      0.16409397   
   1610000   499.71363      1324.7764      1824.49        110.91089      296.48767      0.16564761   
   1611000   477.62653      1333.0557      1810.6822      89.612858      298.34059      0.16754463   
   1612000   462.85962      1340.6247      1803.4843      88.495412      300.03455      0.17145736   
   1613000   469.34045      1299.7592      1769.0996      135.53796      290.88877      0.17630865   
   1614000   465.9502       1328.3003      1794.2505      160.9813       297.27634      0.17572685   
   1615000   483.0754       1321.3071      1804.3825      178.0417       295.71125      0.16747324   
   1616000   482.86566      1339.2197      1822.0853      179.5869       299.72011      0.16110264   
   1617000   471.71855      1355.4885      1827.2071      158.79473      303.36112      0.16017992   
   1618000   481.9326       1316.655       1798.5876      158.86321      294.67009      0.16124916   
   1619000   486.11124      1343.088       1829.1992      110.32725      300.58584      0.16107285   
   1620000   530.97584      1338.2872      1869.263       40.135278      299.51142      0.16018121   
   1621000   510.43358      1379.6461      1890.0797      50.016521      308.76763      0.15987213   
   1622000   533.094        1373.3105      1906.4045      72.236902      307.3497       0.16090954   
   1623000   497.67987      1359.7365      1857.4163      88.593577      304.31181      0.16409818   
   1624000   501.14231      1376.442       1877.5843      162.92185      308.05055      0.17027667   
   1625000   470.97541      1372.9297      1843.9051      183.46781      307.26448      0.17292853   
   1626000   481.04405      1378.4326      1859.4766      162.1902       308.49604      0.17177187   
   1627000   492.70654      1372.5443      1865.2508      153.34188      307.17822      0.16766128   
   1628000   492.8819       1370.5272      1863.4091      159.22502      306.7268       0.16304792   
   1629000   508.79088      1338.7547      1847.5456      164.74345      299.61604      0.15791171   
   1630000   481.96042      1339.2658      1821.2262      183.8306       299.73043      0.15643438   
   1631000   496.31282      1293.0547      1789.3675      143.07845      289.38829      0.15980132   
   1632000   455.71201      1351.9939      1807.7059      168.7439       302.579        0.16863822   
   1633000   498.59916      1346.8971      1845.4963      137.37711      301.43834      0.1743229    
   1634000   485.64224      1326.661       1812.3032      115.28165      296.90945      0.17527781   
   1635000   482.02551      1302.8113      1784.8368      146.22734      291.57185      0.17146392   
   1636000   482.69609      1305.8113      1788.5074      186.64124      292.24325      0.16391235   
   1637000   495.88025      1293.2493      1789.1296      214.94916      289.43185      0.15864886   
   1638000   505.95701      1304.5875      1810.5445      260.82375      291.96935      0.15511243   
   1639000   485.19336      1348.1755      1833.3689      225.91819      301.72444      0.15366649   
   1640000   494.21501      1326.0852      1820.3002      195.30101      296.78059      0.15575901   
   1641000   488.77534      1335.4228      1824.1982      139.86792      298.87037      0.15982659   
   1642000   492.87356      1397.2145      1890.0881      107.41551      312.69948      0.16469898   
   1643000   480.57302      1397.8626      1878.4356      58.756446      312.84452      0.16646622   
   1644000   499.18349      1359.6805      1858.864       95.592103      304.29929      0.16574025   
   1645000   484.4667       1351.5516      1836.0183      109.34171      302.48002      0.1613586    
   1646000   506.7326       1355.319       1862.0516      138.59109      303.32318      0.15999061   
   1647000   519.01969      1380.7896      1899.8093      179.58814      309.02354      0.15961393   
   1648000   505.66926      1400.6587      1906.3279      214.51689      313.47029      0.15974587   
   1649000   483.64623      1371.9578      1855.604       218.89778      307.04697      0.16052046   
   1650000   494.91491      1361.7632      1856.6781      216.23751      304.7654       0.16248508   
   1651000   488.10007      1401.4675      1889.5676      172.24368      313.6513       0.16173011   
   1652000   512.49155      1348.7897      1861.2813      130.50723      301.86191      0.15808852   
   1653000   506.11338      1336.8735      1842.9868      101.02501      299.19502      0.15401453   
   1654000   479.0522       1334.0908      1813.143       133.26909      298.57226      0.1533072    
   1655000   496.61585      1313.8247      1810.4405      128.81837      294.03666      0.15798016   
   1656000   478.61799      1321.5184      1800.1364      163.80337      295.75852      0.16506656   
   1657000   462.07898      1321.6827      1783.7617      132.28972      295.79531      0.16864013   
   1658000   476.17301      1300.3126      1776.4856      126.94791      291.01262      0.16724372   
   1659000   481.25313      1307.9667      1789.2198      138.83112      292.72563      0.16171144   
   1660000   463.70949      1344.7229      1808.4324      173.77299      300.95174      0.15865422   
   1661000   494.46297      1332.3604      1826.8234      147.59521      298.185        0.16110259   
   1662000   513.05629      1361.4756      1874.5319      186.31632      304.70104      0.16698093   
   1663000   482.80354      1390.3602      1873.1638      129.24676      311.16547      0.16889236   
   1664000   480.55334      1369.6933      1850.2467      119.94484      306.54017      0.16860031   
   1665000   490.07888      1342.0121      1832.091       180.48833      300.34507      0.1696941    
   1666000   502.29845      1322.3762      1824.6747      239.11369      295.95052      0.16859814   
   1667000   480.74546      1309.4253      1790.1707      273.19559      293.05206      0.16514805   
   1668000   473.85427      1341.0203      1814.8746      202.40752      300.12309      0.16053979   
   1669000   495.1582       1302.3626      1797.5208      153.50474      291.47141      0.15817829   
   1670000   489.87348      1312.5475      1802.421       158.80485      293.75083      0.16041361   
   1671000   498.74772      1320.1238      1818.8715      130.1496       295.44642      0.16406266   
   1672000   500.09741      1309.9962      1810.0936      153.675        293.17983      0.16497293   
   1673000   491.71198      1298.574       1790.286       138.726        290.62353      0.1584706    
   1674000   502.29227      1315.9085      1818.2008      165.47823      294.50302      0.15175551   
   1675000   531.25367      1316.0067      1847.2604      178.30454      294.525        0.14816201   
   1676000   489.73404      1308.8537      1798.5877      161.29181      292.92414      0.14837334   
   1677000   501.55597      1336.1276      1837.6836      94.469849      299.0281       0.1514562    
   1678000   512.27776      1314.9351      1827.2129      87.771048      294.28518      0.15595995   
   1679000   489.63597      1305.5549      1795.1908      75.975708      292.18586      0.15781219   
   1680000   474.2369       1303.8958      1778.1327      131.89859      291.81456      0.15754938   
   1681000   483.89022      1350.3167      1834.2069      187.76894      302.20365      0.15648625   
   1682000   499.72368      1308.1406      1807.8643      191.38812      292.76455      0.15491453   
   1683000   501.11947      1328.5665      1829.686       204.15455      297.33591      0.15728747   
   1684000   520.41404      1311.1835      1831.5976      156.32404      293.44556      0.15895168   
   1685000   485.67371      1307.9392      1793.6129      91.207671      292.71948      0.15893456   
   1686000   505.61272      1327.1077      1832.7204      94.922353      297.00942      0.15904427   
   1687000   491.40274      1312.4037      1803.8064      101.38003      293.71864      0.1567684    
   1688000   506.40862      1292.5679      1798.9766      136.56935      289.27936      0.15273814   
   1689000   512.24363      1318.5189      1830.7626      153.96378      295.08725      0.15046961   
   1690000   477.97335      1336.3346      1814.3079      180.16272      299.07442      0.14881316   
   1691000   506.47911      1324.674       1831.1531      176.44044      296.46476      0.14921952   
   1692000   523.29945      1306.4112      1829.7106      153.66073      292.3775       0.15375344   
   1693000   492.85714      1319.5615      1812.4187      172.73659      295.32058      0.15979782   
   1694000   481.49179      1345.7892      1827.281       170.76363      301.19038      0.16342035   
   1695000   505.9047       1310.1227      1816.0274      169.88663      293.20816      0.16376183   
   1696000   493.61466      1338.4462      1832.0609      172.88581      299.54701      0.16113417   
   1697000   500.03491      1324.4836      1824.5185      147.65188      296.42214      0.1583891    
   1698000   487.59332      1333.3372      1820.9306      83.805771      298.40361      0.1544855    
   1699000   493.98242      1295.7965      1789.7789      30.99099       290.00191      0.15367095   
   1700000   520.35113      1324.3782      1844.7293      17.554396      296.39855      0.15630924   
   1701000   493.86759      1320.2147      1814.0822      73.459091      295.46675      0.16067984   
   1702000   470.36499      1304.9315      1775.2965      30.169602      292.04635      0.16037286   
   1703000   488.08356      1301.6469      1789.7304      88.146816      291.31124      0.16185623   
   1704000   479.02159      1323.0383      1802.0599      163.5555       296.09869      0.16758681   
   1705000   438.38125      1306.8061      1745.1874      259.04881      292.46589      0.1729876    
   1706000   469.77803      1317.608       1787.386       306.35997      294.88337      0.17338687   
   1707000   480.78149      1325.945       1806.7265      257.77915      296.74922      0.17106919   
   1708000   500.81206      1374.4807      1875.2928      241.88638      307.6116       0.16737552   
   1709000   507.00268      1337.2278      1844.2305      186.33719      299.27434      0.16189274   
   1710000   494.72703      1379.2903      1874.0173      127.83263      308.688        0.15775777   
   1711000   492.98699      1367.4911      1860.478       141.33553      306.0473       0.1574072    
   1712000   557.84468      1342.7615      1900.6061      113.70527      300.51277      0.15665419   
   1713000   514.63934      1324.3744      1839.0138      113.40896      296.39771      0.15337721   
   1714000   534.5502       1334.208       1868.7582      31.798007      298.5985       0.15002718   
   1715000   501.97611      1346.9095      1848.8856      21.959384      301.44111      0.15118494   
   1716000   514.2284       1351.5583      1865.7867      19.28144       302.48153      0.15766163   
   1717000   460.93411      1378.3601      1839.2942      118.29582      308.47982      0.1643181    
   1718000   467.10712      1334.3539      1801.461       232.32645      298.63113      0.16657386   
   1719000   518.47111      1284.7658      1803.237       276.54618      287.53323      0.16627558   
   1720000   493.50128      1289.983       1783.4843      237.99993      288.70085      0.1632279    
   1721000   468.20194      1295.6291      1763.831       189.50977      289.96445      0.1600475    
   1722000   509.41482      1301.9943      1811.4091      135.51215      291.38899      0.15722542   
   1723000   513.55758      1324.2117      1837.7693      72.224266      296.36129      0.15491438   
   1724000   514.09887      1326.5165      1840.6153      55.360817      296.8771       0.1548824    
   1725000   510.70953      1337.5289      1848.2384      99.729854      299.3417       0.15615151   
   1726000   470.21908      1355.7381      1825.9572      154.9561       303.41698      0.15645609   
   1727000   473.4427       1359.1334      1832.576       229.29857      304.17683      0.1547258    
   1728000   513.26995      1352.5353      1865.8052      263.00749      302.70017      0.15131074   
   1729000   514.75553      1414.0164      1928.7719      237.35426      316.45977      0.14643199   
   1730000   521.76758      1347.7577      1869.5253      177.02566      301.63093      0.14478956   
   1731000   525.22732      1345.2814      1870.5087      109.25666      301.07674      0.14719148   
   1732000   510.13192      1364.2833      1874.4152      79.504432      305.3294       0.15184588   
   1733000   496.9978       1348.3651      1845.3629      93.627343      301.76687      0.15749879   
   1734000   501.75763      1365.731       1867.4886      182.84115      305.6534       0.16088258   
   1735000   532.84738      1336.9521      1869.7995      199.00557      299.21262      0.16019798   
   1736000   542.1771       1364.4347      1906.6118      170.20624      305.36328      0.15920939   
   1737000   482.08965      1379.7386      1861.8282      190.60262      308.78833      0.15968399   
   1738000   494.49205      1356.5052      1850.9973      106.55903      303.58865      0.16062097   
   1739000   533.331        1307.7063      1841.0373      87.751255      292.66736      0.16058849   
   1740000   488.57473      1364.5625      1853.1372      89.386198      305.39188      0.1595721    
   1741000   520.12801      1362.9001      1883.0282      106.79354      305.01985      0.16153223   
   1742000   510.98735      1305.2081      1816.1954      136.26505      292.10825      0.1679121    
   1743000   473.11088      1320.9677      1794.0785      195.65014      295.63527      0.17395993   
   1744000   466.98868      1325.4554      1792.444       181.11655      296.63963      0.17294607   
   1745000   482.01489      1334.642       1816.6569      147.53113      298.69562      0.16693329   
   1746000   495.22171      1304.2399      1799.4616      103.66056      291.89157      0.16443495   
   1747000   477.31397      1275.6346      1752.9486      121.23034      285.48964      0.16621677   
   1748000   494.36199      1279.026       1773.388       130.25409      286.24864      0.16998052   
   1749000   457.45359      1334.0819      1791.5355      152.9882       298.57026      0.17211118   
   1750000   486.83796      1315.8645      1802.7024      113.38472      294.49317      0.16968249   
   1751000   482.49518      1327.7812      1810.2764      98.420848      297.16016      0.16436461   
   1752000   487.76983      1312.4226      1800.1924      132.96263      293.72287      0.15889615   
   1753000   496.327        1332.4978      1828.8248      169.73129      298.21574      0.15833396   
   1754000   525.3141       1336.479       1861.7931      179.8553       299.10675      0.16087775   
   1755000   510.81191      1347.6044      1858.4163      216.55311      301.59662      0.1632548    
   1756000   507.76801      1381.8179      1889.5859      146.84848      309.25367      0.16352314   
   1757000   505.21007      1359.1698      1864.3799      105.1415       304.18499      0.1639129    
   1758000   512.35834      1354.8697      1867.228       90.505076      303.22261      0.16307494   
   1759000   525.86918      1382.5801      1908.4493      181.06761      309.42426      0.16197976   
   1760000   512.59715      1383.6167      1896.2138      220.4706       309.65625      0.15957054   
   1761000   500.95032      1348.3036      1849.2539      260.42313      301.75311      0.15775209   
   1762000   475.72594      1363.5736      1839.2995      274.32658      305.17056      0.15674272   
   1763000   518.08626      1379.0895      1897.1757      160.29563      308.64305      0.15959668   
   1764000   502.67436      1342.8596      1845.5339      98.77161       300.53473      0.16248554   
   1765000   537.21505      1339.2912      1876.5063      37.39392       299.73612      0.16209099   
   1766000   483.88203      1379.9875      1863.8695      94.255375      308.84403      0.1608906    
   1767000   526.755        1340.5851      1867.3401      109.09106      300.02569      0.15596655   
   1768000   515.84225      1359.9944      1875.8366      131.09005      304.36954      0.15211634   
   1769000   516.77934      1337.5455      1854.3249      155.50327      299.34543      0.15317933   
   1770000   496.11464      1357.2541      1853.3687      160.01672      303.75624      0.15770681   
   1771000   499.89691      1348.728       1848.6249      159.78917      301.8481       0.16264469   
   1772000   506.32102      1355.2639      1861.5849      169.71124      303.31084      0.16406135   
   1773000   533.75429      1328.9535      1862.7078      119.11923      297.42253      0.16121581   
   1774000   497.7229       1303.79        1801.5129      101.02674      291.79088      0.15712017   
   1775000   503.28679      1341.4028      1844.6896      118.7676       300.20871      0.15575263   
   1776000   495.88268      1324.8469      1820.7296      168.45364      296.50345      0.1565448    
   1777000   483.23164      1305.6451      1788.8767      141.15713      292.20605      0.15524135   
   1778000   478.17636      1292.9368      1771.1131      173.26595      289.36191      0.15518758   
   1779000   480.77129      1306.4216      1787.1929      137.24683      292.37983      0.15737015   
   1780000   477.36324      1329.2225      1806.5857      123.88423      297.48272      0.16463992   
   1781000   481.11929      1315.4643      1796.5836      107.14593      294.40361      0.17054501   
   1782000   476.37078      1310.6681      1787.0389      55.169002      293.33021      0.17083747   
   1783000   506.32141      1296.4038      1802.7252      18.801397      290.13782      0.16920148   
   1784000   466.83573      1331.5408      1798.3765      97.067577      298.00155      0.16790363   
   1785000   471.94889      1305.4427      1777.3916      170.09012      292.16075      0.1656759    
   1786000   509.7554       1310.1376      1819.893       231.83937      293.21148      0.16439292   
   1787000   484.26762      1323.1572      1807.4249      314.66784      296.12531      0.16211745   
   1788000   508.86026      1329.2201      1838.0804      231.76164      297.4822       0.15893281   
   1789000   497.33879      1367.9296      1865.2684      131.42693      306.14546      0.15721266   
   1790000   504.57043      1350.6811      1855.2515      37.082844      302.2852       0.15926991   
   1791000   502.12749      1363.9919      1866.1194      24.059698      305.26418      0.16511781   
   1792000   488.70903      1376.7298      1865.4388      50.562041      308.11494      0.16962017   
   1793000   490.99856      1385.0806      1876.0791      50.342816      309.98387      0.17033177   
   1794000   522.28663      1331.2575      1853.5442      74.169943      297.93817      0.16524092   
   1795000   498.082        1321.2308      1819.3128      122.11147      295.69416      0.15902299   
   1796000   513.68262      1337.1861      1850.8687      76.421092      299.26498      0.15568138   
   1797000   511.64424      1323.4153      1835.0596      67.925811      296.18307      0.15547645   
   1798000   508.49964      1273.1176      1781.6172      84.076546      284.92632      0.15584728   
   1799000   489.17687      1298.8183      1787.9952      115.43096      290.6782       0.15638256   
   1800000   504.22456      1306.4773      1810.7019      215.89376      292.3923       0.1596243    
   1801000   499.71055      1332.3339      1832.0444      231.93726      298.17906      0.16230425   
   1802000   506.8919       1311.8174      1818.7093      201.5228       293.58744      0.16334982   
   1803000   492.68375      1326.1342      1818.818       189.66517      296.79156      0.16617743   
   1804000   480.33168      1353.0179      1833.3496      158.43824      302.80819      0.17046324   
   1805000   480.29825      1381.36        1861.6583      196.37838      309.15121      0.17557223   
   1806000   491.99186      1346.3146      1838.3065      249.16151      301.30797      0.17706816   
   1807000   498.39245      1359.3676      1857.7601      263.31858      304.22927      0.17050231   
   1808000   506.04397      1358.5661      1864.61        246.2461       304.04987      0.16491452   
   1809000   533.93692      1336.7322      1870.6691      171.7729       299.1634       0.16174968   
   1810000   507.36199      1312.4263      1819.7883      120.03409      293.7237       0.16264881   
   1811000   489.36438      1327.4462      1816.8106      111.52874      297.08518      0.16628117   
   1812000   494.99851      1321.9818      1816.9803      106.10819      295.86225      0.16746884   
   1813000   491.39579      1303.7956      1795.1914      54.173902      291.79213      0.16469271   
   1814000   484.38371      1344.691       1829.0748      96.397637      300.94462      0.16140161   
   1815000   507.51864      1338.5237      1846.0424      129.73199      299.56436      0.15879658   
   1816000   489.03877      1324.3316      1813.3704      147.29966      296.38814      0.15650983   
   1817000   522.78457      1323.2847      1846.0692      160.27955      296.15382      0.1544335    
   1818000   524.08395      1302.3778      1826.4618      171.58941      291.47483      0.15603694   
   1819000   504.94366      1330.4187      1835.3624      167.40329      297.75044      0.16403038   
   1820000   489.90782      1338.6053      1828.5131      172.05297      299.58261      0.16998401   
   1821000   480.84213      1319.7688      1800.6109      164.79314      295.36696      0.1701631    
   1822000   496.01986      1349.972       1845.9918      217.22742      302.12649      0.16888983   
   1823000   495.62551      1349.4542      1845.0797      231.90033      302.01062      0.16617973   
   1824000   454.93718      1361.4299      1816.367       220.30769      304.6908       0.16352305   
   1825000   488.16665      1311.752       1799.9187      171.85027      293.5728       0.1608711    
   1826000   499.71991      1336.0894      1835.8093      124.68335      299.01955      0.15886082   
   1827000   519.05488      1283.138       1802.1928      118.6957       287.16891      0.15833387   
   1828000   495.79314      1335.0699      1830.8631      130.829        298.79139      0.16069393   
   1829000   484.03431      1323.9393      1807.9737      110.01316      296.30034      0.16482272   
   1830000   486.03151      1351.4747      1837.5062      112.13352      302.46281      0.17104811   
   1831000   492.94447      1366.2064      1859.1509      134.32145      305.7598       0.17426531   
   1832000   496.00418      1361.0556      1857.0598      117.12432      304.60705      0.17233455   
   1833000   480.818        1352.2525      1833.0705      92.428053      302.63688      0.16813841   
   1834000   490.64923      1323.8664      1814.5156      87.268385      296.28402      0.1647802    
   1835000   510.53412      1296.7227      1807.2568      89.451893      290.2092       0.16387476   
   1836000   471.90891      1298.9686      1770.8775      101.62925      290.71183      0.16457369   
   1837000   485.19038      1332.6422      1817.8326      111.78753      298.24806      0.1671198    
   1838000   491.43001      1335.8742      1827.3042      161.17326      298.97138      0.16983271   
   1839000   478.03354      1289.1238      1767.1574      192.03156      288.50856      0.1728197    
   1840000   497.82671      1320.5297      1818.3564      170.44883      295.53725      0.17452711   
   1841000   495.58651      1330.1964      1825.7829      121.24637      297.70068      0.17206925   
   1842000   513.31878      1354.7985      1868.1173      15.938999      303.20669      0.164603     
   1843000   513.89854      1366.4801      1880.3786      5.0878864      305.82105      0.1603187    
   1844000   511.79831      1380.6677      1892.466      -5.6429189      308.99627      0.16032306   
   1845000   484.81706      1350.5069      1835.324       81.264643      302.24622      0.16299659   
   1846000   489.76141      1361.1809      1850.9423      176.85639      304.63509      0.16590926   
   1847000   470.05447      1370.2508      1840.3052      221.70909      306.66493      0.16787889   
   1848000   513.1783       1380.1685      1893.3468      254.12624      308.88454      0.17054025   
   1849000   474.45268      1405.9045      1880.3572      184.23333      314.64432      0.17198246   
   1850000   486.06749      1358.8262      1844.8937      135.81097      304.10809      0.17395332   
   1851000   482.66672      1343.1597      1825.8264      90.030006      300.6019       0.17391138   
   1852000   475.09542      1359.2165      1834.312       73.039075      304.19545      0.17005506   
   1853000   485.12364      1353.9938      1839.1175      112.39784      303.0266       0.16354278   
   1854000   514.57844      1304.9634      1819.5419      114.80999      292.05349      0.1601464    
   1855000   509.80511      1317.8321      1827.6372      162.86538      294.93353      0.16289052   
   1856000   459.24968      1358.9948      1818.2444      232.32063      304.14582      0.16863525   
   1857000   468.10036      1342.0617      1810.162       267.58422      300.35616      0.1718848    
   1858000   489.28513      1309.8397      1799.1248      281.19778      293.14481      0.16989664   
   1859000   506.65644      1346.8677      1853.5242      234.53733      301.43176      0.16742274   
   1860000   504.67892      1383.8157      1888.4947      189.93419      309.7008       0.16689358   
   1861000   512.67459      1331.9973      1844.6719      84.476292      298.10373      0.16285399   
   1862000   495.32848      1334.5145      1829.843       20.018566      298.66709      0.15831551   
   1863000   506.07281      1336.6499      1842.7227     -38.730557      299.14499      0.15688672   
   1864000   489.51688      1313.9812      1803.4981     -0.82021516     294.0717       0.15905808   
   1865000   489.63631      1344.7807      1834.417       72.782383      300.96468      0.16400779   
   1866000   479.66303      1311.4926      1791.1556      148.82495      293.51473      0.16776126   
   1867000   461.29301      1313.3674      1774.6604      244.1425       293.93432      0.17184506   
   1868000   485.83652      1320.9883      1806.8248      277.76955      295.6399       0.17373433   
   1869000   472.92547      1294.0314      1766.9569      253.91138      289.60688      0.17153924   
   1870000   489.25678      1319.1873      1808.4441      159.85208      295.23683      0.16561631   
   1871000   519.11495      1306.1072      1825.2222      68.100206      292.30948      0.16056238   
   1872000   502.8994       1288.7655      1791.6649      19.881647      288.42837      0.15819775   
   1873000   501.96132      1319.011       1820.9723      39.849042      295.19737      0.15811057   
   1874000   478.51033      1334.6708      1813.1812      117.54566      298.70207      0.15955448   
   1875000   511.90875      1309.9885      1821.8973      152.20946      293.17813      0.16105307   
   1876000   497.31988      1302.0418      1799.3616      211.37685      291.39962      0.16101571   
   1877000   479.05212      1296.2822      1775.3343      218.78832      290.11061      0.1618207    
   1878000   478.3779       1362.4291      1840.807       121.76974      304.91443      0.1610849    
   1879000   489.76834      1356.2217      1845.99        64.196995      303.52519      0.15987319   
   1880000   523.94581      1350.3688      1874.3146      39.294173      302.21531      0.16025654   
   1881000   469.67842      1376.8799      1846.5583      82.879918      308.14854      0.16146187   
   1882000   504.74726      1362.3999      1867.1472      140.44544      304.9079       0.16235049   
   1883000   502.49136      1382.1784      1884.6698      194.1128       309.33437      0.16487729   
   1884000   503.26694      1343.0044      1846.2713      218.44347      300.56714      0.16882723   
   1885000   472.70058      1330.6291      1803.3297      213.02353      297.79753      0.17312335   
   1886000   482.23957      1318.2898      1800.5294      123.344        295.03597      0.17460061   
   1887000   478.50789      1290.593       1769.1009      40.329539      288.83736      0.16928683   
   1888000   478.33117      1339.208       1817.5392     -19.817468      299.7175       0.16058063   
   1889000   494.11406      1352.6511      1846.7652      0.48146035     302.72609      0.1574786    
   1890000   509.30854      1388.1406      1897.4491      45.9707        310.66871      0.15534319   
   1891000   526.25704      1344.8366      1871.0936      59.605524      300.97719      0.15318166   
   1892000   525.73756      1356.4497      1882.1873      46.821848      303.57623      0.15066042   
   1893000   519.74969      1337.941       1857.6907      101.24707      299.43395      0.15067956   
   1894000   533.20041      1321.1945      1854.3949      132.53121      295.68604      0.15217633   
   1895000   529.65916      1337.944       1867.6032      222.6736       299.43462      0.1587671    
   1896000   485.75784      1366.6455      1852.4034      266.32689      305.85808      0.16354393   
   1897000   496.93333      1309.4109      1806.3443      252.532        293.04886      0.16479535   
   1898000   508.10773      1362.6831      1870.7908      199.67463      304.97128      0.16338394   
   1899000   499.78676      1401.2893      1901.0761      134.19846      313.61143      0.16036737   
   1900000   470.90109      1387.0616      1857.9627      101.69837      310.42724      0.15756047   
   1901000   512.958        1357.6557      1870.6137      99.954349      303.84613      0.15558794   
   1902000   536.34766      1342.804       1879.1517      59.600861      300.52229      0.1528262    
   1903000   522.9386       1385.0653      1908.0039      107.57909      309.98047      0.15172703   
   1904000   547.85852      1302.6347      1850.4932      146.82373      291.53231      0.15215209   
   1905000   512.81586      1311.3882      1824.2041      197.01073      293.49137      0.15566641   
   1906000   460.13549      1358.0184      1818.1539      225.60356      303.9273       0.16120623   
   1907000   513.91205      1330.3039      1844.216       185.90838      297.72475      0.16615106   
   1908000   519.41611      1359.3828      1878.7989      144.86994      304.23265      0.16539098   
   1909000   503.72879      1364.7541      1868.4829      90.709164      305.43476      0.16135502   
   1910000   505.63041      1314.4003      1820.0307      96.056379      294.16549      0.15846969   
   1911000   507.49699      1301.1607      1808.6577      49.294621      291.20244      0.15581575   
   1912000   510.01811      1318.7821      1828.8002      91.171885      295.14615      0.15589647   
   1913000   487.58569      1333.4051      1820.9908      100.30845      298.4188       0.15678094   
   1914000   466.79612      1332.3975      1799.1936      131.0272       298.19329      0.16070739   
   1915000   475.32527      1345.5215      1820.8467      88.117631      301.13047      0.16465629   
   1916000   481.86473      1334.4444      1816.3091      77.141754      298.6514       0.16709301   
   1917000   489.29809      1347.0074      1836.3055      69.08362       301.46302      0.16616161   
   1918000   510.51517      1314.4989      1825.0141      89.77289       294.18755      0.15951065   
   1919000   497.66703      1342.3587      1840.0257      103.55331      300.42263      0.15247517   
   1920000   490.27672      1349.3835      1839.6602      165.55811      301.9948       0.15128278   
   1921000   529.80381      1321.426       1851.2298      147.12979      295.73785      0.15191642   
   1922000   521.15691      1319.636       1840.7929      173.58882      295.33725      0.15486601   
   1923000   493.07258      1348.0151      1841.0877      163.62405      301.68855      0.15787444   
   1924000   524.64182      1343.3586      1868.0004      144.39884      300.64641      0.16142832   
   1925000   517.53464      1328.1633      1845.6979      165.15092      297.24567      0.16459789   
   1926000   492.96316      1339.1738      1832.137       210.08129      299.70985      0.16503958   
   1927000   493.03889      1398.3932      1891.4321      194.8397       312.96327      0.16468459   
   1928000   511.97578      1364.859       1876.8348      170.57834      305.45826      0.1629094    
   1929000   516.84277      1362.1471      1878.9899      156.70096      304.85132      0.15915679   
   1930000   501.16672      1356.9939      1858.1606      68.49244       303.69803      0.1524655    
   1931000   550.6416       1354.7493      1905.3909      37.449073      303.19567      0.15066791   
   1932000   527.52599      1327.439       1854.965       52.905358      297.08357      0.15289002   
   1933000   500.61114      1330.8356      1831.4467      95.486999      297.84374      0.15801629   
   1934000   485.22184      1357.2722      1842.494       102.87913      303.7603       0.16207283   
   1935000   486.40808      1332.6837      1819.0918      181.38799      298.25734      0.16376173   
   1936000   490.09821      1330.6125      1820.7108      209.77447      297.79382      0.16375133   
   1937000   489.86136      1340.2957      1830.1571      222.32192      299.96094      0.16280676   
   1938000   468.75091      1343.7805      1812.5314      185.73768      300.74082      0.15979117   
   1939000   511.83488      1326.9383      1838.7732      168.87699      296.97152      0.15649136   
   1940000   524.91944      1311.6581      1836.5775      146.66116      293.55177      0.15349515   
   1941000   496.67951      1305.8441      1802.5236      123.36275      292.25059      0.15104134   
   1942000   504.11424      1340.5163      1844.6305      134.2419       300.01029      0.15216665   
   1943000   498.56574      1353.0524      1851.6181      126.21313      302.8159       0.16203357   
   1944000   493.24129      1335.4128      1828.654       114.48048      298.86811      0.16962103   
   1945000   512.68131      1291.6541      1804.3354      135.33127      289.07484      0.16990628   
   1946000   482.40642      1346.3508      1828.7573      151.41214      301.31608      0.16493726   
   1947000   485.95833      1317.8575      1803.8158      154.25752      294.93922      0.16046369   
   1948000   476.95548      1352.2287      1829.1842      146.88243      302.63155      0.15798751   
   1949000   512.22339      1339.7604      1851.9838      144.54733      299.84112      0.15733095   
   1950000   494.35686      1338.8284      1833.1853      186.4584       299.63255      0.15829076   
   1951000   493.35587      1379.6519      1873.0077      181.52684      308.76892      0.15944942   
   1952000   528.59428      1337.0796      1865.6739      200.08118      299.24116      0.16273822   
   1953000   466.78199      1374.9339      1841.7159      198.21849      307.71303      0.1691457    
   1954000   495.7022       1365.9425      1861.6447      170.25731      305.70073      0.17487871   
   1955000   517.65262      1393.1523      1910.8049      95.084083      311.79034      0.17245741   
   1956000   490.74465      1364.3535      1855.0981      48.880767      305.34511      0.1648896    
   1957000   493.33904      1348.6708      1842.0098      14.696898      301.83529      0.16174951   
   1958000   511.36928      1357.7088      1869.0781      15.683468      303.85802      0.16006421   
   1959000   494.81457      1347.5546      1842.3692      63.765575      301.58549      0.15866875   
   1960000   517.87395      1359.03        1876.9039      69.989422      304.1537       0.1575308    
   1961000   519.40422      1324.2458      1843.65        87.512833      296.36892      0.15816225   
   1962000   502.4477       1321.2095      1823.6572      112.36224      295.68941      0.16153219   
   1963000   478.52329      1353.3943      1831.9176      136.92525      302.89242      0.16726496   
   1964000   477.025        1322.4776      1799.5026      146.85823      295.97319      0.16809093   
   1965000   487.38765      1326.4063      1813.7939      157.8168       296.85244      0.16554509   
   1966000   485.52268      1298.6583      1784.181       185.43996      290.6424       0.15870102   
   1967000   504.28183      1301.0193      1805.3011      186.92351      291.17079      0.15218365   
   1968000   525.47707      1322.0339      1847.5109      156.66459      295.8739       0.14959778   
   1969000   503.3256       1332.3212      1835.6468      114.48062      298.17623      0.15043332   
   1970000   529.1772       1313.8217      1842.9989      94.348276      294.03599      0.15333407   
   1971000   537.34132      1309.8569      1847.1982      55.784227      293.14865      0.15683842   
   1972000   512.06511      1351.1212      1863.1863      101.80268      302.3837       0.16173504   
   1973000   513.27091      1364.414       1877.685       71.987067      305.35866      0.16351882   
   1974000   540.2876       1341.7389      1882.0265      125.05908      300.28392      0.16445727   
   1975000   517.89433      1341.8277      1859.7221      103.38338      300.3038       0.16266212   
   1976000   527.86504      1328.617       1856.482       137.96852      297.34721      0.15969751   
   1977000   504.94154      1324.931       1829.8725      141.36741      296.52228      0.15659771   
   1978000   508.9095       1301.4422      1810.3516      125.99712      291.26542      0.15755151   
   1979000   456.57257      1299.231       1755.8036      210.31803      290.77057      0.16525719   
   1980000   470.90448      1307.6825      1778.587       211.95918      292.66203      0.17343812   
   1981000   478.42084      1329.757       1808.1778      225.31627      297.60234      0.17531623   
   1982000   489.45035      1325.7284      1815.1787      192.23119      296.70073      0.1732577    
   1983000   519.47827      1324.1412      1843.6195      129.6597       296.34552      0.1688442    
   1984000   474.80708      1355.9929      1830.8         132.82589      303.474        0.16516799   
   1985000   475.77875      1343.4923      1819.271       145.06031      300.67633      0.16309029   
   1986000   485.15818      1358.0151      1843.1733      151.53274      303.92657      0.16348438   
   1987000   507.36493      1386.7079      1894.0728      95.59197       310.34808      0.16320245   
   1988000   513.58307      1363.7177      1877.3008      80.908408      305.20283      0.16316758   
   1989000   510.85253      1358.8911      1869.7436      82.494672      304.12262      0.16351693   
   1990000   531.10696      1344.1865      1875.2934      103.2712       300.83169      0.16321991   
   1991000   505.0223       1364.5418      1869.5641      146.57368      305.38725      0.16117345   
   1992000   515.84383      1349.8012      1865.645       123.77047      302.08827      0.15789913   
   1993000   511.95622      1375.3094      1887.2657      119.02317      307.79708      0.1569604    
   1994000   504.80327      1396.7251      1901.5284      147.71204      312.58994      0.15631941   
   1995000   545.16983      1377.9679      1923.1377      124.35839      308.39204      0.1535083    
   1996000   528.53348      1357.1488      1885.6823      118.98993      303.73269      0.150064     
   1997000   529.40782      1350.1541      1879.5619      154.72708      302.16727      0.15180718   
   1998000   507.16136      1372.7508      1879.9121      138.1439       307.22444      0.15679747   
   1999000   488.98547      1397.2409      1886.2264      149.74676      312.70539      0.16059182   
   2000000   506.21286      1339.8529      1846.0657      119.99017      299.86182      0.16070054   
Loop time of 8710.41 on 8 procs for 2000000 steps with 1500 atoms

Performance: 9.919 ns/day, 2.420 hours/ns, 229.610 timesteps/s, 344.415 katom-step/s
99.4% CPU use with 8 MPI tasks x 1 OpenMP threads

MPI task timing breakdown:
Section |  min time  |  avg time  |  max time  |%varavg| %total
---------------------------------------------------------------
Pair    | 362.16     | 369.79     | 378.29     |  32.2 |  4.25
Bond    | 21.129     | 21.744     | 22.263     |   8.4 |  0.25
Kspace  | 3549       | 3559       | 3567.7     |  11.5 | 40.86
Neigh   | 6.065      | 6.0737     | 6.0815     |   0.2 |  0.07
Comm    | 147.16     | 148.1      | 149.56     |   5.9 |  1.70
Output  | 0.58481    | 0.61779    | 0.84726    |  11.0 |  0.01
Modify  | 4400.6     | 4503.3     | 4571.6     |  79.2 | 51.70
Other   |            | 101.9      |            |       |  1.17

Nlocal:          187.5 ave         214 max         160 min
Histogram: 1 0 2 0 1 1 1 0 1 1
Nghost:        1609.25 ave        1678 max        1562 min
Histogram: 4 0 0 0 0 1 0 1 1 1
Neighs:        13901.9 ave       17643 max        9843 min
Histogram: 1 0 1 1 1 1 1 0 1 1

Total # of neighbors = 111215
Ave neighs/atom = 74.143333
Ave special neighs/atom = 2
Neighbor list builds = 12434
Dangerous builds = 0
System init for write_data ...
PPPM initialization ...
  using 12-bit tables for long-range coulomb (src/kspace.cpp:342)
  G vector (1/distance) = 0.26800047
  grid = 48 48 48
  stencil order = 5
  estimated absolute RMS force accuracy = 0.00041257885
  estimated relative force accuracy = 1.242469e-06
  using single precision FFTW3
  3d grid and FFT values/proc = 29791 13824
Generated 1 of 1 mixed pair_coeff terms from arithmetic mixing rule
Last active /omp style is kspace_style pppm/omp
