LAMMPS (19 Nov 2024)
OMP_NUM_THREADS environment is not set. Defaulting to 1 thread. (src/comm.cpp:99)
  using 1 OpenMP thread(s) per MPI task
using multi-threaded neighbor list subroutines
Reading data file ...
  orthogonal box = (0 0 0) to (59.209276 59.209276 59.209276)
  2 by 2 by 2 MPI processor grid
  reading atoms ...
  1500 atoms
  scanning bonds ...
  1 = max bonds/atom
  scanning angles ...
  1 = max angles/atom
  orthogonal box = (0 0 0) to (59.209276 59.209276 59.209276)
  2 by 2 by 2 MPI processor grid
  reading bonds ...
  1000 bonds
  reading angles ...
  500 angles
Finding 1-2 1-3 1-4 neighbors ...
  special bond factors lj:    0        0        0       
  special bond factors coul:  0        0        0       
     2 = max # of 1-2 neighbors
     1 = max # of 1-3 neighbors
     1 = max # of 1-4 neighbors
     2 = max # of special neighbors
  special bonds CPU = 0.000 seconds
  read_data CPU = 0.047 seconds
Setting atom values ...
  1000 settings made for charge
Setting atom values ...
  500 settings made for charge
1000 atoms in group oxy
500 atoms in group carb
PPPM initialization ...
  using 12-bit tables for long-range coulomb (src/kspace.cpp:342)
  G vector (1/distance) = 0.2674831
  grid = 54 54 54
  stencil order = 5
  estimated absolute RMS force accuracy = 0.00035249099
  estimated relative force accuracy = 1.0615162e-06
  using single precision FFTW3
  3d grid and FFT values/proc = 39304 20412
Generated 1 of 1 mixed pair_coeff terms from arithmetic mixing rule
Last active /omp style is kspace_style pppm/omp
Neighbor list info ...
  update: every = 1 steps, delay = 0 steps, check = yes
  max neighbors/atom: 2000, page size: 100000
  master list distance cutoff = 15
  ghost atom cutoff = 15
  binsize = 7.5, bins = 8 8 8
  1 neighbor lists, perpetual/occasional/extra = 1 0 0
  (1) pair lj/cut/coul/long/omp, perpetual
      attributes: half, newton on, omp
      pair build: half/bin/newton/omp
      stencil: half/bin/3d
      bin: standard
Setting up cg style minimization ...
  Unit style    : real
  Current step  : 0
Per MPI rank memory allocation (min/avg/max) = 10.15 | 10.18 | 10.21 Mbytes
   Step          Temp          E_pair         E_mol          TotEng         Press     
         0   0              34.979643      1.5011389e-05  34.979658      201.8998     
      9001   0             -446.42401      0.28198438    -446.14202     -7.5204247    
Loop time of 58.0811 on 8 procs for 9001 steps with 1500 atoms

98.0% CPU use with 8 MPI tasks x 1 OpenMP threads

Minimization stats:
  Stopping criterion = energy tolerance
  Energy initial, next-to-last, final = 
      34.9796578527134  -446.141625182132  -446.142021016548
  Force two-norm initial, final = 105.44903 0.86174328
  Force max component initial, final = 14.368914 0.14508165
  Final line search alpha, max atom move = 0.36464478 0.052903265
  Iterations, force evaluations = 9001 18000

MPI task timing breakdown:
Section |  min time  |  avg time  |  max time  |%varavg| %total
---------------------------------------------------------------
Pair    | 2.928      | 4.9795     | 7.4269     |  64.4 |  8.57
Bond    | 0.14393    | 0.1697     | 0.20188    |   5.3 |  0.29
Kspace  | 48.783     | 51.253     | 53.326     |  20.3 | 88.24
Neigh   | 0.01562    | 0.015719   | 0.015801   |   0.1 |  0.03
Comm    | 1.1886     | 1.2053     | 1.2233     |   1.0 |  2.08
Output  | 0          | 0          | 0          |   0.0 |  0.00
Modify  | 0.05023    | 0.051587   | 0.053334   |   0.4 |  0.09
Other   |            | 0.406      |            |       |  0.70

Nlocal:          187.5 ave         280 max         127 min
Histogram: 2 1 1 1 0 0 1 0 1 1
Nghost:           1354 ave        1416 max        1262 min
Histogram: 1 1 0 0 1 0 1 1 1 2
Neighs:          12353 ave       22189 max        5873 min
Histogram: 3 0 0 1 1 1 0 1 0 1

Total # of neighbors = 98824
Ave neighs/atom = 65.882667
Ave special neighs/atom = 2
Neighbor list builds = 34
Dangerous builds = 0
PPPM initialization ...
  using 12-bit tables for long-range coulomb (src/kspace.cpp:342)
  G vector (1/distance) = 0.2674831
  grid = 54 54 54
  stencil order = 5
  estimated absolute RMS force accuracy = 0.00035249099
  estimated relative force accuracy = 1.0615162e-06
  using single precision FFTW3
  3d grid and FFT values/proc = 39304 20412
Generated 1 of 1 mixed pair_coeff terms from arithmetic mixing rule
Last active /omp style is kspace_style pppm/omp
Setting up Verlet run ...
  Unit style    : real
  Current step  : 9001
  Time step     : 0.1
Per MPI rank memory allocation (min/avg/max) = 9.037 | 9.062 | 9.09 Mbytes
   Step         PotEng         KinEng         TotEng         Press           Temp        v_Density   
      9001  -446.14202      1340.4703      894.32826      287.68259      300            0.11165098   
     10000   298.60161      1171.7138      1470.3154      148.79877      262.23196      0.09258715   
     11000   142.28494      1405.1506      1547.4355      131.21741      314.47559      0.081371105  
     12000   246.05502      1322.5899      1568.6449      91.311555      295.99833      0.078797763  
     13000   255.08353      1322.9987      1578.0822      84.407755      296.08982      0.080560996  
     14000   210.40524      1383.9753      1594.3806      103.40484      309.73652      0.086555949  
     15000   286.2877       1291.6401      1577.9278      66.196983      289.07169      0.090833793  
     16000   254.76768      1444.0676      1698.8353      122.92934      323.18529      0.09515157   
     17000   320.42799      1301.5824      1622.0104      64.634083      291.29681      0.09694527   
     18000   251.17155      1383.2628      1634.4344      125.97473      309.57706      0.10032972   
     19000   306.49726      1320.5108      1627.0081      76.003733      295.53304      0.10116966   
     20000   278.47463      1359.6943      1638.1689      111.71431      304.30236      0.10325144   
     21000   321.84498      1360.6629      1682.5079      93.030654      304.51915      0.1011504    
     22000   335.49632      1365.4161      1700.9124      87.448201      305.58293      0.094938343  
     23000   353.1108       1384.4952      1737.606       109.32905      309.85288      0.093010841  
     24000   343.60208      1321.326       1664.9281      105.88478      295.71547      0.10006082   
     25000   310.39868      1309.9289      1620.3275      91.814652      293.16477      0.10110692   
     26000   345.92185      1318.6816      1664.6034      95.988776      295.12364      0.098575368  
     27000   315.14129      1276.7292      1591.8705      116.11913      285.73462      0.094638376  
     28000   364.36161      1317.4645      1681.8261      101.10972      294.85127      0.092437417  
     29000   341.12307      1307.784       1648.907       84.213493      292.68474      0.097198356  
     30000   373.57337      1300.3355      1673.9088      76.790843      291.01775      0.098808669  
     31000   371.874        1367.3996      1739.2736      129.30645      306.02684      0.095603205  
     32000   376.36705      1395.9495      1772.3165      106.3908       312.41636      0.091594591  
     33000   352.49581      1357.2829      1709.7788      56.191192      303.76271      0.095316614  
     34000   345.42947      1354.6382      1700.0676      97.863884      303.1708       0.10035588   
     35000   350.23289      1402.327       1752.5599      139.67881      313.84366      0.099772945  
     36000   358.03326      1340.2792      1698.3125      96.909026      299.95724      0.094677425  
     37000   348.21841      1342.0788      1690.2973      79.844371      300.36         0.092770855  
     38000   359.05731      1310.8996      1669.9569      109.04075      293.38203      0.095589268  
     39000   363.05835      1325.3895      1688.4479      102.97796      296.62489      0.090969177  
     40000   368.58622      1306.0629      1674.6491      83.110762      292.29956      0.090806282  
     41000   355.48569      1326.5409      1682.0265      78.392368      296.88257      0.096713993  
     42000   369.71543      1339.4429      1709.1583      123.08048      299.77007      0.097941255  
     43000   368.22926      1379.6354      1747.8646      105.84618      308.76523      0.094956863  
     44000   362.56555      1362.5317      1725.0972      81.793295      304.93738      0.096540162  
     45000   373.01653      1366.9699      1739.9864      102.07723      305.93066      0.10044711   
     46000   355.39486      1361.0739      1716.4688      100.09883      304.61114      0.10128192   
     47000   367.11922      1370.5267      1737.646       89.981919      306.7267       0.094659862  
     48000   373.4878       1340.8107      1714.2985      96.750373      300.07618      0.090815187  
     49000   384.08081      1307.4869      1691.5677      96.634662      292.61826      0.093226258  
     50000   360.03934      1321.7708      1681.8101      82.976037      295.81502      0.090762429  
     51000   355.51005      1274.0163      1629.5263      115.1988       285.12746      0.09106387   
     52000   366.61983      1332.6412      1699.2611      105.23756      298.24785      0.093381952  
     53000   355.25817      1332.6148      1687.873       82.2836        298.24193      0.097390725  
     54000   345.42358      1269.0409      1614.4645      74.90764       284.01396      0.094196302  
     55000   368.22933      1325.3586      1693.588       133.70826      296.61798      0.089439244  
     56000   370.19366      1306.6531      1676.8468      112.73107      292.43165      0.091272393  
     57000   366.22651      1294.0569      1660.2834      63.949254      289.61259      0.096609999  
     58000   375.75219      1318.1209      1693.8731      101.34285      294.99816      0.092590427  
     59000   371.46892      1307.4299      1678.8989      128.82864      292.6055       0.085493921  
     59001   373.92236      1304.815       1678.7374      127.96893      292.02028      0.085492526  
Loop time of 344.121 on 8 procs for 50000 steps with 1500 atoms

Performance: 1.255 ns/day, 19.118 hours/ns, 145.298 timesteps/s, 217.946 katom-step/s
98.0% CPU use with 8 MPI tasks x 1 OpenMP threads

MPI task timing breakdown:
Section |  min time  |  avg time  |  max time  |%varavg| %total
---------------------------------------------------------------
Pair    | 5.8332     | 7.2388     | 9.0566     |  42.4 |  2.10
Bond    | 0.52963    | 0.57826    | 0.66645    |   6.2 |  0.17
Kspace  | 154.53     | 156.42     | 157.93     |   9.6 | 45.46
Neigh   | 0.0455     | 0.045721   | 0.046018   |   0.1 |  0.01
Comm    | 3.4651     | 3.4992     | 3.5397     |   1.2 |  1.02
Output  | 0.0044663  | 0.0046283  | 0.0056411  |   0.6 |  0.00
Modify  | 158.34     | 166.64     | 174.55     |  50.7 | 48.42
Other   |            | 9.693      |            |       |  2.82

Nlocal:          187.5 ave         238 max         135 min
Histogram: 1 0 0 3 0 2 0 0 0 2
Nghost:        1162.25 ave        1199 max        1081 min
Histogram: 1 0 0 0 0 1 1 1 2 2
Neighs:         7564.5 ave       11208 max        4527 min
Histogram: 1 0 1 2 1 1 0 1 0 1

Total # of neighbors = 60516
Ave neighs/atom = 40.344
Ave special neighs/atom = 2
Neighbor list builds = 103
Dangerous builds = 0
PPPM initialization ...
  using 12-bit tables for long-range coulomb (src/kspace.cpp:342)
  G vector (1/distance) = 0.26878073
  grid = 60 60 60
  stencil order = 5
  estimated absolute RMS force accuracy = 0.00028395052
  estimated relative force accuracy = 8.5510855e-07
  using single precision FFTW3
  3d grid and FFT values/proc = 50653 27000
Generated 1 of 1 mixed pair_coeff terms from arithmetic mixing rule
Last active /omp style is kspace_style pppm/omp
Setting up Verlet run ...
  Unit style    : real
  Current step  : 59001
  Time step     : 0.25
Per MPI rank memory allocation (min/avg/max) = 9.747 | 9.759 | 9.762 Mbytes
   Step         PotEng         KinEng         TotEng         Press           Temp        v_Density   
     59001   373.92259      1304.815       1678.7376      127.9682       292.02028      0.085492526  
     60000   400.00103      1393.9178      1793.9188      119.03127      311.96167      0.096355156  
     61000   385.5454       1370.9218      1756.4672      88.298284      306.81512      0.099589954  
     62000   386.30038      1295.3854      1681.6858      61.092413      289.90991      0.092389543  
     63000   384.88624      1381.1004      1765.9866      67.965554      309.0931       0.10056593   
     64000   381.90617      1363.6725      1745.5786      93.106611      305.1927       0.096400676  
     65000   397.0899       1349.9461      1747.036       148.40334      302.1207       0.092400365  
     66000   371.12966      1348.1809      1719.3106      157.95625      301.72565      0.094185695  
     67000   383.66938      1328.9812      1712.6506      107.2728       297.42873      0.091275059  
     68000   381.90766      1300.7013      1682.6089      62.86763       291.09962      0.096317557  
     69000   390.27809      1317.716       1707.9941      61.155944      294.90755      0.096639819  
     70000   379.87379      1312.2204      1692.0942      64.861873      293.67762      0.0932956    
     71000   368.43013      1332.0315      1700.4616      149.85811      298.11138      0.10042646   
     72000   404.36872      1328.0403      1732.4091      137.72626      297.21816      0.094262728  
     73000   397.90518      1372.2697      1770.1749      112.28241      307.11679      0.099074464  
     74000   388.96957      1361.0594      1750.029       97.402433      304.60789      0.095919619  
     75000   389.04196      1389.0173      1778.0592      72.082238      310.86492      0.093700572  
     76000   393.91763      1318.4196      1712.3372      78.563952      295.06502      0.093555349  
     77000   390.10507      1326.2662      1716.3713      91.607215      296.8211       0.090748427  
     78000   401.97284      1314.7114      1716.6842      103.57833      294.2351       0.093678068  
     79000   399.16129      1364.273       1763.4343      128.45122      305.32711      0.092838478  
     80000   389.82632      1297.2072      1687.0335      109.15962      290.31764      0.092625708  
     81000   361.2305       1300.5706      1661.8011      98.158345      291.07036      0.096752229  
     82000   397.48588      1301.0143      1698.5001      61.723198      291.16966      0.091954029  
     83000   401.76503      1325.9045      1727.6695      70.578662      296.74014      0.094474208  
     84000   411.44505      1386.1135      1797.5586      94.675661      310.21506      0.097399574  
     85000   408.21481      1406.9445      1815.1593      117.43143      314.87707      0.091057646  
     86000   397.04322      1408.0855      1805.1287      125.17499      315.13242      0.095764736  
     87000   384.42344      1342.0245      1726.448       115.84868      300.34784      0.090323382  
     88000   395.2651       1338.8166      1734.0817      97.595413      299.62989      0.096156581  
     89000   390.61866      1306.9835      1697.6021      90.734611      292.50558      0.09714513   
     90000   394.61821      1327.8792      1722.4974      82.802884      297.18209      0.097640855  
     91000   392.01305      1346.1988      1738.2118      99.67298       301.28204      0.090381121  
     92000   381.10374      1299.723       1680.8267      117.3938       290.88067      0.099042561  
     93000   395.18159      1355.1168      1750.2984      107.38978      303.27792      0.089477392  
     94000   373.13448      1358.655       1731.7894      96.296355      304.06977      0.093244849  
     95000   360.10686      1361.9214      1722.0282      105.59188      304.8008       0.095119416  
     96000   374.03434      1356.3139      1730.3483      100.04986      303.54584      0.092757892  
     97000   393.77809      1319.9721      1713.7502      82.482609      295.41247      0.089638759  
     98000   383.34176      1376.8439      1760.1857      84.302542      308.14049      0.092422871  
     99000   392.31921      1367.0082      1759.3274      81.318919      305.93924      0.09397127   
    100000   396.67014      1285.7107      1682.3808      94.60556       287.74469      0.095402423  
    101000   399.99313      1326.5429      1726.536       100.173        296.88302      0.090388939  
    102000   386.36074      1318.2084      1704.5692      125.67089      295.01775      0.094626761  
    103000   409.6424       1351.1043      1760.7467      114.07043      302.37992      0.091154     
    104000   396.93018      1362.1338      1759.064       75.209356      304.84834      0.095726533  
    105000   398.61782      1300.6375      1699.2553      69.317904      291.08534      0.09257194   
    106000   403.18481      1326.2918      1729.4766      42.632356      296.82683      0.09091069   
    107000   405.24772      1291.8482      1697.0959      76.309793      289.11828      0.096492517  
    108000   410.59558      1294.1228      1704.7183      129.37004      289.62733      0.094465891  
    109000   404.71524      1292.7463      1697.4615      174.08316      289.31927      0.096637316  
    109001   395.96843      1299.8242      1695.7927      175.92646      290.90333      0.096625477  
Loop time of 432.253 on 8 procs for 50000 steps with 1500 atoms

Performance: 2.499 ns/day, 9.606 hours/ns, 115.673 timesteps/s, 173.509 katom-step/s
98.1% CPU use with 8 MPI tasks x 1 OpenMP threads

MPI task timing breakdown:
Section |  min time  |  avg time  |  max time  |%varavg| %total
---------------------------------------------------------------
Pair    | 6.1044     | 6.6936     | 7.408      |  19.4 |  1.55
Bond    | 0.53801    | 0.58137    | 0.63209    |   4.7 |  0.13
Kspace  | 186.34     | 187.1      | 187.73     |   3.9 | 43.28
Neigh   | 0.081149   | 0.081409   | 0.081635   |   0.1 |  0.02
Comm    | 3.5457     | 3.5701     | 3.605      |   1.0 |  0.83
Output  | 0.0040351  | 0.004227   | 0.0053544  |   0.7 |  0.00
Modify  | 224.73     | 228.71     | 231.75     |  16.2 | 52.91
Other   |            | 5.517      |            |       |  1.28

Nlocal:          187.5 ave         233 max         156 min
Histogram: 2 1 0 3 0 0 0 0 1 1
Nghost:        1242.25 ave        1263 max        1201 min
Histogram: 1 0 1 0 0 0 1 0 3 2
Neighs:         8398.5 ave       11693 max        5928 min
Histogram: 2 1 0 1 2 0 0 0 0 2

Total # of neighbors = 67188
Ave neighs/atom = 44.792
Ave special neighs/atom = 2
Neighbor list builds = 207
Dangerous builds = 0
PPPM initialization ...
  using 12-bit tables for long-range coulomb (src/kspace.cpp:342)
  G vector (1/distance) = 0.26496307
  grid = 54 54 54
  stencil order = 5
  estimated absolute RMS force accuracy = 0.00040330448
  estimated relative force accuracy = 1.2145395e-06
  using single precision FFTW3
  3d grid and FFT values/proc = 39304 20412
Generated 1 of 1 mixed pair_coeff terms from arithmetic mixing rule
Last active /omp style is kspace_style pppm/omp
Setting up Verlet run ...
  Unit style    : real
  Current step  : 109001
  Time step     : 0.5
Per MPI rank memory allocation (min/avg/max) = 9.037 | 9.062 | 9.09 Mbytes
   Step         PotEng         KinEng         TotEng         Press           Temp        v_Density   
    109001   395.97045      1299.8242      1695.7947      175.92829      290.90333      0.096625477  
    110000   481.8888       1366.2523      1848.1411      52.409325      305.77006      0.10460237   
    111000   449.32515      1314.2788      1763.6039      93.329114      294.13829      0.10579374   
    112000   485.11276      1355.2304      1840.3432      133.28643      303.30334      0.10094827   
    113000   461.27998      1300.0316      1761.3116      72.014352      290.94975      0.11798965   
    114000   487.15849      1353.4555      1840.614       65.496064      302.90611      0.10884795   
    115000   478.99025      1306.8552      1785.8455      134.81854      292.47689      0.10810859   
    116000   457.59036      1341.4923      1799.0827      116.37526      300.22874      0.11017312   
    117000   457.87111      1337.5977      1795.4688      98.946288      299.35711      0.11432294   
    118000   455.20247      1362.0813      1817.2837      147.76681      304.83659      0.11741673   
    119000   490.16621      1335.8528      1826.019       92.276762      298.96661      0.10915218   
    120000   454.84294      1339.772       1794.6149      103.71034      299.84372      0.11324741   
    121000   462.82552      1370.194       1833.0196      111.45424      306.65224      0.10526698   
    122000   471.10832      1330.3062      1801.4145      101.65794      297.72526      0.11301713   
    123000   492.27554      1369.8595      1862.135       99.407853      306.57736      0.10438162   
    124000   454.86328      1293.9549      1748.8181      63.471107      289.58975      0.10878801   
    125000   473.95513      1330.3394      1804.2946      120.91563      297.73269      0.11108889   
    126000   455.07159      1329.756       1784.8276      124.64587      297.60213      0.1103203    
    127000   459.42796      1328.1452      1787.5732      40.905448      297.24163      0.11368824   
    128000   474.40425      1388.6528      1863.057       104.32323      310.78334      0.10651956   
    129000   470.05759      1301.5143      1771.5719      167.05582      291.28156      0.10772472   
    130000   448.49074      1388.7333      1837.224       81.235242      310.80136      0.11002641   
    131000   480.72869      1364.0996      1844.8283      53.892692      305.28829      0.10614362   
    132000   469.81056      1344.1765      1813.9871      161.27969      300.82946      0.1085317    
    133000   483.07378      1284.0474      1767.1212      47.272351      287.37245      0.10918783   
    134000   478.70495      1384.4739      1863.1789      81.155282      309.84811      0.11347557   
    135000   482.50714      1355.9152      1838.4223      188.33609      303.4566       0.10783923   
    136000   493.26513      1375.2869      1868.552       53.828043      307.79202      0.10716598   
    137000   449.34153      1323.6036      1772.9452      96.284268      296.22521      0.11206851   
    138000   467.64708      1347.7202      1815.3673      126.69853      301.62254      0.11163598   
    139000   481.55671      1366.4445      1848.0012      111.98103      305.81309      0.11687643   
    140000   463.20643      1286.6307      1749.8372      73.068665      287.9506       0.11418662   
    141000   482.52272      1326.7789      1809.3016      110.80329      296.93583      0.11648036   
    142000   473.98638      1321.014       1795.0004      66.244005      295.64565      0.10997986   
    143000   497.34938      1325.7095      1823.0589      84.480421      296.69651      0.1185739    
    144000   459.84332      1321.1266      1780.9699      127.12188      295.67084      0.11341148   
    145000   469.42497      1346.3915      1815.8164      77.169804      301.32517      0.11395004   
    146000   468.22077      1349.044       1817.2647      108.5993       301.91881      0.11235155   
    147000   468.36086      1445.5523      1913.9131      147.43906      323.51756      0.11927326   
    148000   491.64024      1373.7881      1865.4284      81.506756      307.45661      0.10888315   
    149000   480.43447      1369.5038      1849.9383      106.93738      306.49777      0.11207305   
    150000   500.01618      1341.4725      1841.4887      69.656737      300.2243       0.11736475   
    151000   487.08252      1358.4904      1845.5729      117.06759      304.03294      0.11781074   
    152000   469.43482      1322.0414      1791.4762      122.27866      295.87558      0.11564271   
    153000   484.33806      1328.1155      1812.4535      81.194692      297.23497      0.11618719   
    154000   483.87262      1378.7094      1862.582       124.51425      308.55799      0.11334889   
    155000   491.77407      1371.5003      1863.2744      65.437033      306.94459      0.11342421   
    156000   431.26803      1346.5269      1777.795       112.7451       301.35549      0.11456865   
    157000   466.08704      1303.9783      1770.0653      124.00707      291.83302      0.10669965   
    158000   464.53593      1301.648       1766.184       50.082855      291.3115       0.11525405   
    159000   470.36347      1328.9413      1799.3048      129.49663      297.41979      0.10223069   
    159001   497.74001      1317.8881      1815.6281      129.48273      294.94606      0.10229402   
Loop time of 341.85 on 8 procs for 50000 steps with 1500 atoms

Performance: 6.319 ns/day, 3.798 hours/ns, 146.263 timesteps/s, 219.395 katom-step/s
98.4% CPU use with 8 MPI tasks x 1 OpenMP threads

MPI task timing breakdown:
Section |  min time  |  avg time  |  max time  |%varavg| %total
---------------------------------------------------------------
Pair    | 7.2226     | 7.5591     | 7.7646     |   6.7 |  2.21
Bond    | 0.56203    | 0.57762    | 0.60462    |   1.7 |  0.17
Kspace  | 154.38     | 154.63     | 155        |   1.8 | 45.23
Neigh   | 0.18572    | 0.18645    | 0.18684    |   0.1 |  0.05
Comm    | 3.7537     | 3.7898     | 3.8217     |   1.2 |  1.11
Output  | 0.0034061  | 0.0036332  | 0.005089   |   0.9 |  0.00
Modify  | 157.41     | 166.11     | 174.21     |  51.6 | 48.59
Other   |            | 9          |            |       |  2.63

Nlocal:          187.5 ave         207 max         150 min
Histogram: 1 0 0 0 0 3 0 1 1 2
Nghost:           1266 ave        1305 max        1239 min
Histogram: 1 0 1 3 1 1 0 0 0 1
Neighs:        8617.25 ave       11196 max        5550 min
Histogram: 1 0 0 2 0 1 1 2 0 1

Total # of neighbors = 68938
Ave neighs/atom = 45.958667
Ave special neighs/atom = 2
Neighbor list builds = 416
Dangerous builds = 0
PPPM initialization ...
  using 12-bit tables for long-range coulomb (src/kspace.cpp:342)
  G vector (1/distance) = 0.26598202
  grid = 54 54 54
  stencil order = 5
  estimated absolute RMS force accuracy = 0.00038217101
  estimated relative force accuracy = 1.1508966e-06
  using single precision FFTW3
  3d grid and FFT values/proc = 39304 20412
Generated 1 of 1 mixed pair_coeff terms from arithmetic mixing rule
Last active /omp style is kspace_style pppm/omp
Setting up Verlet run ...
  Unit style    : real
  Current step  : 0
  Time step     : 0.5
Per MPI rank memory allocation (min/avg/max) = 9.037 | 9.065 | 9.092 Mbytes
   Step         PotEng         KinEng         TotEng         Press           Temp        v_Density   
         0   497.73937      1317.8881      1815.6275      129.48204      294.94606      0.10229402   
      1000   472.25313      1314.0785      1786.3316      121.31816      294.09346      0.10419663   
      2000   478.99031      1323.8341      1802.8244      83.671139      296.27679      0.10715856   
      3000   501.35502      1314.1519      1815.5069      69.026499      294.10988      0.11009819   
      4000   480.64795      1337.6955      1818.3435      65.704461      299.37901      0.11087231   
      5000   461.87572      1346.8863      1808.762       121.70192      301.43592      0.11086454   
      6000   483.31915      1351.6307      1834.9498      145.52173      302.49772      0.10950741   
      7000   493.51981      1351.1412      1844.661       194.47731      302.38818      0.10848766   
      8000   477.74762      1354.6878      1832.4354      187.02205      303.1819       0.10846622   
      9000   482.4076       1317.9551      1800.3627      139.33268      294.96106      0.10911015   
     10000   473.56503      1304.4293      1777.9943      106.55439      291.93395      0.11059545   
     11000   435.79126      1299.4332      1735.2245      50.132297      290.81582      0.11245676   
     12000   463.00743      1302.4314      1765.4388      50.097448      291.48682      0.1180224    
     13000   455.88943      1330.6433      1786.5327      64.049863      297.8007       0.12179948   
     14000   483.27814      1339.4434      1822.7216      74.355673      299.77019      0.11979522   
     15000   483.9437       1327.8357      1811.7794      90.588047      297.17235      0.1148203    
     16000   473.41783      1377.3618      1850.7797      137.03699      308.25641      0.11156359   
     17000   479.22914      1398.5306      1877.7597      158.37965      312.99402      0.10878951   
     18000   506.01295      1377.0702      1883.0831      177.75803      308.19114      0.10757949   
     19000   498.52329      1347.7262      1846.2495      151.81937      301.62389      0.10706269   
     20000   508.80354      1334.1298      1842.9334      121.49255      298.581        0.10744627   
     21000   491.63136      1372.4176      1864.0489      75.645427      307.14987      0.10810689   
     22000   505.67463      1328.6051      1834.2797      42.076938      297.34454      0.10997194   
     23000   453.10606      1331.6463      1784.7524      50.093361      298.02518      0.11478518   
     24000   467.48335      1314.9678      1782.4511      90.172362      294.29249      0.11887407   
     25000   434.82462      1330.7346      1765.5592      134.29697      297.82113      0.11986798   
     26000   445.37306      1293.4252      1738.7983      158.83509      289.47121      0.11787706   
     27000   467.79514      1263.9661      1731.7613      127.49056      282.87822      0.11332097   
     28000   482.03655      1344.4334      1826.47        132.47312      300.88696      0.11007541   
     29000   480.71102      1383.658       1864.369       135.94525      309.6655       0.10838524   
     30000   494.29629      1348.2275      1842.5238      113.53175      301.73609      0.10811388   
     31000   471.80295      1371.2569      1843.0599      76.820009      306.89011      0.10857831   
     32000   481.39486      1346.3918      1827.7867      46.3506        301.32526      0.11120331   
     33000   469.98003      1376.7023      1846.6823      30.693076      308.10879      0.11456656   
     34000   491.11019      1350.4159      1841.5261      36.334082      302.22586      0.11708753   
     35000   481.21503      1356.6828      1837.8978      53.855105      303.6284       0.11703055   
     36000   466.36153      1416.5223      1882.8838      99.20195       317.02059      0.11553647   
     37000   482.62529      1371.7185      1854.3437      114.20642      306.99341      0.1097152    
     38000   474.87195      1364.9116      1839.7835      117.13019      305.47001      0.10645644   
     39000   493.46811      1362.2241      1855.6922      92.054119      304.86854      0.10827049   
     40000   466.55132      1379.8566      1846.4079      70.234584      308.81473      0.1111827    
     41000   475.06574      1338.9827      1814.0484      40.837848      299.66707      0.11191294   
     42000   476.17689      1329.6498      1805.8267      51.047812      297.57835      0.11208853   
     43000   457.33582      1315.7953      1773.1311      85.039668      294.47769      0.1134153    
     44000   462.24613      1312.0013      1774.2475      136.65833      293.62859      0.11520108   
     45000   466.98946      1301.7254      1768.7148      163.30487      291.32881      0.11513353   
     46000   472.56276      1289.3562      1761.919       144.74238      288.56056      0.11409935   
     47000   508.13616      1347.9876      1856.1237      127.06912      301.68238      0.11323217   
     48000   456.14855      1358.5445      1814.6931      112.9083       304.04505      0.11272346   
     49000   472.03489      1353.5156      1825.5505      106.76102      302.91957      0.11318118   
     50000   477.13897      1322.8054      1799.9443      113.08709      296.04656      0.11403011   
     51000   446.38526      1333.9876      1780.3729      129.56354      298.54917      0.11679787   
     52000   458.07714      1360.5258      1818.6029      164.43137      304.48847      0.12145849   
     53000   469.63726      1404.6184      1874.2557      173.49304      314.35649      0.12422186   
     54000   484.00687      1380.3119      1864.3188      160.65721      308.91665      0.12486744   
     55000   484.55093      1330.713       1815.264       111.12507      297.81631      0.12254571   
     56000   474.46255      1319.2227      1793.6853      77.265421      295.24475      0.11629927   
     57000   447.47967      1348.4588      1795.9385      79.260962      301.78785      0.11205227   
     58000   424.43403      1305.828       1730.262       67.855635      292.24698      0.1119576    
     59000   460.64523      1311.738       1772.3833      57.565204      293.56966      0.11363216   
     60000   471.80315      1335.7585      1807.5616      91.109587      298.94549      0.11441659   
     61000   501.9796       1301.5041      1803.4837      108.21187      291.27929      0.11189651   
     62000   474.6343       1301.5382      1776.1725      96.878183      291.28692      0.1090748    
     63000   485.80099      1341.6449      1827.4459      79.748286      300.26288      0.10881877   
     64000   461.94119      1361.5612      1823.5023      93.558644      304.72018      0.11058892   
     65000   452.08259      1396.7049      1848.7875      116.58885      312.58542      0.11349297   
     66000   459.06341      1362.1364      1821.1998      182.22896      304.84893      0.11667551   
     67000   445.28162      1408.5153      1853.7969      202.53751      315.22861      0.11971023   
     68000   474.68748      1367.6093      1842.2968      217.65496      306.07377      0.12058368   
     69000   482.97934      1348.1012      1831.0805      166.58318      301.70782      0.11572647   
     70000   467.80441      1362.0634      1829.8678      110.86674      304.83257      0.10996887   
     71000   466.61808      1332.981       1799.5991      64.025513      298.32389      0.10848863   
     72000   492.28529      1309.372       1801.6573      39.309094      293.04014      0.1087965    
     73000   484.96437      1306.0207      1790.9851      60.274995      292.29011      0.10906059   
     74000   459.17803      1357.1065      1816.2845      113.84248      303.72322      0.11031223   
     75000   475.10394      1348.9304      1824.0344      131.17058      301.8934       0.11150965   
     76000   468.7655       1343.2839      1812.0494      119.98463      300.62969      0.11133229   
     77000   470.73012      1368.4491      1839.1793      107.23769      306.26173      0.11144438   
     78000   483.8384       1348.198       1832.0364      111.57413      301.72948      0.11183744   
     79000   457.31108      1297.417       1754.7281      119.47357      290.3646       0.10978235   
     80000   496.19495      1285.9587      1782.1537      95.509513      287.8002       0.10828248   
     81000   494.49972      1316.1791      1810.6788      98.034901      294.56358      0.10848325   
     82000   480.12994      1317.1234      1797.2533      55.514215      294.77492      0.10983832   
     83000   456.35444      1279.1764      1735.5309      37.514533      286.28231      0.11359907   
     84000   472.1742       1277.2392      1749.4134      37.680792      285.84876      0.11758098   
     85000   480.19687      1316.1068      1796.3037      58.494709      294.5474       0.11898282   
     86000   482.71707      1344.748       1827.4651      66.292678      300.95737      0.11595643   
     87000   489.32427      1373.8429      1863.1672      100.80202      307.46887      0.1129077    
     88000   485.46558      1394.2685      1879.7341      112.89383      312.04016      0.11097781   
     89000   471.62449      1381.7825      1853.407       137.35467      309.24576      0.10956252   
     90000   470.84981      1371.9808      1842.8306      147.87177      307.05212      0.10991675   
     91000   470.50853      1361.76        1832.2686      130.2089       304.76469      0.11177782   
     92000   492.5221       1365.3575      1857.8796      94.280996      305.56981      0.11365361   
     93000   474.84739      1382.8683      1857.7157      75.4           309.48877      0.11329426   
     94000   485.0279       1381.1693      1866.1972      52.224265      309.10853      0.11044443   
     95000   498.36706      1347.3128      1845.6799      43.988243      301.53137      0.10694583   
     96000   464.32324      1347.5905      1811.9137      91.019381      301.59352      0.10535429   
     97000   483.56952      1334.9651      1818.5346      127.23644      298.76793      0.10588446   
     98000   488.71093      1290.7733      1779.4843      133.47989      288.87772      0.10638606   
     99000   487.62115      1308.3009      1795.9221      136.31414      292.80043      0.10921961   
    100000   436.85474      1327.3097      1764.1644      115.31324      297.05463      0.11227546   
    101000   468.57614      1320.5558      1789.132       93.975656      295.54311      0.11581053   
    102000   490.07047      1310.6883      1800.7588      55.723456      293.33473      0.11643791   
    103000   470.06432      1325.8548      1795.9191      53.685843      296.72903      0.1144641    
    104000   503.10906      1346.4282      1849.5372      63.110293      301.33339      0.11008934   
    105000   499.33349      1330.1997      1829.5331      92.342665      297.70141      0.10676237   
    106000   467.90669      1357.7581      1825.6648      129.93099      303.86904      0.10576266   
    107000   488.12476      1341.3904      1829.5152      124.2588       300.20593      0.10949641   
    108000   468.24595      1301.9108      1770.1568      120.47669      291.37032      0.11643837   
    109000   456.59905      1322.3825      1778.9816      128.40042      295.95193      0.11787207   
    110000   458.70441      1292.1217      1750.8262      92.813586      289.1795       0.11663212   
    111000   463.33051      1319.2697      1782.6002      107.30485      295.25526      0.11653778   
    112000   461.86228      1353.4769      1815.3392      84.642605      302.91091      0.11550829   
    113000   461.2364       1325.3839      1786.6203      62.975086      296.62363      0.11241004   
    114000   489.52047      1309.784       1799.3045      35.760434      293.13236      0.10853536   
    115000   478.71509      1314.7777      1793.4928      14.19925       294.24996      0.10625762   
    116000   466.44102      1395.3964      1861.8375      36.151384      312.29259      0.10706272   
    117000   475.2157       1330.6553      1805.871       60.119297      297.80338      0.11019828   
    118000   464.4996       1353.6238      1818.1234      126.905        302.94378      0.11616454   
    119000   452.22842      1369.5896      1821.818       146.31887      306.51695      0.11807543   
    120000   463.32175      1395.3298      1858.6516      167.69688      312.27768      0.11767004   
    121000   463.74756      1391.2471      1854.9946      148.52176      311.36395      0.11511538   
    122000   461.47711      1365.9526      1827.4297      109.50383      305.70299      0.11314481   
    123000   465.26186      1372.9924      1838.2542      85.856957      307.27851      0.11281874   
    124000   496.71808      1374.5684      1871.2864      39.472751      307.63122      0.11334921   
    125000   483.65067      1401.1601      1884.8108      19.561011      313.58251      0.11415409   
    126000   472.36006      1373.3501      1845.7102      48.504504      307.35858      0.11435147   
    127000   479.93349      1352.2263      1832.1598      81.789358      302.63102      0.11415282   
    128000   492.78799      1362.5133      1855.3013      108.05479      304.93328      0.11410375   
    129000   458.95461      1338.9361      1797.8907      132.60904      299.65664      0.11502782   
    130000   463.95005      1330.3535      1794.3036      93.43503       297.73584      0.11644547   
    131000   463.38558      1320.2114      1783.597       51.700107      295.46602      0.1182833    
    132000   468.37765      1305.6296      1774.0072      32.794316      292.20258      0.12003137   
    133000   448.74206      1313.6611      1762.4032      23.571623      294.00006      0.12137047   
    134000   461.87033      1358.6988      1820.5691      64.405949      304.07958      0.11975755   
    135000   471.90375      1363.203       1835.1068      90.329014      305.08763      0.11473224   
    136000   487.44043      1372.489       1859.9295      102.91761      307.16586      0.11110242   
    137000   480.84792      1337.5519      1818.3998      56.998568      299.34685      0.10945063   
    138000   471.13961      1332.4053      1803.5449      55.146635      298.19504      0.11117489   
    139000   478.6982       1318.0379      1796.7361      71.6781        294.97959      0.11461002   
    140000   460.45051      1312.8089      1773.2594      114.43911      293.80932      0.11674201   
    141000   463.69706      1305.8593      1769.5564      125.65654      292.254        0.11690405   
    142000   453.71098      1297.2715      1750.9825      119.72226      290.33203      0.11729793   
    143000   486.57989      1316.5391      1803.119       140.51791      294.64416      0.11759551   
    144000   461.99769      1340.4936      1802.4913      140.17471      300.00522      0.11620714   
    145000   452.57225      1365.5148      1818.0871      135.72557      305.60502      0.11563645   
    146000   457.65033      1372.191       1829.8414      116.33372      307.09917      0.11629954   
    147000   483.36235      1387.7956      1871.158       118.9559       310.59151      0.11792488   
    148000   469.01045      1384.6094      1853.6198      59.083018      309.87842      0.11764351   
    149000   476.19239      1363.4455      1839.6378      36.543756      305.14189      0.11665398   
    150000   479.0971       1342.0317      1821.1288      33.040163      300.34946      0.11374381   
    151000   463.96709      1326.8825      1790.8496      60.379382      296.95903      0.11035553   
    152000   484.06753      1281.0992      1765.1667      94.036066      286.71263      0.10877551   
    153000   464.95056      1323.4909      1788.4415      128.88068      296.19998      0.11160228   
    154000   435.5313       1347.7019      1783.2332      92.433169      301.61844      0.11771997   
    155000   462.13293      1316.6128      1778.7457      59.608704      294.66064      0.1208093    
    156000   472.32679      1282.1678      1754.4946      20.98656       286.95178      0.12077495   
    157000   474.2601       1335.8117      1810.0718      58.83983       298.95739      0.11900719   
    158000   451.3658       1365.5701      1816.9359      93.445148      305.6174       0.11483526   
    159000   488.96475      1361.1466      1850.1114      81.007101      304.62741      0.11201246   
    160000   485.54144      1379.171       1864.7124      105.85718      308.6613       0.11051269   
    161000   477.07091      1362.2454      1839.3163      103.17391      304.87331      0.10935218   
    162000   485.10465      1358.5077      1843.6123      93.846915      304.0368       0.11026935   
    163000   487.65528      1357.6198      1845.2751      82.908617      303.83809      0.11210726   
    164000   487.01822      1371.3251      1858.3433      105.58315      306.90537      0.11279554   
    165000   487.6851       1297.5101      1785.1952      92.854758      290.38543      0.11303633   
    166000   466.87589      1310.2005      1777.0764      102.11621      293.22556      0.11426402   
    167000   467.84882      1320.716       1788.5648      106.21093      295.57895      0.11568584   
    168000   473.74508      1304.5728      1778.3179      79.730423      291.96607      0.1165812    
    169000   453.66688      1300.4849      1754.1518      98.522948      291.0512       0.11744945   
    170000   479.0419       1333.1855      1812.2274      121.98933      298.36965      0.11512347   
    171000   469.39648      1334.5157      1803.9122      105.95948      298.66735      0.1087442    
    172000   480.76801      1343.4536      1824.2216      95.457945      300.66768      0.10680714   
    173000   488.10116      1315.2926      1803.3938      83.084713      294.36519      0.10672401   
    174000   461.0567       1350.049       1811.1057      64.726832      302.14374      0.10753248   
    175000   438.87686      1306.2973      1745.1742      73.260953      292.35202      0.11063995   
    176000   480.50048      1359.5023      1840.0028      79.445015      304.25941      0.11408738   
    177000   481.62543      1353.6535      1835.2789      97.207339      302.95042      0.11534039   
    178000   472.69157      1362.4523      1835.1439      113.01075      304.91962      0.11437099   
    179000   488.53171      1340.147       1828.6787      102.52226      299.92764      0.11195628   
    180000   493.27983      1354.9937      1848.2735      108.68487      303.25037      0.1108705    
    181000   476.73467      1394.8983      1871.633       118.47543      312.1811       0.11163135   
    182000   480.30636      1352.7661      1833.0725      120.85383      302.75183      0.11235915   
    183000   492.96834      1343.2659      1836.2343      118.6535       300.62568      0.11318351   
    184000   458.89776      1335.5441      1794.4419      140.59178      298.89751      0.11424047   
    185000   452.38448      1304.1078      1756.4923      150.0103       291.86201      0.11317734   
    186000   463.12402      1291.1364      1754.2605      146.7977       288.95899      0.10830367   
    187000   489.60027      1349.525       1839.1252      120.29544      302.02645      0.10345606   
    188000   478.24157      1354.9194      1833.161       96.068948      303.23374      0.10244309   
    189000   504.7198       1358.1134      1862.8332      53.746154      303.94857      0.10376068   
    190000   480.64918      1345.7667      1826.4159      61.871157      301.18536      0.10603395   
    191000   489.53422      1346.0642      1835.5984      88.829766      301.25192      0.10802864   
    192000   463.89602      1363.7585      1827.6545      108.16224      305.21194      0.1083605    
    193000   515.97109      1369.8392      1885.8103      124.36918      306.57282      0.10909034   
    194000   472.06507      1403.9495      1876.0146      119.4796       314.20679      0.10908957   
    195000   465.44267      1369.1043      1834.547       84.797802      306.40835      0.10782783   
    196000   487.5615       1357.7687      1845.3302      80.637154      303.87143      0.10527121   
    197000   500.42736      1364.7353      1865.1627      81.665828      305.43057      0.10269647   
    198000   490.71018      1356.5889      1847.2991      94.365797      303.60739      0.1022782    
    199000   489.09629      1334.7852      1823.8815      143.39566      298.72767      0.10454529   
    200000   475.71526      1300.1823      1775.8975      154.53495      290.98346      0.10790507   
    201000   448.27145      1305.6098      1753.8813      133.12047      292.19815      0.1115373    
    202000   441.27504      1303.897       1745.1721      132.45631      291.81483      0.11863625   
    203000   472.66575      1313.4085      1786.0743      131.38564      293.94353      0.12136086   
    204000   466.24611      1307.376       1773.6221      76.18299       292.59343      0.11798095   
    205000   458.66763      1280.6968      1739.3644      84.337677      286.62256      0.11420401   
    206000   493.25981      1295.4517      1788.7115      69.544312      289.92474      0.1113208    
    207000   463.72098      1345.9927      1809.7137      75.009388      301.23593      0.10947466   
    208000   473.59914      1336.1303      1809.7295      74.224328      299.02871      0.11018785   
    209000   449.16097      1308.785       1757.946       69.248335      292.90877      0.11214585   
    210000   475.58718      1331.4965      1807.0837      29.037112      297.99165      0.11477424   
    211000   461.52497      1312.5592      1774.0841      14.568902      293.75343      0.11697801   
    212000   464.43255      1308.1045      1772.5371      55.392126      292.75648      0.11660965   
    213000   472.06124      1347.3226      1819.3838      80.560858      301.53355      0.11261852   
    214000   490.89442      1384.6757      1875.5701      125.56315      309.89326      0.10729279   
    215000   507.79722      1349.0898      1856.887       178.29239      301.92907      0.10588911   
    216000   465.91749      1360.443       1826.3605      182.32776      304.46994      0.10753176   
    217000   474.41451      1345.1161      1819.5306      141.33102      301.03974      0.11003144   
    218000   487.43258      1314.1952      1801.6278      48.248174      294.11959      0.11291731   
    219000   461.44177      1340.0394      1801.4812      24.908259      299.90357      0.11479653   
    220000   482.71801      1311.812       1794.53        42.838315      293.58622      0.11463163   
    221000   454.11217      1343.8866      1797.9988      102.65032      300.76458      0.11305145   
    222000   466.66725      1325.2144      1791.8817      150.09362      296.58571      0.11030205   
    223000   474.72008      1287.0606      1761.7807      137.90595      288.0468       0.10776775   
    224000   482.39657      1330.6694      1813.066       111.85632      297.80654      0.10653025   
    225000   488.32407      1330.2893      1818.6134      96.240827      297.72147      0.10559379   
    226000   476.87701      1319.1381      1796.0151      56.114881      295.22581      0.10498589   
    227000   480.45737      1329.7149      1810.1723      55.811963      297.59293      0.10439057   
    228000   479.80713      1306.3626      1786.1697      83.129688      292.36662      0.1031944    
    229000   508.54408      1349.8034      1858.3475      126.20592      302.08877      0.10498092   
    230000   483.63283      1362.0128      1845.6456      106.26407      304.82126      0.10822392   
    231000   474.14075      1376.1456      1850.2863      121.33197      307.9842       0.11294163   
    232000   460.94614      1370.6841      1831.6302      129.36431      306.76192      0.11576476   
    233000   490.24462      1329.9987      1820.2433      128.56873      297.65644      0.11571041   
    234000   455.26523      1324.4912      1779.7564      136.02226      296.42385      0.11354839   
    235000   470.46713      1323.6587      1794.1258      122.45613      296.23753      0.11027668   
    236000   491.7212       1325.0829      1816.8041      94.145465      296.55626      0.10819729   
    237000   475.5977       1304.6536      1780.2513      38.025272      291.98416      0.10739573   
    238000   467.83528      1328.7928      1796.6281      11.092905      297.38655      0.10793175   
    239000   465.77584      1331.6314      1797.4072      26.779183      298.02184      0.11166149   
    240000   456.77784      1306.004       1762.7818      49.128503      292.28637      0.11855094   
    241000   460.11049      1310.5601      1770.6706      106.53372      293.30604      0.12228981   
    242000   460.21065      1324.8584      1785.069       110.7734       296.50603      0.11972237   
    243000   460.17977      1317.6649      1777.8446      132.16817      294.8961       0.1152861    
    244000   489.14043      1341.9389      1831.0794      160.49949      300.32869      0.11193461   
    245000   490.4823       1365.0388      1855.5211      168.24148      305.49849      0.10984191   
    246000   484.0338       1407.3086      1891.3424      159.96998      314.95856      0.10943202   
    247000   483.25121      1374.6976      1857.9489      137.77033      307.66015      0.11114591   
    248000   486.38111      1361.9644      1848.3455      105.77296      304.81043      0.11339148   
    249000   460.1004       1389.8839      1849.9843      108.75789      311.05886      0.11482961   
    250000   441.70597      1382.6047      1824.3107      103.69191      309.42977      0.11337743   
    251000   504.39608      1370.0412      1874.4372      81.156518      306.61802      0.10837197   
    252000   466.52615      1363.3366      1829.8628      92.157896      305.11753      0.10454494   
    253000   483.08532      1340.2424      1823.3277      122.37678      299.94899      0.10432857   
    254000   459.74564      1286.3318      1746.0774      124.87978      287.88369      0.10670483   
    255000   497.73931      1283.1438      1780.8831      127.75802      287.17021      0.11055144   
    256000   474.23764      1321.3357      1795.5733      128.69335      295.71763      0.11295116   
    257000   477.33888      1333.54        1810.8789      104.39752      298.449        0.11405305   
    258000   484.36954      1330.1756      1814.5451      129.6232       297.69603      0.11604329   
    259000   452.68526      1347.139       1799.8243      122.68958      301.49247      0.11723603   
    260000   451.88974      1319.2089      1771.0986      101.40884      295.24166      0.1183085    
    261000   478.16465      1319.5683      1797.7329      61.269961      295.32209      0.11908938   
    262000   451.54196      1380.5824      1832.1244      30.002682      308.97718      0.11791089   
    263000   481.75915      1356.6383      1838.3975      26.093269      303.61844      0.11334328   
    264000   495.68309      1335.7473      1831.4304      45.540679      298.943        0.1089367    
    265000   484.16112      1335.2495      1819.4106      115.33395      298.83157      0.10733409   
    266000   502.799        1310.0827      1812.8817      140.42593      293.19919      0.10672322   
    267000   469.57373      1344.9148      1814.4886      179.51502      300.9947       0.10815449   
    268000   470.81444      1318.4178      1789.2323      190.56238      295.06462      0.10999762   
    269000   456.15633      1300.9473      1757.1036      181.88286      291.15468      0.11288651   
    270000   456.10206      1348.2341      1804.3362      149.81338      301.73757      0.11634313   
    271000   455.63364      1369.8335      1825.4672      117.83153      306.57156      0.11700861   
    272000   493.81451      1340.4591      1834.2736      53.669906      299.9975       0.11078141   
    273000   502.37479      1366.2969      1868.6717      46.955397      305.78006      0.10591542   
    274000   484.90356      1346.4146      1831.3182      63.881601      301.33036      0.10586643   
    275000   490.01014      1373.7685      1863.7786      120.71603      307.4522       0.10881714   
    276000   466.03934      1349.6787      1815.718       159.28414      302.06085      0.11165201   
    277000   481.12989      1329.9874      1811.1173      140.40908      297.65391      0.11316562   
    278000   495.18066      1315.4596      1810.6403      128.92972      294.40256      0.11376001   
    279000   498.61274      1305.6434      1804.2561      78.045955      292.20566      0.11142545   
    280000   459.11298      1297.8356      1756.9485      23.118812      290.45826      0.10860016   
    281000   485.58343      1308.5847      1794.1681      26.043286      292.86394      0.10718255   
    282000   468.05869      1339.1761      1807.2348      8.162413       299.71036      0.10683976   
    283000   482.43439      1323.1534      1805.5878      39.243488      296.12446      0.10898705   
    284000   452.42254      1356.1694      1808.5919      77.694819      303.51349      0.11204605   
    285000   472.35482      1331.7547      1804.1095      108.48833      298.04943      0.11400963   
    286000   481.07186      1354.2162      1835.2881      141.40027      303.07637      0.11530673   
    287000   459.75113      1337.9998      1797.7509      128.46054      299.4471       0.11611526   
    288000   466.97265      1335.461       1802.4336      112.24853      298.87891      0.11787723   
    289000   465.28666      1347.4276      1812.7142      98.388056      301.55706      0.11874159   
    290000   458.68195      1354.9666      1813.6485      79.028367      303.24431      0.11515158   
    291000   475.47532      1338.7164      1814.1917      43.975047      299.60748      0.10978468   
    292000   477.44772      1342.1501      1819.5978      73.137772      300.37595      0.10861367   
    293000   473.8915       1333.0247      1806.9162      84.539404      298.33366      0.10946942   
    294000   474.31978      1315.3757      1789.6954      96.601666      294.38378      0.11119434   
    295000   459.1421       1328.8885      1788.0306      103.99751      297.40797      0.11270683   
    296000   461.29853      1319.697       1780.9956      130.61223      295.35091      0.11482556   
    297000   459.7468       1305.6759      1765.4227      153.4915       292.21294      0.11616208   
    298000   467.08778      1330.0843      1797.1721      141.54714      297.67559      0.11378298   
    299000   488.73241      1369.0315      1857.7639      83.365406      306.39207      0.10958367   
    300000   510.43963      1352.7348      1863.1744      82.538007      302.74482      0.10760431   
    301000   474.32305      1370.2831      1844.6062      89.328675      306.67217      0.10719223   
    302000   495.21683      1336.8829      1832.0997      115.03748      299.19713      0.10919078   
    303000   482.9593       1402.5079      1885.4672      124.14372      313.88414      0.11249786   
    304000   465.10696      1388.0417      1853.1486      130.96889      310.64657      0.11493106   
    305000   489.02936      1360.3247      1849.354       142.59481      304.44345      0.1160733    
    306000   485.54543      1346.3689      1831.9144      120.99961      301.32013      0.11438252   
    307000   495.71724      1360.1511      1855.8683      77.641558      304.4046       0.10993882   
    308000   464.9215       1363.4803      1828.4018      55.727169      305.14969      0.10486993   
    309000   498.37042      1370.4818      1868.8522      46.359339      306.71663      0.10508812   
    310000   492.03334      1341.0414      1833.0747      59.01373       300.12781      0.10752465   
    311000   474.09247      1324.4709      1798.5634      25.050694      296.41931      0.10905429   
    312000   486.50969      1312.4382      1798.9479      45.508012      293.72636      0.11189613   
    313000   475.52262      1293.4267      1768.9493      66.587135      289.47155      0.11340925   
    314000   491.45415      1246.8225      1738.2766      90.434717      279.04143      0.11467534   
    315000   465.49911      1328.2912      1793.7903      152.82053      297.2743       0.11671812   
    316000   458.82136      1357.4461      1816.2675      162.66221      303.79923      0.11755979   
    317000   471.86863      1359.4829      1831.3515      169.96626      304.25506      0.11738066   
    318000   479.67128      1384.3994      1864.0707      119.82324      309.83142      0.11545164   
    319000   491.52153      1393.8749      1885.3964      61.211152      311.95206      0.11188206   
    320000   485.16758      1334.8479      1820.0155      21.59857       298.7417       0.10935983   
    321000   486.30168      1322.7378      1809.0395      10.396643      296.03143      0.1094249    
    322000   488.59545      1333.8657      1822.4612      28.982135      298.52188      0.11211088   
    323000   475.62803      1382.5782      1858.2062      74.902313      309.42383      0.11812251   
    324000   463.09882      1378.2828      1841.3816      106.81691      308.46252      0.12097184   
    325000   467.90068      1349.7264      1817.627       104.93477      302.07153      0.120878     
    326000   488.67102      1334.4802      1823.1512      91.152608      298.6594       0.11884142   
    327000   455.97599      1339.0562      1795.0322      93.887683      299.68354      0.116691     
    328000   480.70655      1322.5846      1803.2911      89.796978      295.99714      0.11472748   
    329000   489.29151      1306.6121      1795.9036      111.34813      292.42247      0.11254493   
    330000   481.12895      1332.976       1814.105       157.39944      298.32277      0.11352777   
    331000   448.85828      1294.6603      1743.5186      172.60294      289.74764      0.11701518   
    332000   467.75745      1333.1794      1800.9368      114.64629      298.36828      0.11827454   
    333000   484.62047      1331.375       1815.9954      75.839281      297.96445      0.11793896   
    334000   465.94868      1347.803       1813.7517      53.270184      301.64108      0.11682334   
    335000   488.89141      1367.1315      1856.0229      80.613871      305.96684      0.11680467   
    336000   484.24173      1370.0941      1854.3358      120.14214      306.62988      0.11695076   
    337000   463.79077      1372.2723      1836.0631      130.93025      307.11737      0.11619958   
    338000   456.17182      1354.2224      1810.3942      146.27957      303.07776      0.11570531   
    339000   482.30686      1343.5908      1825.8977      142.73571      300.69839      0.11683218   
    340000   443.37257      1391.0857      1834.4582      161.98536      311.32783      0.11919003   
    341000   462.40576      1333.778       1796.1837      135.64569      298.50225      0.12078537   
    342000   456.93457      1323.6327      1780.5673      93.971442      296.23172      0.12065437   
    343000   456.53494      1319.2564      1775.7913      71.981953      295.25229      0.11847912   
    344000   465.16337      1326.3444      1791.5078      57.036549      296.83861      0.11288173   
    345000   458.30348      1341.3167      1799.6201      84.787026      300.18942      0.10899524   
    346000   473.07792      1308.492       1781.5699      107.44298      292.8432       0.10854189   
    347000   496.40422      1326.9542      1823.3584      145.66585      296.97507      0.11124061   
    348000   466.40171      1315.9376      1782.3393      135.49351      294.50954      0.11469449   
    349000   471.80851      1340.0755      1811.884       111.76431      299.91165      0.11724873   
    350000   470.34596      1391.3761      1861.722       96.000813      311.39282      0.1174097    
    351000   468.73361      1384.4411      1853.1747      65.590847      309.84075      0.11535795   
    352000   455.1389       1376.5498      1831.6887      54.818455      308.07466      0.11271764   
    353000   481.2351       1337.3151      1818.5502      74.303874      299.29386      0.11147238   
    354000   460.78853      1329.0222      1789.8107      87.599651      297.43789      0.11097341   
    355000   463.96189      1300.6153      1764.5772      108.84363      291.08037      0.11352325   
    356000   476.19362      1311.9054      1788.099       122.61655      293.60712      0.11981801   
    357000   451.74743      1330.4101      1782.1575      182.59372      297.7485       0.12240446   
    358000   459.89773      1312.531       1772.4287      159.17296      293.74714      0.12097644   
    359000   439.34602      1317.1045      1756.4505      135.10813      294.77068      0.11819114   
    360000   477.32729      1361.6586      1838.9858      106.30796      304.74198      0.11498356   
    361000   488.15569      1349.7493      1837.905       77.464518      302.07667      0.11208013   
    362000   470.24353      1344.103       1814.3466      75.950443      300.81302      0.11021007   
    363000   466.21932      1351.7073      1817.9266      126.73839      302.51487      0.1108263    
    364000   470.63568      1356.5844      1827.2201      140.0139       303.60637      0.1124696    
    365000   476.92681      1340.8324      1817.7592      120.37052      300.08105      0.11404132   
    366000   500.3575       1380.8186      1881.1761      74.949622      309.03005      0.11359327   
    367000   480.27719      1396.3582      1876.6354      20.115109      312.50784      0.11092246   
    368000   492.72151      1362.7675      1855.489       41.490911      304.99015      0.10714392   
    369000   490.3709       1340.7627      1831.1336      80.824806      300.06543      0.1034965    
    370000   488.79427      1329.5051      1818.2994      119.82597      297.54597      0.10161322   
    371000   492.92559      1331.0013      1823.9269      163.01442      297.88082      0.10329691   
    372000   497.8241       1341.2161      1839.0401      168.76718      300.16691      0.10866295   
    373000   458.50813      1358.92        1817.4281      141.25775      304.12908      0.11200735   
    374000   443.25757      1340.0062      1783.2638      93.940566      299.89613      0.1121705    
    375000   470.76394      1273.4381      1744.2021      41.119497      284.99807      0.11040733   
    376000   474.56469      1320.3287      1794.8934      74.202987      295.49227      0.1087672    
    377000   464.02263      1348.3143      1812.3369      122.39207      301.7555       0.10649926   
    378000   502.5091       1351.3701      1853.8792      122.13667      302.43939      0.10602271   
    379000   515.50694      1364.3643      1879.8713      105.73614      305.34754      0.10855677   
    380000   482.57224      1357.6831      1840.2553      95.619157      303.85226      0.11209603   
    381000   467.4056       1381.9776      1849.3832      125.13855      309.28943      0.11700219   
    382000   480.67196      1350.5971      1831.2691      90.337801      302.26641      0.12092637   
    383000   464.84245      1344.0751      1808.9175      71.143183      300.80676      0.12175414   
    384000   470.55878      1349.8076      1820.3664      59.561314      302.08972      0.11763961   
    385000   476.39148      1346.3006      1822.6921      67.940385      301.30483      0.11195142   
    386000   485.52885      1319.8082      1805.3371      55.936581      295.37579      0.10922802   
    387000   484.50592      1331.7483      1816.2542      117.17555      298.04799      0.10921683   
    388000   449.23943      1319.408       1768.6474      143.99456      295.28621      0.11053924   
    389000   493.73274      1322.2513      1815.9841      132.86822      295.92256      0.11376528   
    390000   495.2648       1355.1411      1850.4059      120.9484       303.28337      0.1164594    
    391000   473.2561       1338.5158      1811.7719      69.051312      299.56259      0.1156677    
    392000   501.12595      1282.367       1783.493       34.846349      286.99637      0.11256366   
    393000   469.49945      1352.2918      1821.7913      50.292935      302.64568      0.10996624   
    394000   495.91996      1336.4573      1832.3773      65.633357      299.10189      0.10851955   
    395000   494.4963       1343.1918      1837.6881      68.442599      300.60908      0.10768248   
    396000   479.47982      1335.3294      1814.8092      74.392851      298.84947      0.10775201   
    397000   480.99871      1384.1054      1865.1041      105.49915      309.76562      0.10967958   
    398000   503.80023      1360.8708      1864.671       86.125122      304.56568      0.11169896   
    399000   475.79315      1360.6919      1836.485       65.413378      304.52563      0.11308835   
    400000   490.11168      1367.0673      1857.179       89.055361      305.95246      0.1151372    
Loop time of 2737.59 on 8 procs for 400000 steps with 1500 atoms

Performance: 6.312 ns/day, 3.802 hours/ns, 146.114 timesteps/s, 219.171 katom-step/s
98.4% CPU use with 8 MPI tasks x 1 OpenMP threads

MPI task timing breakdown:
Section |  min time  |  avg time  |  max time  |%varavg| %total
---------------------------------------------------------------
Pair    | 59.166     | 61.426     | 64.063     |  23.0 |  2.24
Bond    | 4.4594     | 4.5946     | 4.7389     |   3.3 |  0.17
Kspace  | 1236.3     | 1238.8     | 1241.1     |   5.4 | 45.25
Neigh   | 1.139      | 1.1417     | 1.1445     |   0.2 |  0.04
Comm    | 29.772     | 30.072     | 30.274     |   3.3 |  1.10
Output  | 0.029733   | 0.0313     | 0.041701   |   2.2 |  0.00
Modify  | 1260.4     | 1329.9     | 1393.2     | 144.8 | 48.58
Other   |            | 71.54      |            |       |  2.61

Nlocal:          187.5 ave         226 max         169 min
Histogram: 3 1 0 1 1 1 0 0 0 1
Nghost:        1367.75 ave        1398 max        1331 min
Histogram: 1 0 1 0 1 2 1 0 1 1
Neighs:        9916.38 ave       12411 max        8214 min
Histogram: 2 1 1 1 0 1 0 0 1 1

Total # of neighbors = 79331
Ave neighs/atom = 52.887333
Ave special neighs/atom = 2
Neighbor list builds = 2520
Dangerous builds = 0
PPPM initialization ...
  using 12-bit tables for long-range coulomb (src/kspace.cpp:342)
  G vector (1/distance) = 0.26845317
  grid = 54 54 54
  stencil order = 5
  estimated absolute RMS force accuracy = 0.00033840745
  estimated relative force accuracy = 1.019104e-06
  using single precision FFTW3
  3d grid and FFT values/proc = 39304 20412
Generated 1 of 1 mixed pair_coeff terms from arithmetic mixing rule
Last active /omp style is kspace_style pppm/omp
Setting up Verlet run ...
  Unit style    : real
  Current step  : 0
  Time step     : 0.5
Per MPI rank memory allocation (min/avg/max) = 9.038 | 9.079 | 9.153 Mbytes
   Step         PotEng         KinEng         TotEng         Press           Temp        v_Density   
         0   490.11115      1367.0673      1857.1784      89.055945      305.95246      0.1151372    
      1000   485.19884      1344.04        1829.2389      67.151941      300.79891      0.11399971   
      2000   477.78604      1366.2         1843.986       92.347071      305.75836      0.11109745   
      3000   491.03763      1388.8171      1879.8548      117.59324      310.82013      0.10859498   
      4000   482.11196      1404.865       1886.9769      128.21994      314.41166      0.10673398   
      5000   515.16004      1335.4194      1850.5794      101.88922      298.8696       0.10586386   
      6000   490.80902      1315.0938      1805.9028      91.072948      294.32069      0.10597423   
      7000   476.75233      1309.788       1786.5403      74.57634       293.13324      0.10901323   
      8000   483.64389      1305.7223      1789.3662      41.325272      292.22334      0.11379796   
      9000   449.62357      1277.1766      1726.8002      59.347843      285.83475      0.11740801   
     10000   480.54514      1300.3007      1780.8458      77.849062      291.00996      0.11871446   
     11000   464.15656      1329.9331      1794.0896      77.336776      297.64175      0.11703037   
     12000   444.9592       1293.2642      1738.2234      66.270904      289.43518      0.11372731   
     13000   483.03142      1301.9017      1784.9331      76.849994      291.36827      0.11190293   
     14000   492.98566      1335.3191      1828.3048      124.12866      298.84715      0.11079191   
     15000   488.96185      1364.4629      1853.4247      119.821        305.36959      0.10947847   
     16000   488.68252      1376.7016      1865.3841      102.86075      308.10864      0.1087171    
     17000   471.2916       1376.441       1847.7326      114.82598      308.05032      0.10944068   
     18000   466.60771      1315.874       1782.4817      111.29221      294.4953       0.10972615   
     19000   453.64252      1330.0076      1783.6501      127.76484      297.65843      0.11096438   
     20000   460.03047      1320.981       1781.0115      102.34642      295.63826      0.113197     
     21000   480.17188      1316.3512      1796.5231      43.59746       294.60211      0.11542833   
     22000   454.61474      1294.0657      1748.6804      40.878606      289.61456      0.11708532   
     23000   478.47407      1332.4195      1810.8936      16.133218      298.19822      0.11671402   
     24000   488.3387       1345.5328      1833.8715      30.710011      301.133        0.11138081   
     25000   474.4907       1335.0415      1809.5322      69.272899      298.78502      0.10595237   
     26000   481.26181      1316.4177      1797.6796      92.731263      294.61699      0.10478301   
     27000   486.56216      1356.8148      1843.3769      107.83202      303.65793      0.10695266   
     28000   467.3367       1370.9594      1838.2961      124.37653      306.82352      0.10952063   
     29000   476.81875      1361.5737      1838.3924      119.17866      304.72298      0.11211645   
     30000   462.29155      1359.3173      1821.6089      116.87994      304.21801      0.1142675    
     31000   483.30552      1364.1748      1847.4803      111.97965      305.30512      0.11601092   
     32000   463.60794      1385.1945      1848.8024      100.8092       310.00937      0.11614721   
     33000   489.57602      1351.1803      1840.7563      67.255054      302.39693      0.11632623   
     34000   465.93975      1348.3616      1814.3014      59.111543      301.7661       0.11630161   
     35000   481.65561      1333.9931      1815.6487      32.992223      298.55039      0.11498814   
     36000   478.48344      1349.5905      1828.0739      57.947727      302.04112      0.11329097   
     37000   475.18819      1328.5746      1803.7628      103.49054      297.33772      0.11160923   
     38000   475.78691      1296.0854      1771.8723      128.0612       290.06658      0.10866181   
     39000   461.04835      1268.9704      1730.0188      138.50263      283.99819      0.10558697   
     40000   459.63014      1329.7107      1789.3408      126.96116      297.59198      0.1055192    
     41000   465.64332      1339.4175      1805.0608      101.11042      299.76438      0.10932684   
     42000   471.68901      1326.9265      1798.6155      76.728986      296.96887      0.11339115   
     43000   452.19812      1311.2238      1763.4219      56.33263       293.45457      0.11575754   
     44000   489.79349      1318.8654      1808.6589      55.68479       295.16478      0.11683056   
     45000   478.42361      1312.8741      1791.2977      64.238292      293.82391      0.11680486   
     46000   448.05455      1343.5501      1791.6046      99.032436      300.68926      0.11685054   
     47000   461.06557      1306.6735      1767.739       103.693        292.43621      0.11617831   
     48000   488.1415       1319.064       1807.2055      89.447559      295.20922      0.11590646   
     49000   475.07668      1313.8229      1788.8996      59.10827       294.03626      0.11543305   
     50000   460.79343      1325.1732      1785.9666      69.562363      296.57647      0.11532955   
     51000   459.99273      1328.5891      1788.5819      67.547813      297.34097      0.11518534   
     52000   477.36967      1324.5572      1801.9269      103.49016      296.43862      0.11595319   
     53000   454.26416      1263.745       1718.0091      130.86302      282.82872      0.11748768   
     54000   456.70523      1299.5492      1756.2544      148.84358      290.84178      0.11761602   
     55000   485.23525      1319.8881      1805.1234      130.35761      295.39367      0.11553786   
     56000   477.08156      1365.0847      1842.1662      120.97963      305.50875      0.11216263   
     57000   499.70002      1383.0839      1882.7839      124.81963      309.53701      0.10995746   
     58000   478.63986      1413.635       1892.2749      129.53503      316.37442      0.1087031    
     59000   476.52964      1380.1236      1856.6533      125.08891      308.8745       0.10845906   
     60000   490.30831      1364.3027      1854.611       137.76996      305.33375      0.10970399   
     61000   462.08535      1402.5391      1864.6244      150.58649      313.89112      0.11212723   
     62000   486.41004      1340.8653      1827.2753      131.37687      300.0884       0.11594676   
     63000   458.45684      1353.9889      1812.4457      112.81262      303.02549      0.11727391   
     64000   492.10392      1399.2704      1891.3743      118.02798      313.15959      0.11722486   
     65000   482.77188      1352.4274      1835.1993      118.13843      302.67604      0.11532253   
     66000   485.0334       1331.284       1816.3174      104.92568      297.9441       0.11103448   
     67000   470.63693      1313.9122      1784.5492      90.211044      294.05625      0.10790997   
     68000   491.21171      1329.3824      1820.5941      66.29721       297.51851      0.10848082   
     69000   485.95824      1342.9387      1828.897       62.347708      300.55245      0.11086829   
     70000   451.11836      1353.7549      1804.8733      67.163303      302.97313      0.11221899   
     71000   472.20758      1341.07        1813.2776      79.125334      300.13422      0.1132219    
     72000   460.89573      1312.825       1773.7207      110.7154       293.81293      0.11406638   
     73000   467.81841      1335.5738      1803.3922      125.88674      298.90416      0.11389853   
     74000   444.63992      1321.4519      1766.0918      145.37849      295.74364      0.11288091   
     75000   472.4267       1334.2863      1806.713       92.721873      298.61601      0.11071795   
     76000   494.6849       1322.3602      1817.0451      32.390775      295.94693      0.10775352   
     77000   485.76219      1335.2298      1820.992       61.40844       298.82718      0.10466219   
     78000   454.02314      1360.2734      1814.2966      88.539632      304.43199      0.10295253   
     79000   482.41663      1354.7903      1837.2069      154.38647      303.20485      0.10622755   
     80000   472.71265      1365.5296      1838.2422      220.2279       305.60832      0.11247928   
     81000   465.75579      1374.1812      1839.937       224.81168      307.54457      0.11504827   
     82000   484.2791       1375.8782      1860.1573      180.08761      307.92436      0.11498936   
     83000   483.30786      1390.2387      1873.5466      117.30822      311.13828      0.11257986   
     84000   499.76579      1339.1103      1838.8761      57.607628      299.69563      0.10958603   
     85000   521.88923      1319.2831      1841.1724      36.94855       295.25827      0.10933155   
     86000   490.52697      1273.6923      1764.2193      63.411866      285.05495      0.11216141   
     87000   481.64093      1304.3559      1785.9969      31.816067      291.91753      0.11542586   
     88000   482.07821      1315.6716      1797.7498      58.414968      294.45         0.11900281   
     89000   468.0215       1345.8135      1813.835       86.957056      301.19583      0.11951894   
     90000   468.93776      1341.6912      1810.6289      141.14257      300.27324      0.11886659   
     91000   480.18315      1322.9874      1803.1705      171.79425      296.08729      0.11777143   
     92000   475.5632       1331.7446      1807.3078      168.28188      298.04718      0.11568322   
     93000   482.51496      1329.5544      1812.0693      129.40588      297.557        0.11375062   
     94000   479.06853      1406.4865      1885.555       95.564373      314.77456      0.11309542   
     95000   473.41078      1386.8957      1860.3064      70.906887      310.3901       0.11296359   
     96000   459.41245      1374.5441      1833.9565      45.427137      307.62579      0.11346574   
     97000   495.7277       1327.0137      1822.7414      31.834878      296.98839      0.1140714    
     98000   487.21941      1344.7166      1831.9361      65.918357      300.95035      0.11461702   
     99000   486.56948      1330.9717      1817.5412      84.938963      297.8742       0.11474847   
    100000   474.45218      1340.997       1815.4492      91.150171      300.11787      0.1142684    
    101000   456.04859      1303.6814      1759.73        93.529358      291.76658      0.11271931   
    102000   473.57318      1327.4734      1801.0465      100.45668      297.09126      0.1122121    
    103000   487.40232      1329.0927      1816.495       84.581463      297.45367      0.11170483   
    104000   475.46224      1352.3694      1827.8317      111.56024      302.66306      0.11329098   
    105000   476.538        1339.8587      1816.3967      98.433359      299.86313      0.11596247   
    106000   479.8417       1329.2968      1809.1385      88.048282      297.49936      0.11737795   
    107000   487.6483       1337.4564      1825.1047      109.3038       299.32549      0.11787373   
    108000   481.14445      1335.205       1816.3494      84.091044      298.82161      0.11542285   
    109000   496.41357      1353.9189      1850.3324      68.551012      303.00982      0.11135961   
    110000   478.92588      1395.2205      1874.1463      56.24734       312.2532       0.10849416   
    111000   507.55889      1416.0474      1923.6063      56.047659      316.91432      0.10845962   
    112000   492.23178      1374.4742      1866.706       64.34844       307.61015      0.10899636   
    113000   500.24915      1340.2482      1840.4974      50.917889      299.9503       0.11031845   
    114000   513.36784      1342.1981      1855.5659      74.085013      300.38669      0.11287929   
    115000   491.17918      1369.1553      1860.3345      85.992078      306.41978      0.11441564   
    116000   473.42433      1343.5691      1816.9934      101.74655      300.69351      0.11511849   
    117000   488.05939      1320.8372      1808.8966      90.430549      295.60607      0.11506808   
    118000   458.68413      1330.3126      1788.9967      98.97635       297.72669      0.11488339   
    119000   484.64586      1330.0395      1814.6854      98.600608      297.66558      0.11384306   
    120000   474.55212      1332.7758      1807.3279      146.41391      298.27796      0.11239267   
    121000   496.87343      1303.7925      1800.6659      160.26091      291.79144      0.11072061   
    122000   481.75908      1267.1994      1748.9585      144.24793      283.60183      0.10932602   
    123000   447.14115      1322.9667      1770.1078      143.60468      296.08266      0.10910745   
    124000   488.35417      1314.2292      1802.5834      102.80829      294.12719      0.11017528   
    125000   485.55701      1327.2725      1812.8295      69.238527      297.04631      0.11072694   
    126000   484.17563      1305.9217      1790.0973      44.386593      292.26796      0.11275389   
    127000   490.23011      1319.7849      1810.015       49.223755      295.37058      0.11447701   
    128000   471.69017      1341.8592      1813.5494      44.670172      300.31085      0.11466519   
    129000   483.88873      1304.4599      1788.3486      77.297734      291.94081      0.11399396   
    130000   479.38693      1304.9867      1784.3736      71.338177      292.0587       0.11029792   
    131000   497.26524      1284.7654      1782.0306      85.000446      287.53313      0.10580939   
    132000   467.33432      1333.6461      1800.9804      95.284203      298.47272      0.10325207   
    133000   489.25719      1331.583       1820.8402      94.927211      298.01101      0.10505378   
    134000   478.03869      1361.1064      1839.1451      93.539321      304.61841      0.10917447   
    135000   505.04615      1392.1617      1897.2079      105.1151       311.56865      0.11233882   
    136000   488.87908      1406.7784      1895.6575      108.75983      314.8399       0.11398161   
    137000   496.98482      1357.6741      1854.6589      72.94643       303.85024      0.11470896   
    138000   476.55485      1347.4072      1823.9621      79.265986      301.5525       0.11490115   
    139000   462.73958      1343.8951      1806.6347      95.321184      300.76648      0.11471706   
    140000   461.81398      1315.4462      1777.2601      99.935768      294.39955      0.11344482   
    141000   489.09621      1306.0165      1795.1127      102.61126      292.28918      0.11076682   
    142000   487.2848       1319.5079      1806.7927      73.44469       295.30857      0.10606326   
    143000   478.46625      1341.9878      1820.454       83.786431      300.33962      0.10409877   
    144000   501.3139       1359.8795      1861.1934      64.681016      304.34382      0.10477634   
    145000   519.17861      1324.9759      1844.1545      52.254141      296.53233      0.10626638   
    146000   479.97896      1339.4179      1819.3968      79.396208      299.76447      0.11051228   
    147000   457.0106       1341.9437      1798.9543      132.21249      300.32976      0.11463646   
    148000   466.67273      1363.0266      1829.6993      166.79518      305.04816      0.11536405   
    149000   474.52644      1346.1484      1820.6748      144.98663      301.27076      0.11449359   
    150000   501.10244      1377.9845      1879.0869      112.12879      308.39575      0.11338329   
    151000   493.02353      1399.816       1892.8395      64.447201      313.28169      0.11126098   
    152000   487.16448      1365.7218      1852.8862      41.897326      305.65133      0.10798266   
    153000   470.205        1353.1453      1823.3503      58.982043      302.8367       0.10528871   
    154000   511.79371      1327.5751      1839.3688      106.77118      297.11402      0.10404946   
    155000   484.94793      1347.5702      1832.5181      141.07926      301.58898      0.10457936   
    156000   458.61617      1306.4737      1765.0899      143.76845      292.3915       0.10628282   
    157000   498.95578      1266.3356      1765.2914      119.73375      283.4085       0.10776401   
    158000   494.58626      1335.802       1830.3882      68.495955      298.95523      0.10776443   
    159000   475.73279      1360.1086      1835.8414      52.010456      304.3951       0.10751551   
    160000   503.40316      1364.9497      1868.3529      56.289791      305.47855      0.10752272   
    161000   453.44365      1370.7797      1824.2234      95.869129      306.78331      0.1077555    
    162000   498.12872      1355.6263      1853.755       115.86818      303.39195      0.10842041   
    163000   490.83115      1371.7147      1862.5458      161.33321      306.99256      0.10995085   
    164000   471.31292      1352.7794      1824.0923      142.90607      302.7548       0.11093011   
    165000   461.76803      1323.2359      1785.004       169.38654      296.14292      0.1138827    
    166000   457.06441      1297.8803      1754.9447      121.21428      290.46828      0.1166145    
    167000   451.18774      1322.5394      1773.7272      84.552122      295.98704      0.11556529   
    168000   473.10529      1341.9557      1815.061       87.918185      300.33244      0.11120081   
    169000   470.45094      1305.4038      1775.8547      87.724957      292.15205      0.10568606   
    170000   468.46861      1332.1987      1800.6673      135.02589      298.14879      0.10496709   
    171000   502.19512      1327.6104      1829.8056      133.40039      297.12194      0.10632879   
    172000   466.47581      1355.2576      1821.7334      148.48141      303.30943      0.10995622   
    173000   494.05048      1359.2052      1853.2557      111.1438       304.19292      0.11243378   
    174000   482.15101      1367.8006      1849.9516      94.374852      306.11657      0.1143674    
    175000   505.91442      1378.5855      1884.4999      50.722081      308.53027      0.11439357   
    176000   487.64603      1358.9133      1846.5593      20.380324      304.12759      0.11301474   
    177000   496.28272      1342.1348      1838.4175      5.0897295      300.37252      0.11063674   
    178000   521.55144      1333.4089      1854.9603      18.693878      298.41964      0.10677776   
    179000   505.63324      1316.9871      1822.6204      17.371369      294.74442      0.10124359   
    180000   499.13179      1340.7431      1839.8749      31.575839      300.06106      0.099932852  
    181000   487.56096      1350.1059      1837.6668      110.11549      302.15646      0.10274735   
    182000   497.99987      1343.2105      1841.2103      148.89966      300.61326      0.10609785   
    183000   479.20418      1311.9519      1791.1561      180.73019      293.61753      0.10781604   
    184000   465.93734      1299.661       1765.5983      173.6734       290.86679      0.1093271    
    185000   461.45576      1280.0082      1741.464       146.10019      286.46847      0.11236044   
    186000   459.12696      1311.3309      1770.4579      112.71676      293.47855      0.11435329   
    187000   473.8296       1336.1782      1810.0077      90.365242      299.03941      0.11515565   
    188000   461.97397      1339.3557      1801.3297      52.828772      299.75056      0.11275323   
    189000   460.61001      1304.992       1765.602       52.722403      292.05989      0.11003082   
    190000   488.8539       1326.9552      1815.8091      83.229595      296.97529      0.10856727   
    191000   482.45122      1314.7039      1797.1551      116.57208      294.23343      0.10841298   
    192000   486.03479      1289.5596      1775.5944      121.93204      288.60608      0.10938723   
    193000   496.61444      1305.4832      1802.0976      124.54024      292.16982      0.11201435   
    194000   468.59504      1290.742       1759.337       66.67726       288.87071      0.11293196   
    195000   492.74218      1297.3046      1790.0468      62.119651      290.33944      0.11436556   
    196000   496.85343      1334.0875      1830.9409      63.550993      298.57152      0.11576201   
    197000   473.86721      1359.9726      1833.8398      124.97445      304.36466      0.1155612    
    198000   509.02721      1355.7899      1864.8171      181.6057       303.42857      0.11183551   
    199000   496.3439       1371.104       1867.4479      194.85923      306.8559       0.10661381   
    200000   500.98322      1351.1516      1852.1348      190.24563      302.39051      0.10535233   
    201000   514.55259      1329.6182      1844.1708      114.42357      297.57129      0.10656423   
    202000   501.42826      1324.3182      1825.7464      83.109045      296.38512      0.10943923   
    203000   486.22565      1331.9106      1818.1363      38.30645       298.08433      0.11196983   
    204000   493.62937      1330.0499      1823.6793      22.524339      297.6679       0.1140818    
    205000   486.8495       1338.099       1824.9485      16.984204      299.46931      0.11497444   
    206000   485.69413      1336.2121      1821.9063      56.131739      299.04702      0.11390035   
    207000   497.70923      1323.1624      1820.8716      61.62097       296.12646      0.10790052   
    208000   455.60904      1342.8674      1798.4765      83.050864      300.53649      0.10509969   
    209000   472.83723      1321.1872      1794.0244      112.74248      295.68441      0.10595835   
    210000   487.33494      1319.8934      1807.2283      118.55666      295.39485      0.10744405   
    211000   478.65322      1306.5664      1785.2196      112.40567      292.41223      0.11107098   
    212000   478.2061       1287.3797      1765.5858      86.600606      288.11821      0.11408045   
    213000   451.46831      1285.2736      1736.7419      82.68355       287.64688      0.11599176   
    214000   478.40761      1305.7427      1784.1503      95.591043      292.22789      0.11588857   
    215000   468.8442       1342.5022      1811.3464      137.38023      300.45476      0.11491322   
    216000   465.72976      1375.0942      1840.824       163.62363      307.74891      0.11375052   
    217000   493.77636      1362.0522      1855.8286      172.53241      304.83009      0.11216069   
    218000   469.03437      1379.5708      1848.6052      167.96213      308.75078      0.11024248   
    219000   481.3122       1335.3638      1816.676       112.32823      298.85716      0.10640976   
    220000   506.94893      1325.0238      1831.9727      68.466862      296.54304      0.10395589   
    221000   501.67444      1309.4192      1811.0937      36.735549      293.05071      0.10426344   
    222000   470.80247      1294.1726      1764.975       42.56009       289.63847      0.10864619   
    223000   472.09827      1331.5134      1803.6117      78.491141      297.99543      0.11294613   
    224000   486.82839      1345.3052      1832.1335      91.979176      301.08206      0.11361731   
    225000   446.35028      1370.656       1817.0063      134.90513      306.75563      0.11300895   
    226000   458.78589      1383.7159      1842.5017      141.17335      309.67845      0.11161978   
    227000   487.85512      1366.0277      1853.8828      145.88528      305.7198       0.10918058   
    228000   483.43605      1331.3658      1814.8018      108.88162      297.9624       0.10653338   
    229000   488.02631      1324.6748      1812.7011      102.00333      296.46493      0.10640292   
    230000   492.23377      1316.211       1808.4448      66.761981      294.57072      0.10835928   
    231000   464.82539      1271.4936      1736.319       68.465264      284.56288      0.11125715   
    232000   476.50231      1295.3606      1771.8629      87.934856      289.90435      0.11453476   
    233000   435.49676      1341.7762      1777.273       88.591247      300.29227      0.11454937   
    234000   485.38057      1357.973       1843.3536      74.468035      303.91715      0.1116274    
    235000   526.5644       1365.1364      1891.7008      79.965892      305.52032      0.10726076   
    236000   491.15511      1405.9334      1897.0885      129.39254      314.65078      0.10653532   
    237000   511.78036      1361.8817      1873.662       132.47725      304.79191      0.10846295   
    238000   503.95947      1365.107       1869.0664      131.7364       305.51374      0.11349713   
    239000   486.8529       1346.3357      1833.1886      104.10483      301.31269      0.11666472   
    240000   482.74018      1382.7103      1865.4505      78.517833      309.4534       0.11749443   
    241000   476.2613       1412.3113      1888.5726      105.94106      316.07816      0.11660566   
    242000   488.25732      1370.9263      1859.1837      130.235        306.81613      0.11355      
    243000   492.16688      1353.8418      1846.0087      147.2819       302.99258      0.10981777   
    244000   484.8481       1386.9639      1871.812       151.92558      310.40537      0.10838609   
    245000   502.01929      1349.1513      1851.1706      137.58554      301.94282      0.10912753   
    246000   493.78884      1344.3011      1838.09        125.83774      300.85735      0.11248529   
    247000   464.90551      1350.2252      1815.1307      111.31172      302.18318      0.11636474   
    248000   469.4401       1347.3611      1816.8012      82.593272      301.54218      0.11749763   
    249000   451.895        1317.9336      1769.8286      63.268684      294.95624      0.11634361   
    250000   492.23281      1302.15        1794.3828      77.922241      291.42383      0.11433127   
    251000   495.37662      1339.4713      1834.8479      64.246269      299.77643      0.1117686    
    252000   472.15417      1351.0887      1823.2429      101.69359      302.37643      0.11083196   
    253000   494.92582      1333.6863      1828.6121      88.074002      298.48174      0.11138843   
    254000   491.27484      1392.9632      1884.2381      80.677902      311.74803      0.11409295   
    255000   460.43517      1371.9745      1832.4097      72.827989      307.05071      0.11686657   
    256000   494.82463      1374.0138      1868.8384      77.553313      307.5071       0.12001892   
    257000   501.48124      1361.975       1863.4562      96.381651      304.81279      0.12051851   
    258000   476.78765      1364.2791      1841.0667      151.31042      305.32846      0.11927112   
    259000   496.8814       1347.6368      1844.5182      132.07172      301.60388      0.11436881   
    260000   500.83547      1349.995       1850.8305      123.05565      302.13165      0.10983301   
    261000   501.95985      1346.0932      1848.053       84.915829      301.25841      0.10748973   
    262000   494.37199      1353.6512      1848.0232      60.068303      302.94991      0.10730374   
    263000   518.84084      1367.7184      1886.5592      47.57163       306.09818      0.10922875   
    264000   474.78421      1330.6638      1805.448       100.03943      297.80529      0.11226618   
    265000   463.61984      1344.5825      1808.2023      95.506669      300.92032      0.11433639   
    266000   485.13471      1341.8062      1826.9409      101.95922      300.29898      0.11697499   
    267000   461.96455      1381.7623      1843.7268      97.441903      309.24123      0.11835646   
    268000   461.79283      1357.3022      1819.095       79.877101      303.76701      0.1193865    
    269000   487.45601      1368.4959      1855.9519      51.055243      306.2722       0.11960637   
    270000   462.566        1345.006       1807.572       74.398621      301.01511      0.11957802   
    271000   472.49804      1339.2538      1811.7518      105.53639      299.72775      0.11737194   
    272000   479.81343      1310.7618      1790.5752      123.1821       293.35118      0.11259624   
    273000   482.97097      1337.0232      1819.9942      142.05067      299.22855      0.10922751   
    274000   480.25101      1325.3835      1805.6345      148.67059      296.62355      0.10846108   
    275000   481.4333       1311.984       1793.4173      111.61759      293.6247       0.10814095   
    276000   495.66103      1281.5234      1777.1844      50.14112       286.80757      0.10896207   
    277000   484.86297      1329.6491      1814.512       30.96493       297.57819      0.11113298   
    278000   487.67353      1334.7848      1822.4583      43.402148      298.72758      0.11349858   
    279000   477.85475      1345.2607      1823.1154      59.770765      301.0721       0.11537765   
    280000   466.9609       1364.3032      1831.2641      112.99368      305.33385      0.11908138   
    281000   470.3179       1387.972       1858.2899      123.76965      310.63097      0.12075708   
    282000   474.25726      1377.998       1852.2553      145.30381      308.39878      0.11922227   
    283000   475.13329      1370.4183      1845.5515      103.12135      306.70242      0.11284349   
    284000   478.61457      1351.0226      1829.6372      78.326751      302.36163      0.11055352   
    285000   449.461        1356.0341      1805.4951      89.043117      303.48323      0.11190668   
    286000   495.41469      1346.4225      1841.8372      84.600434      301.33213      0.11615313   
    287000   461.53135      1316.182       1777.7134      100.79101      294.56424      0.11977035   
    288000   462.45052      1324.4103      1786.8608      115.50364      296.40574      0.12201851   
    289000   455.22718      1339.2897      1794.5169      134.8149       299.73578      0.12316347   
    290000   486.58443      1321.2845      1807.8689      145.81554      295.70618      0.12293859   
    291000   445.44383      1313.6253      1759.0691      106.37944      293.99204      0.119851     
    292000   478.09827      1291.4273      1769.5256      65.377732      289.02408      0.11654897   
    293000   483.80469      1320.8867      1804.6914      44.216743      295.61716      0.11362167   
    294000   479.86829      1311.969       1791.8373      53.899356      293.62135      0.11180513   
    295000   478.00132      1276.3074      1754.3087      63.273226      285.64022      0.1119439    
    296000   470.5528       1293.0513      1763.6041      56.322888      289.38753      0.11244933   
    297000   472.94772      1315.3436      1788.2913      71.585965      294.3766       0.11377605   
    298000   493.71901      1306.1815      1799.9005      56.549546      292.32609      0.11495559   
    299000   479.40682      1323.6145      1803.0213      60.625978      296.22764      0.11716383   
    300000   457.20378      1335.9014      1793.1052      75.572095      298.97748      0.12112636   
    301000   488.5121       1323.893       1812.4051      85.26014       296.28997      0.12558278   
    302000   494.25635      1368.6463      1862.9027      105.41855      306.30586      0.12618171   
    303000   484.49683      1352.5459      1837.0427      108.09008      302.70255      0.12357485   
    304000   497.02119      1354.5932      1851.6144      134.277        303.16073      0.12123437   
    305000   505.33617      1315.4198      1820.756       127.24239      294.39365      0.11878003   
    306000   495.49467      1335.9749      1831.4696      119.09937      298.99393      0.11700145   
    307000   489.49354      1381.2201      1870.7137      122.04192      309.1199       0.11612717   
    308000   478.24046      1346.5643      1824.8047      125.70227      301.36384      0.11543296   
    309000   477.19691      1354.0488      1831.2457      118.55708      303.0389       0.11496741   
    310000   481.86313      1352.406       1834.2691      139.36741      302.67124      0.11801051   
    311000   465.41217      1412.8244      1878.2366      160.33394      316.19301      0.12520411   
    312000   463.37269      1371.9896      1835.3623      120.26441      307.05408      0.12914148   
    313000   480.56568      1350.0216      1830.5873      65.649008      302.13761      0.12702088   
    314000   482.12117      1348.9491      1831.0703      34.679898      301.89758      0.12369399   
    315000   486.58107      1364.7936      1851.3746      67.035598      305.4436       0.12043869   
    316000   470.73004      1350.79        1821.52        88.283021      302.30957      0.1166857    
    317000   489.67905      1373.1157      1862.7948      133.30433      307.30612      0.1136099    
    318000   491.17449      1343.09        1834.2645      134.80436      300.58629      0.11140702   
    319000   508.03363      1363.8699      1871.9036      118.16336      305.23689      0.11034318   
    320000   473.24389      1354.7018      1827.9457      66.852768      303.18505      0.11065345   
    321000   507.02014      1363.2156      1870.2357      46.755323      305.09044      0.11336387   
    322000   473.98374      1362.3334      1836.3171      42.755051      304.89301      0.11628405   
    323000   473.04844      1374.904       1847.9525      80.251559      307.70635      0.12025139   
    324000   469.51429      1376.3025      1845.8168      82.819822      308.01934      0.12052449   
    325000   478.5606       1384.4416      1863.0022      109.56275      309.84088      0.11983021   
    326000   473.16038      1313.6986      1786.859       135.86528      294.00845      0.11865763   
    327000   477.95617      1315.6148      1793.571       166.06133      294.43729      0.11823923   
    328000   479.10828      1327.8097      1806.918       181.80145      297.16653      0.1181284    
    329000   481.79998      1348.0535      1829.8535      200.28497      301.69714      0.11813544   
    330000   474.4627       1401.5581      1876.0208      203.86724      313.67159      0.115568     
    331000   494.63575      1383.3358      1877.9715      163.22779      309.59338      0.10846108   
    332000   498.72933      1354.2805      1853.0099      119.12351      303.09076      0.10564214   
    333000   499.21981      1386.2001      1885.4199      107.1656       310.23442      0.10679701   
    334000   506.41917      1337.6549      1844.0741      52.333009      299.36992      0.10955269   
    335000   497.97948      1370.2984      1868.2778      39.816642      306.67559      0.11403321   
    336000   497.67099      1346.2958      1843.9668      27.273116      301.30377      0.11573481   
    337000   509.30434      1349.8519      1859.1563      53.602981      302.09963      0.11626726   
    338000   510.38945      1355.5353      1865.9247      81.291176      303.37158      0.11567978   
    339000   480.21553      1346.9833      1827.1988      136.57158      301.45763      0.11336175   
    340000   475.3497       1294.1236      1769.4733      113.88679      289.62751      0.1103939    
    341000   479.20397      1295.889       1775.093       100.16438      290.02262      0.10913582   
    342000   505.54686      1308.3757      1813.9226      100.05972      292.81717      0.11147416   
    343000   480.12065      1336.7922      1816.9129      121.88684      299.17684      0.11901364   
    344000   491.80395      1336.9858      1828.7897      153.33519      299.22016      0.12242904   
    345000   464.51876      1312.2478      1776.7665      145.66003      293.68374      0.12085968   
    346000   451.62361      1334.6991      1786.3227      134.3051       298.70839      0.11746334   
    347000   504.29353      1363.4091      1867.7026      131.60324      305.13376      0.11570027   
    348000   485.02812      1329.6474      1814.6755      107.28093      297.57781      0.11313405   
    349000   476.57148      1342.9443      1819.5158      80.245725      300.55369      0.11040788   
    350000   480.27612      1335.9545      1816.2306      72.203697      298.98936      0.11053127   
    351000   495.91273      1337.7474      1833.6601      48.298781      299.39061      0.11203489   
    352000   508.64997      1331.3382      1839.9882      34.617884      297.95622      0.11338258   
    353000   482.26947      1374.4243      1856.6938      62.860118      307.59898      0.11469242   
    354000   502.99016      1407.3559      1910.3461      53.300521      314.96914      0.11510748   
    355000   503.41857      1373.0847      1876.5032      59.343882      307.29916      0.11502504   
    356000   499.36213      1336.2886      1835.6507      78.816983      299.06412      0.11424218   
    357000   492.01843      1353.8431      1845.8615      95.058448      302.99286      0.11343383   
    358000   493.88563      1349.9485      1843.8341      109.57405      302.12124      0.1124486    
    359000   479.2958       1349.2719      1828.5677      132.48382      301.96983      0.11056844   
    360000   503.7756       1322.1064      1825.882       140.20771      295.89012      0.10858516   
    361000   499.32111      1300.4951      1799.8162      125.25898      291.05348      0.10633659   
    362000   484.99389      1326.2219      1811.2158      125.5148       296.81118      0.10658627   
    363000   476.92266      1329.7595      1806.6822      97.18338       297.6029       0.10941842   
    364000   476.55472      1322.5088      1799.0636      97.489588      295.98019      0.11274901   
    365000   505.62852      1323.6271      1829.2556      84.758608      296.23045      0.11427889   
    366000   491.38613      1272.5426      1763.9288      83.46058       284.79766      0.11454081   
    367000   495.6009       1315.6649      1811.2658      62.630839      294.44851      0.11472819   
    368000   476.62748      1348.0211      1824.6486      51.257486      301.68989      0.11406935   
    369000   485.61475      1353.8633      1839.478       39.396448      302.99739      0.11206105   
    370000   486.26888      1352.9493      1839.2182      27.108531      302.79284      0.10971973   
    371000   529.41662      1377.7699      1907.1865      36.968703      308.34773      0.10952101   
    372000   512.31776      1360.5257      1872.8435      53.146309      304.48845      0.11033103   
    373000   548.28971      1334.5568      1882.8465      109.77534      298.67655      0.11315345   
    374000   478.58077      1365.2033      1843.7841      158.10841      305.5353       0.11646271   
    375000   455.60293      1377.3015      1832.9044      202.02976      308.2429       0.11900965   
    376000   498.70979      1338.7137      1837.4234      158.56024      299.60686      0.11842092   
    377000   477.15384      1382.0577      1859.2115      87.345318      309.30735      0.11384861   
    378000   504.00434      1339.0306      1843.035       29.886729      299.67781      0.1083127    
    379000   522.0694       1356.0423      1878.1117      12.902152      303.48505      0.10597862   
    380000   532.5321       1333.2885      1865.8206      50.387577      298.39271      0.10685182   
    381000   500.41146      1347.1821      1847.5936      70.67807       301.50212      0.10863647   
    382000   508.08925      1373.6982      1881.7874      120.10295      307.43647      0.11035884   
    383000   521.78607      1396.57        1918.3561      110.67059      312.55523      0.11072327   
    384000   498.44726      1354.3431      1852.7904      98.58478       303.10477      0.110896     
    385000   484.20661      1391.7545      1875.9611      112.3716       311.4775       0.11285089   
    386000   496.56212      1364.0139      1860.5761      64.138121      305.26912      0.11405201   
    387000   511.38643      1336.2611      1847.6475      112.17421      299.05797      0.11641905   
    388000   461.52451      1356.7896      1818.3141      124.49643      303.65229      0.11759972   
    389000   463.9117       1304.6177      1768.5294      102.30173      291.97611      0.11694526   
    390000   464.25497      1302.0578      1766.3128      37.578382      291.40321      0.11543672   
    391000   459.51108      1318.7802      1778.2913      13.448846      295.14571      0.11419219   
    392000   491.65282      1324.6589      1816.3117     -0.75314438     296.46138      0.11234957   
    393000   483.50379      1320.99        1804.4938      32.232928      295.64027      0.1105101    
    394000   455.14298      1305.2931      1760.436       68.091076      292.12727      0.10850352   
    395000   457.18242      1313.5859      1770.7684      79.019527      293.98323      0.10922452   
    396000   480.29869      1322.6796      1802.9783      85.152124      296.0184       0.1136452    
    397000   467.20007      1348.4699      1815.67        77.472157      301.79034      0.11751903   
    398000   475.75961      1323.6431      1799.4027      92.716271      296.23405      0.11910002   
    399000   474.28691      1347.8892      1822.1761      137.85969      301.66037      0.11846632   
    400000   482.92225      1331.0994      1814.0216      124.05057      297.90278      0.11470758   
    401000   486.9833       1344.3641      1831.3474      108.80478      300.87145      0.11147469   
    402000   494.42393      1342.9897      1837.4136      87.277141      300.56385      0.10924366   
    403000   494.76438      1347.1354      1841.8998      63.289692      301.49167      0.1076449    
    404000   510.00148      1368.2498      1878.2513      80.037688      306.21711      0.10887303   
    405000   504.48024      1340.65        1845.1302      124.3156       300.04022      0.11099762   
    406000   488.36579      1342.6399      1831.0057      180.87853      300.48556      0.11377592   
    407000   503.98141      1376.4934      1880.4749      185.768        308.06206      0.11539385   
    408000   486.21377      1409.7248      1895.9385      136.05237      315.4993       0.11352216   
    409000   524.08426      1360.4787      1884.5629      76.738523      304.47792      0.10988718   
    410000   487.63231      1362.9091      1850.5414      66.277162      305.02185      0.10700397   
    411000   499.15952      1372.7525      1871.912       60.339847      307.22482      0.10603421   
    412000   486.38945      1370.4137      1856.8032      72.200983      306.70141      0.10720762   
    413000   495.45861      1350.9871      1846.4457      86.195212      302.35368      0.11011674   
    414000   483.43757      1363.618       1847.0556      136.59354      305.18051      0.11396882   
    415000   501.14776      1361.0645      1862.2123      146.73302      304.60903      0.11566657   
    416000   490.9017       1363.0187      1853.9204      166.54956      305.04637      0.11733413   
    417000   479.37471      1368.0128      1847.3875      162.83818      306.16407      0.11968303   
    418000   464.19935      1308.2806      1772.4799      92.9404        292.79588      0.12040816   
    419000   471.97548      1287.5865      1759.562       52.571887      288.16451      0.12122776   
    420000   464.38747      1341.6003      1805.9878      65.298143      300.25291      0.11988846   
    421000   462.1729       1331.5064      1793.6793      100.34125      297.99388      0.11567796   
    422000   483.49205      1347.0342      1830.5262      124.96309      301.46902      0.11197784   
    423000   510.79566      1321.4578      1832.2535      132.63292      295.74498      0.10999752   
    424000   495.44676      1365.1367      1860.5835      108.21932      305.5204       0.10970873   
    425000   511.79621      1378.8833      1890.6795      82.275008      308.59691      0.1100433    
    426000   517.0176       1389.2427      1906.2603      60.289606      310.91537      0.10923921   
    427000   507.08982      1360.8328      1867.9227      75.921772      304.55718      0.10997636   
    428000   495.67109      1363.7454      1859.4164      104.73635      305.20901      0.11258329   
    429000   475.76794      1393.1683      1868.9363      157.11489      311.79393      0.11722858   
    430000   468.20137      1393.5049      1861.7062      202.90278      311.86925      0.12021191   
    431000   454.05892      1373.1081      1827.167       208.90331      307.30441      0.11993562   
    432000   485.20717      1354.9421      1840.1492      164.00641      303.23881      0.11446327   
    433000   525.98147      1358.8782      1884.8597      130.7421       304.11973      0.10912664   
    434000   486.11901      1351.7903      1837.9093      72.423293      302.53344      0.10683004   
    435000   526.74133      1353.7823      1880.5236      26.371165      302.97925      0.10645294   
    436000   507.33793      1340.3259      1847.6639      37.927891      299.96769      0.10644043   
    437000   494.35852      1378.3469      1872.7054      69.683086      308.47687      0.10757244   
    438000   502.65245      1345.6395      1848.292       116.71501      301.15689      0.11161522   
    439000   496.23086      1374.6496      1870.8805      166.04695      307.64941      0.11503901   
    440000   468.06983      1364.8549      1832.9247      161.79672      305.45733      0.11444772   
    441000   489.0834       1415.8258      1904.9092      131.74897      316.86473      0.11215109   
    442000   498.20668      1395.0192      1893.2259      133.2426       312.20817      0.11117182   
    443000   487.73119      1369.2225      1856.9537      119.16107      306.43481      0.11003125   
    444000   509.56245      1355.5558      1865.1182      103.97388      303.37616      0.10856894   
    445000   499.80942      1358.3696      1858.179       99.288844      304.0059       0.10825207   
    446000   504.21027      1348.5733      1852.7836      76.36896       301.81347      0.10875871   
    447000   458.94191      1394.7998      1853.7417      86.45809       312.15906      0.10944811   
    448000   494.43071      1344.0564      1838.4871      72.52269       300.80258      0.11083216   
    449000   491.64445      1326.4337      1818.0781      91.715844      296.85858      0.11401501   
    450000   470.96502      1327.25        1798.215       96.626323      297.04126      0.11617344   
    451000   452.5394       1291.2406      1743.78        102.87203      288.98229      0.11641547   
    452000   457.45486      1340.7317      1798.1866      116.68551      300.05851      0.1143911    
    453000   477.90234      1314.1666      1792.069       129.04611      294.11319      0.10867266   
    454000   475.04427      1329.3001      1804.3444      125.85724      297.5001       0.10531163   
    455000   498.45386      1340.1886      1838.6424      140.55134      299.93695      0.10574629   
    456000   495.91102      1374.6409      1870.5519      130.88533      307.64746      0.10825707   
    457000   503.38677      1307.2699      1810.6567      76.900561      292.56969      0.11035062   
    458000   462.5864       1342.8771      1805.4635      69.274838      300.53866      0.11280448   
    459000   502.066        1332.2719      1834.3379      58.765328      298.1652       0.11550091   
    460000   487.06679      1390.2082      1877.275       91.34116       311.13146      0.11815174   
    461000   460.59157      1380.9801      1841.5717      129.44337      309.06618      0.12047292   
    462000   503.5941       1349.5973      1853.1914      151.35933      302.04265      0.12069863   
    463000   464.12538      1373.0249      1837.1503      102.7108       307.28579      0.1181293    
    464000   491.76879      1366.9795      1858.7483      76.892941      305.93282      0.11556342   
    465000   499.83015      1362.7991      1862.6293      49.427351      304.99724      0.11451827   
    466000   465.32344      1359.6788      1825.0022      47.022231      304.2989       0.11335605   
    467000   474.50183      1304.4529      1778.9548      68.279377      291.93924      0.11353217   
    468000   488.97799      1334.5278      1823.5058      110.37325      298.67006      0.11407745   
    469000   486.40415      1326.2259      1812.63        144.35177      296.81207      0.11481407   
    470000   465.27118      1332.574       1797.8452      188.67864      298.2328       0.11841466   
    471000   455.32628      1322.445       1777.7712      161.01553      295.96589      0.12279037   
    472000   458.64457      1299.2912      1757.9358      120.98919      290.78404      0.12579925   
    473000   474.46071      1286.3205      1760.7812      100.54609      287.88117      0.12696852   
    474000   463.07262      1366.4271      1829.4997      71.30886       305.80918      0.12401134   
    475000   470.91556      1356.9686      1827.8841      56.020961      303.69235      0.11592589   
    476000   470.99815      1362.4441      1833.4423      42.712058      304.9178       0.11346265   
    477000   517.09707      1351.2699      1868.367       33.709294      302.41698      0.11471011   
    478000   471.45791      1358.033       1829.4909      17.756986      303.93058      0.11699149   
    479000   486.25127      1313.3963      1799.6476      36.432071      293.9408       0.11903662   
    480000   473.68431      1300.0815      1773.7658      48.741347      290.96091      0.11904274   
    481000   475.08142      1275.1494      1750.2308      66.165195      285.38104      0.11739017   
    482000   487.95958      1311.1144      1799.0739      112.83272      293.43008      0.11312458   
    483000   470.63653      1320.9556      1791.5921      99.541105      295.63257      0.10792213   
    484000   497.91458      1338.5867      1836.5013      113.60412      299.57846      0.10727688   
    485000   484.47168      1366.163       1850.6347      138.44689      305.75008      0.10893996   
    486000   495.82781      1345.2659      1841.0938      140.33096      301.07328      0.11142925   
    487000   475.5907       1359.198       1834.7887      118.63027      304.1913       0.11403786   
    488000   497.20177      1397.108       1894.3098      131.08341      312.67565      0.11740431   
    489000   492.03225      1388.641       1880.6733      139.16318      310.78071      0.11913661   
    490000   467.20315      1388.2186      1855.4218      149.20714      310.68618      0.11869999   
    491000   513.08857      1337.0903      1850.1789      140.20913      299.24356      0.11692167   
    492000   487.02914      1355.9245      1842.9536      140.01329      303.45868      0.11370951   
    493000   502.50699      1360.6529      1863.1599      105.48654      304.51692      0.11071134   
    494000   505.52086      1333.9211      1839.4419      86.600775      298.53427      0.11042676   
    495000   485.69752      1381.5026      1867.2001      79.684023      309.18311      0.11661334   
    496000   482.32004      1333.9278      1816.2479      78.692458      298.53578      0.12246782   
    497000   457.39406      1346.4054      1803.7994      82.416183      301.32828      0.12411754   
    498000   506.71903      1321.1993      1827.9183      92.626722      295.68711      0.12444116   
    499000   478.33636      1325.5479      1803.8843      125.0067       296.66034      0.12264497   
    500000   473.29379      1346.0261      1819.3199      119.60725      301.24342      0.11726167   
    501000   502.58097      1322.6485      1825.2295      50.217015      296.01146      0.11267452   
    502000   515.00834      1325.9232      1840.9315      24.812227      296.74433      0.11183989   
    503000   472.04633      1336.2325      1808.2788      58.294802      299.05157      0.11205121   
    504000   469.42354      1326.242       1795.6656      98.774743      296.81569      0.11312256   
    505000   491.60498      1316.8603      1808.4652      97.042878      294.71603      0.11580471   
    506000   490.55987      1348.7294      1839.2892      120.81948      301.8484       0.12088701   
    507000   500.16784      1350.0047      1850.1726      152.92709      302.13383      0.12285963   
    508000   486.62937      1359.3499      1845.9792      143.90578      304.22529      0.12173539   
    509000   461.43126      1357.3914      1818.8226      120.46795      303.78698      0.12031524   
    510000   490.53543      1362.5372      1853.0726      83.7329        304.93862      0.11953263   
    511000   479.91294      1388.0207      1867.9336      81.895336      310.64188      0.11791588   
    512000   523.51138      1365.7137      1889.225       70.100783      305.64952      0.11624157   
    513000   479.83299      1346.3764      1826.2094      88.117602      301.32181      0.11531653   
    514000   502.4495       1336.8926      1839.3421      102.80389      299.1993       0.11548692   
    515000   502.5002       1328.6925      1831.1927      94.617792      297.3641       0.11562097   
    516000   496.02374      1315.8947      1811.9184      78.168528      294.49993      0.1143619    
    517000   486.56717      1367.5298      1854.097       117.57357      306.05598      0.11396182   
    518000   502.62127      1311.4379      1814.0591      114.51742      293.50248      0.11340887   
    519000   482.6137       1329.565       1812.1787      114.974        297.55939      0.11164849   
    520000   498.54394      1305.5708      1804.1147      80.45645       292.18942      0.10698685   
    521000   497.22715      1332.2639      1829.4911      48.658665      298.1634       0.10382898   
    522000   497.39144      1331.4566      1828.848       26.261677      297.98271      0.10543246   
    523000   502.3062       1301.6135      1803.9197      15.117001      291.30377      0.11070378   
    524000   482.71557      1339.3244      1822.0399      70.87263       299.74354      0.11314295   
    525000   483.81567      1317.063       1800.8787      108.35503      294.7614       0.11408238   
    526000   461.5676       1341.9314      1803.499       154.71714      300.32701      0.11520027   
    527000   480.96345      1334.9265      1815.89        148.28455      298.75929      0.11766498   
    528000   500.81608      1335.0786      1835.8947      98.355966      298.79333      0.11918136   
    529000   475.91501      1390.9433      1866.8583      60.307848      311.29596      0.12060623   
    530000   471.8921       1421.601       1893.4931      85.698402      318.15722      0.11983054   
    531000   477.92141      1372.3585      1850.2799      62.064643      307.13664      0.11320144   
    532000   505.3543       1334.321       1839.6753      85.779824      298.62378      0.10938985   
    533000   502.19952      1378.5303      1880.7298      112.55398      308.51791      0.10931744   
    534000   461.10705      1378.7387      1839.8457      140.82251      308.56455      0.11113442   
    535000   509.52994      1348.5907      1858.1206      119.06774      301.81737      0.11420462   
    536000   494.86045      1339.5024      1834.3628      123.50438      299.78338      0.11701382   
    537000   491.17319      1347.9298      1839.103       120.66343      301.66947      0.11789711   
    538000   462.95201      1292.181       1755.1331      115.92029      289.19277      0.11642519   
    539000   474.49365      1327.9998      1802.4934      109.10284      297.20907      0.11304466   
    540000   506.14986      1310.39        1816.5399      101.16721      293.26798      0.11002714   
    541000   483.1257       1322.5079      1805.6336      104.67524      295.97998      0.109916     
    542000   495.59336      1314.692       1810.2853      72.179221      294.23076      0.11105147   
    543000   481.45472      1338.9963      1820.451       71.131001      299.67011      0.11346243   
    544000   473.06793      1343.1672      1816.2351      40.907771      300.60357      0.11534305   
    545000   508.25434      1320.7248      1828.9792      46.956556      295.58093      0.11617903   
    546000   498.34905      1343.0719      1841.421       130.08068      300.58225      0.11627313   
    547000   501.79125      1342.5996      1844.3908      174.55289      300.47655      0.11313396   
    548000   473.0597       1375.2417      1848.3014      191.69242      307.78192      0.10901296   
    549000   524.64233      1362.3035      1886.9458      155.94919      304.88632      0.10673404   
    550000   513.64851      1385.1666      1898.8151      99.666782      310.00313      0.10621276   
    551000   485.18347      1392.6781      1877.8616      57.321693      311.68423      0.10696456   
    552000   475.06432      1370.8922      1845.9566      36.506734      306.8085       0.11101822   
    553000   477.62279      1355.824       1833.4468      41.827625      303.43619      0.11546593   
    554000   489.8926       1322.5796      1812.4722      66.346345      295.99604      0.11691529   
    555000   476.04898      1346.7396      1822.7886      128.38712      301.40309      0.11714243   
    556000   473.45731      1317.5539      1791.0112      133.70796      294.87127      0.11598436   
    557000   488.45631      1338.0892      1826.5455      126.79476      299.46711      0.11468445   
    558000   493.85518      1311.6626      1805.5178      86.059128      293.55278      0.11266995   
    559000   475.65016      1277.9448      1753.595       85.41344       286.00668      0.11050238   
    560000   462.14502      1304.9288      1767.0738      55.148993      292.04574      0.10898221   
    561000   489.17445      1328.0174      1817.1919      82.917358      297.21302      0.11112039   
    562000   483.15592      1345.7157      1828.8716      82.442047      301.17393      0.11520222   
    563000   473.33289      1387.4333      1860.7662      94.628496      310.51042      0.11761171   
    564000   490.80326      1392.3551      1883.1584      113.82483      311.61193      0.11752136   
    565000   486.20743      1351.2849      1837.4924      88.067293      302.42034      0.11549484   
    566000   500.19873      1366.0643      1866.263       117.83879      305.72799      0.11348492   
    567000   504.57835      1399.9812      1904.5596      126.47754      313.31867      0.11136178   
    568000   496.81777      1378.2482      1875.0659      124.26374      308.45477      0.11052113   
    569000   496.88413      1356.6736      1853.5577      102.00916      303.62633      0.11152871   
    570000   499.8886       1350.3836      1850.2722      109.58509      302.21862      0.11339811   
    571000   508.03305      1373.2734      1881.3064      114.87609      307.3414       0.11419967   
    572000   499.74729      1407.4514      1907.1987      142.16272      314.99051      0.11472809   
    573000   501.03888      1369.3379      1870.3768      154.06606      306.46064      0.11445772   
    574000   485.01098      1378.9196      1863.9306      160.35495      308.60504      0.11401539   
    575000   494.80544      1363.2857      1858.0911      132.07902      305.10614      0.11313745   
    576000   503.8504       1373.6443      1877.4947      99.335309      307.4244       0.11288962   
    577000   503.55757      1420.2141      1923.7716      78.119087      317.84683      0.11178583   
    578000   501.81781      1381.1745      1882.9923      62.512454      309.10969      0.10921963   
    579000   499.55227      1360.5146      1860.0669      61.871015      304.48596      0.10705451   
    580000   495.51478      1353.5622      1849.077       78.549762      302.93001      0.10624235   
    581000   513.58823      1374.9118      1888.5         80.189347      307.70808      0.10669528   
    582000   498.06104      1346.5359      1844.597       93.365324      301.3575       0.10830758   
    583000   477.54831      1364.9833      1842.5316      118.28624      305.48606      0.11107      
    584000   509.22426      1363.3626      1872.5869      108.62344      305.12335      0.11339391   
    585000   513.71062      1353.6564      1867.3671      99.153457      302.95109      0.11355375   
    586000   486.34505      1353.5036      1839.8486      93.409742      302.91688      0.11234565   
    587000   507.19601      1355.8543      1863.0503      81.076364      303.44297      0.11131913   
    588000   501.49825      1338.7436      1840.2419      79.057233      299.61357      0.11046503   
    589000   467.09273      1361.7453      1828.838       88.797884      304.76139      0.11143725   
    590000   505.66164      1349.6556      1855.3173      77.134965      302.0557       0.11156886   
    591000   519.31293      1369.1501      1888.463       94.836701      306.41861      0.11029697   
    592000   520.70307      1324.7086      1845.4117      106.15873      296.47251      0.10594296   
    593000   504.99319      1317.7985      1822.7917      108.606        294.926        0.10155183   
    594000   503.36296      1344.4556      1847.8185      115.97049      300.89191      0.10091346   
    595000   500.44176      1324.8645      1825.3063      116.17585      296.5074       0.10322032   
    596000   490.69635      1310.8734      1801.5697      105.33605      293.37615      0.10643959   
    597000   495.76655      1338.4708      1834.2373      90.798615      299.5525       0.10867149   
    598000   469.68462      1332.6583      1802.3429      83.824736      298.25165      0.11077831   
    599000   523.66112      1310.0416      1833.7028      90.660613      293.19001      0.11228161   
    600000   495.43212      1327.3125      1822.7446      106.26596      297.05526      0.11200826   
    601000   479.22595      1302.1408      1781.3668      108.22748      291.42179      0.11132428   
    602000   475.25976      1330.9635      1806.2232      89.416305      297.87236      0.11188398   
    603000   475.86135      1317.6902      1793.5516      78.325784      294.90178      0.11412366   
    604000   488.00515      1325.0631      1813.0682      89.126042      296.55184      0.11725509   
    605000   488.8033       1295.0422      1783.8455      104.56917      289.8331       0.11849275   
    606000   476.22159      1331.1686      1807.3902      158.37759      297.91827      0.11720732   
    607000   487.66986      1311.3373      1799.0071      159.64727      293.47997      0.11318882   
    608000   481.02397      1307.6507      1788.6746      132.83309      292.65491      0.10950637   
    609000   476.53461      1316.4945      1793.0291      112.15683      294.63416      0.10890509   
    610000   457.6426       1339.9319      1797.5745      86.572967      299.8795       0.10965776   
    611000   491.86028      1325.2156      1817.0759      83.635523      296.58598      0.11168901   
    612000   461.56199      1327.5665      1789.1285      82.871003      297.1121       0.1142759    
    613000   494.16207      1297.2477      1791.4098      97.479291      290.32671      0.11796721   
    614000   479.03932      1335.6785      1814.7178      112.41344      298.9276       0.11938571   
    615000   472.6893       1286.3806      1759.0699      115.80153      287.89462      0.11905027   
    616000   473.24854      1319.0343      1792.2828      120.1483       295.20258      0.11781786   
    617000   503.3154       1347.889       1851.2044      134.10886      301.66031      0.11501406   
    618000   514.86392      1326.4098      1841.2737      140.11013      296.85323      0.11265176   
    619000   486.00979      1357.0031      1843.0129      164.10118      303.70008      0.11033192   
    620000   512.39157      1343.0448      1855.4364      106.90891      300.57619      0.10597494   
    621000   500.52343      1366.4569      1866.9803      81.516344      305.81586      0.10562643   
    622000   480.58967      1371.3509      1851.9406      73.242645      306.91115      0.1109464    
    623000   489.75487      1334.9945      1824.7494      88.398367      298.77451      0.11611875   
    624000   481.78443      1332.1143      1813.8987      104.12267      298.12992      0.11760825   
    625000   470.53558      1348.6996      1819.2352      116.89561      301.84175      0.11783835   
    626000   494.04382      1350.5947      1844.6386      96.89684       302.26587      0.11717067   
    627000   513.02268      1346.1103      1859.133       80.12657       301.26224      0.11452881   
    628000   506.42219      1363.1881      1869.6103      53.81992       305.0843       0.11095641   
    629000   487.84141      1345.4682      1833.3096      85.748316      301.11855      0.10902351   
    630000   482.47444      1375.2009      1857.6753      120.94206      307.77278      0.1115306    
    631000   493.2321       1359.1739      1852.4061      191.86984      304.18592      0.11816269   
    632000   452.49027      1373.2038      1825.6941      164.41836      307.32583      0.12053864   
    633000   493.82506      1356.171       1849.9961      143.08896      303.51386      0.12080304   
    634000   472.45125      1369.5101      1841.9613      98.711778      306.49917      0.11934889   
    635000   477.44404      1362.9904      1840.4345      67.22666       305.04006      0.11712613   
    636000   510.17618      1347.3671      1857.5433      65.578197      301.54352      0.11391056   
    637000   496.69526      1342.527       1839.2223      99.711873      300.4603       0.11274427   
    638000   495.62826      1335.0621      1830.6904      109.64823      298.78964      0.11434902   
    639000   478.97198      1335.6711      1814.6431      127.32361      298.92594      0.11915587   
    640000   454.52769      1353.1377      1807.6654      142.42212      302.83499      0.12282079   
    641000   475.58224      1328.7435      1804.3257      140.22895      297.37552      0.12232313   
    642000   492.13355      1291.1662      1783.2997      109.29876      288.96564      0.1201079    
    643000   441.42433      1321.3664      1762.7907      70.119373      295.72452      0.11887348   
    644000   489.26456      1316.3127      1805.5773      37.237571      294.59349      0.11922769   
    645000   473.33101      1336.9602      1810.2912      45.106473      299.21444      0.11911809   
    646000   473.77243      1354.6917      1828.4642      112.37764      303.18279      0.11906435   
    647000   495.5828       1397.6518      1893.2346      172.15047      312.79733      0.11965557   
    648000   495.27538      1392.9214      1888.1968      200.52861      311.73867      0.12042776   
    649000   481.38928      1360.6679      1842.0571      194.50243      304.52026      0.12159532   
    650000   468.6541       1367.8586      1836.5127      142.0373       306.12955      0.12397645   
    651000   463.97834      1347.681       1811.6594      100.09177      301.61378      0.12576763   
    652000   448.99347      1315.1744      1764.1678      85.416401      294.33873      0.12503053   
    653000   468.05432      1271.9792      1740.0335      85.84473       284.67156      0.11995741   
    654000   471.77274      1335.5124      1807.2851      114.51453      298.89042      0.11549681   
    655000   464.888        1313.1849      1778.0729      133.21008      293.89347      0.1141559    
    656000   491.42346      1288.2963      1779.7197      103.48703      288.32335      0.1150255    
    657000   481.42258      1312.8185      1794.2411      83.785899      293.81147      0.11905224   
    658000   468.07043      1326.3161      1794.3865      85.156193      296.83226      0.12106821   
    659000   479.54184      1294.5456      1774.0874      65.559648      289.72196      0.11936275   
    660000   482.48529      1330.4224      1812.9077      95.261346      297.75126      0.11784447   
    661000   472.64793      1338.7396      1811.3875      114.87837      299.61267      0.11643731   
    662000   475.11255      1316.2825      1791.395       107.84582      294.58672      0.1167546    
    663000   482.51244      1311.5038      1794.0162      91.561992      293.51725      0.11820643   
    664000   479.79337      1324.59        1804.3833      109.3762       296.44595      0.11931471   
    665000   462.95429      1349.7708      1812.7251      127.0255       302.08148      0.11768973   
    666000   483.4271       1354.9896      1838.4167      123.00536      303.24944      0.11309247   
    667000   490.4562       1375.4722      1865.9284      142.14302      307.8335       0.11036896   
    668000   496.76764      1400.9248      1897.6924      159.5357       313.52984      0.11101596   
    669000   477.23131      1365.3929      1842.6243      154.83144      305.57774      0.11416943   
    670000   485.77946      1345.8004      1831.5799      138.88192      301.1929       0.1180617    
    671000   482.14775      1335.9428      1818.0905      107.20631      298.98673      0.11980683   
    672000   474.07547      1297.5873      1771.6627      77.970713      290.40269      0.11912999   
    673000   474.2454       1319.5148      1793.7602      64.927296      295.31013      0.11728184   
    674000   479.99074      1319.8447      1799.8355      107.93152      295.38396      0.11538471   
    675000   449.26888      1316.5404      1765.8093      131.48628      294.64444      0.1126422    
    676000   488.50552      1303.7837      1792.2892      116.50205      291.78947      0.11110211   
    677000   491.47993      1363.2698      1854.7497      124.50506      305.10257      0.11104161   
    678000   474.94211      1354.8326      1829.7747      89.418634      303.21431      0.11133368   
    679000   497.22091      1354.9542      1852.1751      82.60459       303.24153      0.11380748   
    680000   485.77206      1348.8394      1834.6115      85.041909      301.87304      0.11832296   
    681000   499.45572      1356.5386      1855.9943      94.955519      303.59612      0.12064266   
    682000   465.22851      1351.1515      1816.38        105.83752      302.39047      0.12060761   
    683000   479.16878      1345.3141      1824.4828      117.29892      301.08405      0.11956153   
    684000   496.33474      1329.2928      1825.6276      151.2607       297.49846      0.11889223   
    685000   466.62218      1375.8245      1842.4467      178.06595      307.91235      0.11791797   
    686000   462.97143      1360.0851      1823.0565      158.05133      304.38983      0.11474959   
    687000   493.83414      1356.661       1850.4951      143.01038      303.62352      0.11001406   
    688000   491.79988      1329.1981      1820.998       117.36406      297.47727      0.10744571   
    689000   497.52905      1291.9421      1789.4711      84.447016      289.13929      0.10909249   
    690000   496.59633      1307.7405      1804.3368      52.595832      292.67501      0.1132305    
    691000   484.45384      1300.7243      1785.1782      30.645838      291.10478      0.11618181   
    692000   459.27312      1335.7018      1794.975       36.813753      298.93281      0.11705168   
    693000   444.86946      1355.5432      1800.4127      74.62131       303.37336      0.11647338   
    694000   479.97635      1323.288       1803.2643      110.40295      296.15456      0.11563468   
    695000   488.06342      1340.5043      1828.5677      95.956235      300.00761      0.11484863   
    696000   479.94299      1340.0568      1819.9997      94.762619      299.90745      0.11472589   
    697000   462.48233      1374.1838      1836.6661      94.976017      307.54516      0.11601363   
    698000   485.80731      1423.8217      1909.629       132.10023      318.65421      0.11877856   
    699000   505.71001      1358.0134      1863.7234      158.19215      303.92619      0.11825966   
    700000   487.48422      1358.0538      1845.538       220.7933       303.93522      0.11430281   
    701000   492.5484       1362.308       1854.8564      200.81969      304.88733      0.10984609   
    702000   480.00515      1384.7051      1864.7102      143.48288      309.89984      0.10907615   
    703000   499.46483      1395.4489      1894.9138      53.92037       312.30433      0.10986889   
    704000   507.41531      1376.6604      1884.0757     -18.587195      308.09942      0.11260654   
    705000   477.01378      1343.3086      1820.3224      2.0269708      300.63522      0.11646203   
    706000   493.14235      1347.9109      1841.0533      63.088339      301.66523      0.11838972   
    707000   489.01185      1340.227       1829.2389      135.16096      299.94555      0.11819817   
    708000   476.82043      1324.0732      1800.8937      168.90061      296.33031      0.11777404   
    709000   456.09776      1301.8238      1757.9215      151.79828      291.35084      0.1160108    
    710000   464.76668      1321.3391      1786.1058      138.0408       295.71841      0.11377495   
    711000   483.26569      1341.4777      1824.7433      84.773122      300.22545      0.11219186   
    712000   505.21591      1359.7113      1864.9272      84.606466      304.30619      0.11295995   
    713000   487.00874      1343.9584      1830.9671      100.85844      300.78065      0.11465426   
    714000   464.21458      1382.4498      1846.6644      143.70324      309.3951       0.11764355   
    715000   488.24467      1336.1056      1824.3503      133.47741      299.02317      0.12048289   
    716000   496.10201      1345.0928      1841.1948      119.94181      301.03453      0.12268203   
    717000   485.18842      1345.0038      1830.1923      111.75169      301.01462      0.1247867    
    718000   476.66794      1333.3033      1809.9713      72.831802      298.39603      0.12453031   
    719000   474.47315      1339.8303      1814.3034      74.347314      299.85676      0.11957641   
    720000   490.72166      1387.9016      1878.6232      73.467308      310.61522      0.1146325    
    721000   496.86631      1340.6083      1837.4747      102.54599      300.0309       0.11172655   
    722000   491.74151      1390.2459      1881.9874      93.773642      311.13988      0.11035512   
    723000   539.11395      1347.89        1887.0039      106.78489      301.66055      0.10994316   
    724000   508.17891      1349.0021      1857.1811      93.16887       301.90945      0.1101646    
    725000   464.06594      1349.4842      1813.5502      116.72671      302.01734      0.1124809    
    726000   471.00907      1307.2208      1778.2298      121.95113      292.55869      0.11580467   
    727000   493.89784      1303.0827      1796.9805      116.632        291.63257      0.12017867   
    728000   459.70472      1312.0424      1771.7471      124.55403      293.63778      0.1230439    
    729000   466.92959      1342.5498      1809.4794      99.47629       300.4654       0.12043536   
    730000   441.10437      1278.4341      1719.5384      68.893451      286.11617      0.11572751   
    731000   470.72416      1303.119       1773.8432      89.690091      291.64071      0.1121703    
    732000   496.30287      1322.5901      1818.893       145.91624      295.99838      0.10993329   
    733000   510.82483      1306.977       1817.8018      178.44729      292.50414      0.10857297   
    734000   515.24036      1287.3232      1802.5636      145.80205      288.10558      0.10863437   
    735000   478.60513      1278.0509      1756.656       115.29839      286.03041      0.11091422   
    736000   461.72083      1317.6051      1779.3259      85.605286      294.88272      0.11398092   
    737000   466.4074       1336.8503      1803.2577      28.927848      299.18985      0.11573106   
    738000   471.57243      1283.9888      1755.5612      19.654603      287.35933      0.11596422   
    739000   476.23871      1303.1692      1779.4079      47.609408      291.65193      0.11475992   
    740000   491.3195       1334.9868      1826.3063      102.16302      298.77278      0.1138567    
    741000   495.59148      1322.8174      1818.4088      131.8217       296.04924      0.11330907   
    742000   500.88367      1328.4526      1829.3362      136.13306      297.31041      0.11381196   
    743000   492.68705      1339.6212      1832.3082      116.46964      299.80997      0.11549616   
    744000   499.31334      1330.6         1829.9133      79.798702      297.791        0.1174515    
    745000   464.1743       1326.5959      1790.7702      87.263821      296.89489      0.11967796   
    746000   476.44108      1328.2148      1804.6559      102.7274       297.25721      0.12058053   
    747000   470.41843      1333.5177      1803.9361      124.33188      298.44399      0.11992597   
    748000   448.24119      1329.1092      1777.3504      145.9394       297.45738      0.11827837   
    749000   479.42715      1378.7968      1858.2239      120.2561       308.57755      0.11333507   
    750000   498.27856      1357.5193      1855.7978      80.041644      303.8156       0.11031006   
    751000   490.93385      1338.414       1829.3478      77.85801       299.5398       0.1113559    
    752000   505.36074      1317.217       1822.5778      88.303322      294.79587      0.11496607   
    753000   483.46362      1320.9928      1804.4564      114.03487      295.6409       0.11959372   
    754000   463.89095      1347.5908      1811.4817      147.26888      301.59358      0.12230992   
    755000   497.26132      1338.1304      1835.3917      125.32257      299.47633      0.12133362   
    756000   513.43364      1381.5087      1894.9424      59.224441      309.18449      0.11786551   
    757000   483.90089      1368.1133      1852.0142      30.085748      306.18657      0.11415957   
    758000   506.35915      1333.3753      1839.7344      22.814469      298.41213      0.11250205   
    759000   484.19929      1361.4331      1845.6324      45.500308      304.69152      0.11247345   
    760000   491.00928      1341.8318      1832.8411      68.839803      300.30471      0.11368945   
    761000   491.54557      1346.1385      1837.6841      73.428039      301.26856      0.11370082   
    762000   491.0889       1290.7917      1781.8806      55.470247      288.88183      0.11359496   
    763000   466.44289      1325.901       1792.3439      50.125667      296.73937      0.11387459   
    764000   492.16224      1333.5203      1825.6825      70.633005      298.44458      0.11516929   
    765000   477.40539      1342.5504      1819.9558      84.313066      300.46554      0.11610177   
    766000   473.29093      1326.5479      1799.8389      103.44855      296.88415      0.11705843   
    767000   475.9347       1294.1117      1770.0464      114.33206      289.62485      0.11621163   
    768000   479.50818      1331.7786      1811.2867      120.13562      298.05478      0.11369398   
    769000   479.25039      1297.6797      1776.9301      112.37528      290.42339      0.11133763   
    770000   489.01446      1328.6111      1817.6256      97.093427      297.3459       0.10653181   
    771000   512.14078      1332.0627      1844.2035      72.414195      298.11836      0.10123854   
    772000   493.19524      1325.9174      1819.1126      75.656838      296.74303      0.10131323   
    773000   520.08049      1323.1823      1843.2628      48.167692      296.13091      0.10482837   
    774000   491.46574      1338.9527      1830.4184      67.005768      299.66035      0.10889055   
    775000   496.70612      1343.0709      1839.777       105.70347      300.58202      0.11290216   
    776000   492.58912      1374.189       1866.7781      111.50299      307.54631      0.11628367   
    777000   493.08147      1359.0942      1852.1757      122.8279       304.16807      0.11846492   
    778000   493.99328      1352.9224      1846.9157      90.690011      302.78681      0.11766027   
    779000   501.4973       1366.1947      1867.692       100.00446      305.75718      0.11553622   
    780000   482.56596      1352.3147      1834.8806      107.5199       302.6508       0.11245417   
    781000   492.8982       1355.6957      1848.5939      116.10488      303.40748      0.1114975    
    782000   489.21425      1355.8069      1845.0211      115.10343      303.43237      0.11187318   
    783000   495.19541      1345.1843      1840.3797      117.34889      301.05501      0.11230721   
    784000   493.53381      1356.0027      1849.5365      99.668003      303.47618      0.11156641   
    785000   493.64642      1342.6576      1836.304       82.275897      300.48952      0.11161837   
    786000   484.2582       1379.0352      1863.2934      82.865814      308.6309       0.11351586   
    787000   488.24793      1349.18        1837.4279      105.30726      301.94925      0.11735176   
    788000   486.00008      1354.5429      1840.543       138.10876      303.14948      0.12013034   
    789000   513.83884      1386.6543      1900.4932      141.96056      310.33608      0.11951448   
    790000   497.17146      1374.0829      1871.2544      132.4955       307.52257      0.11543223   
    791000   488.24237      1371.5707      1859.813       86.165639      306.96033      0.11192198   
    792000   506.87544      1331.3176      1838.193       78.942354      297.9516       0.11159476   
    793000   478.41747      1318.2816      1796.699       69.239132      295.03412      0.11110798   
    794000   488.92813      1278.5012      1767.4293      106.51718      286.13119      0.11137595   
    795000   483.12546      1291.3449      1774.4704      141.88585      289.00565      0.11194519   
    796000   490.73574      1311.1316      1801.8674      166.4453       293.43395      0.11308936   
    797000   491.73442      1331.5014      1823.2358      179.52001      297.99274      0.11430379   
    798000   495.04017      1317.4134      1812.4536      183.71945      294.83982      0.1149051    
    799000   472.3364       1325.3207      1797.6571      123.93166      296.60949      0.11420605   
    800000   475.17893      1294.4332      1769.6122      85.530699      289.69681      0.11450211   
    801000   484.3399       1348.4232      1832.7631      85.367209      301.77989      0.11542745   
    802000   516.71012      1335.4506      1852.1608      85.36338       298.8766       0.11601472   
    803000   492.00512      1349.4002      1841.4054      128.78838      301.99854      0.11611902   
    804000   494.30956      1364.8517      1859.1612      164.65527      305.45661      0.11286612   
    805000   504.67445      1387.7138      1892.3883      174.34949      310.5732       0.10673616   
    806000   505.07279      1347.4932      1852.566       147.51812      301.57175      0.10501798   
    807000   505.9135       1332.1704      1838.0839      104.6872       298.14246      0.10682452   
    808000   493.11722      1350.809       1843.9262      70.70642       302.31383      0.10991804   
    809000   496.81322      1365.8809      1862.6941      35.40917       305.68694      0.11361852   
    810000   497.84685      1347.0552      1844.902       19.820071      301.47371      0.11522495   
    811000   508.16691      1355.1098      1863.2767      38.753474      303.27635      0.11609551   
    812000   500.4597       1337.9192      1838.3789      58.434556      299.42907      0.11603301   
    813000   508.77014      1365.065       1873.8351      85.607246      305.50435      0.11585348   
    814000   489.24138      1347.8752      1837.1166      109.51645      301.65724      0.11617248   
    815000   486.56895      1377.2062      1863.7751      128.11523      308.22157      0.11838342   
    816000   470.93319      1395.8354      1866.7686      122.81686      312.39082      0.11805401   
    817000   472.05093      1342.7496      1814.8006      80.78986       300.51013      0.11547074   
    818000   491.87452      1323.0865      1814.961       62.912052      296.10948      0.11323383   
    819000   508.4078       1295.4044      1803.8122      41.555297      289.91416      0.11219113   
    820000   509.22483      1269.1242      1778.349       76.822915      284.03259      0.11458116   
    821000   465.60387      1296.8956      1762.4994      90.771026      290.24789      0.11934625   
    822000   461.86454      1337.6085      1799.473       108.17132      299.35952      0.12288977   
    823000   466.24881      1316.2032      1782.452       90.743462      294.56898      0.1219116    
    824000   459.16166      1326.2373      1785.399       73.36972       296.81464      0.11951189   
    825000   465.11452      1304.1028      1769.2173      45.719622      291.86088      0.11733987   
    826000   502.18534      1340.342       1842.5274      67.208034      299.97129      0.11581778   
    827000   483.03996      1359.5555      1842.5955      101.19732      304.27132      0.11418853   
    828000   502.99226      1359.5053      1862.4976      152.17733      304.26008      0.11379698   
    829000   496.96757      1376.0022      1872.9698      191.6006       307.95212      0.1138292    
    830000   480.93771      1369.8637      1850.8014      184.31322      306.5783       0.1141292    
    831000   506.49339      1387.7555      1894.2488      177.304        310.58252      0.11680122   
    832000   470.38558      1357.3131      1827.6987      159.69019      303.76946      0.12042197   
    833000   470.29227      1360.7878      1831.0801      119.76595      304.5471       0.12139713   
    834000   483.5237       1346.6415      1830.1652      96.316776      301.38113      0.11942588   
    835000   486.98347      1348.237       1835.2204      67.961004      301.7382       0.1157276    
    836000   504.1183       1364.9012      1869.0195      59.636111      305.4677       0.11319767   
    837000   499.01783      1347.7911      1846.809       47.486323      301.63842      0.1122102    
    838000   477.56728      1358.4516      1836.0189      56.584662      304.02427      0.11307009   
    839000   471.28808      1338.4421      1809.7302      100.81228      299.5461       0.11564148   
    840000   499.43035      1322.728       1822.1584      167.19249      296.02925      0.12216987   
    841000   497.02258      1326.8802      1823.9027      223.72251      296.9585       0.12568703   
    842000   481.13295      1323.1755      1804.3084      216.78217      296.12939      0.12300958   
    843000   457.31153      1334.5717      1791.8832      158.84797      298.67988      0.11903354   
    844000   480.88751      1347.1357      1828.0232      80.557718      301.49174      0.11697153   
    845000   479.34934      1335.4558      1814.8052      17.194276      298.87775      0.11438414   
    846000   517.84721      1322.6143      1840.4615      17.42617       296.0038       0.11317865   
    847000   485.37901      1335.1819      1820.5609      73.835259      298.81644      0.1153581    
    848000   460.57868      1343.9685      1804.5472      106.00993      300.78291      0.11812276   
    849000   466.9034       1296.2108      1763.1142      111.81651      290.09465      0.11818089   
    850000   478.94359      1316.4         1795.3435      112.22512      294.61301      0.11708333   
    851000   485.99584      1322.2889      1808.2847      99.568586      295.93097      0.11384589   
    852000   478.42794      1329.6015      1808.0294      90.874242      297.56754      0.10798629   
    853000   517.38428      1360.5775      1877.9618      63.766488      304.50004      0.10585391   
    854000   478.31219      1421.3002      1899.6124      110.49986      318.0899       0.10750344   
    855000   483.76756      1379.1679      1862.9355      131.34358      308.66061      0.11067281   
    856000   498.74398      1344.3464      1843.0904      131.21127      300.86749      0.11354703   
    857000   488.70734      1362.4145      1851.1218      118.17617      304.91116      0.11626577   
    858000   480.2572       1341.4319      1821.6891      92.297564      300.21521      0.11770522   
    859000   464.16716      1330.1262      1794.2934      63.98982       297.68498      0.11745897   
    860000   483.22606      1295.562       1778.788       26.178208      289.94943      0.11519175   
    861000   469.53211      1334.3229      1803.855       49.709089      298.62421      0.11365921   
    862000   499.60769      1310.7399      1810.3476      100.42337      293.34628      0.11273046   
    863000   477.08941      1311.0118      1788.1012      167.82948      293.40713      0.11215542   
    864000   506.60108      1325.88        1832.481       183.35212      296.73466      0.11304317   
    865000   482.64643      1343.6845      1826.331       155.89928      300.71936      0.11684242   
    866000   492.80427      1346.1012      1838.9055      90.22722       301.26022      0.12069548   
    867000   498.05463      1357.5964      1855.6511      36.997953      303.83287      0.12329601   
    868000   497.47372      1379.6409      1877.1146      13.619054      308.76646      0.1228919    
    869000   522.82141      1324.3214      1847.1428      33.929684      296.38584      0.11910606   
    870000   483.4198       1356.4308      1839.8505      81.068465      303.57199      0.11199969   
    871000   499.66706      1343.6477      1843.3148      143.79037      300.71112      0.10980505   
    872000   483.69181      1385.8208      1869.5126      145.4503       310.14954      0.10932895   
    873000   483.84976      1371.0462      1854.896       175.46652      306.84296      0.11024235   
    874000   537.87435      1341.6883      1879.5627      151.67518      300.2726       0.10998303   
    875000   497.35097      1344.5416      1841.8926      111.14834      300.91117      0.10879096   
    876000   493.36171      1349.0434      1842.4051      79.62677       301.91868      0.10822444   
    877000   525.42962      1305.6915      1831.1211      76.404322      292.21643      0.10890964   
    878000   503.4212       1287.6824      1791.1036      121.44753      288.18597      0.11310267   
    879000   477.6271       1298.8868      1776.5139      158.59927      290.69354      0.11716998   
    880000   492.99831      1319.054       1812.0523      138.51397      295.20699      0.11893713   
    881000   511.73629      1352.6536      1864.3898      102.91716      302.72664      0.11857356   
    882000   510.84865      1330.5025      1841.3512      80.777043      297.76919      0.11624737   
    883000   513.12883      1339.1474      1852.2762      49.393588      299.70393      0.11268639   
    884000   504.3603       1325.28        1829.6403      47.978374      296.60039      0.10979614   
    885000   518.16359      1339.9633      1858.1269      61.17569       299.88654      0.11016981   
    886000   504.94196      1376.7         1881.6419      109.23765      308.10828      0.11362498   
    887000   510.41884      1401.3433      1911.7621      97.887665      313.6235       0.11833305   
    888000   492.02489      1364.3553      1856.3802      106.42805      305.34551      0.12109512   
    889000   486.77348      1343.3813      1830.1547      103.50184      300.65148      0.12018307   
    890000   485.2301       1342.3758      1827.6059      93.790014      300.42645      0.11676569   
    891000   496.39327      1305.8311      1802.2244      99.941991      292.24769      0.11344606   
    892000   473.14277      1340.3238      1813.4666      98.389805      299.96722      0.11157921   
    893000   478.75344      1331.2119      1809.9653      124.43733      297.92794      0.11176095   
    894000   513.48032      1276.1229      1789.6032      85.306558      285.59892      0.11081662   
    895000   505.00269      1321.456       1826.4587      80.241364      295.74456      0.1113129    
    896000   491.92489      1337.8764      1829.8012      104.77803      299.41947      0.11385155   
    897000   476.83368      1351.1663      1827.9999      151.42807      302.39378      0.11765561   
    898000   498.07194      1362.458       1860.53        158.50182      304.9209       0.11912746   
    899000   490.95848      1379.212       1870.1705      152.80242      308.67047      0.11738458   
    900000   482.41009      1343.0621      1825.4722      127.10868      300.58005      0.11140026   
    901000   503.79762      1302.4104      1806.208       87.524937      291.48212      0.10713886   
    902000   493.84824      1332.989       1826.8373      93.657666      298.32568      0.10761655   
    903000   477.70959      1319.378       1797.0876      91.681573      295.2795       0.10996894   
    904000   491.23073      1323.9878      1815.2185      97.47179       296.31118      0.11255001   
    905000   467.43201      1340.2159      1807.648       108.35728      299.94308      0.11479903   
    906000   480.21086      1357.2094      1837.4203      90.366728      303.74625      0.11573158   
    907000   481.46227      1366.8174      1848.2797      107.43304      305.89655      0.11698295   
    908000   484.02988      1379.3256      1863.3555      148.23914      308.6959       0.11736954   
    909000   507.50353      1371.0186      1878.5221      150.78155      306.83678      0.11669078   
    910000   484.06267      1366.9212      1850.9839      156.42975      305.91977      0.11464886   
    911000   490.34953      1330.1298      1820.4793      128.99665      297.68578      0.11315147   
    912000   462.18147      1368.7916      1830.9731      114.24481      306.33838      0.1130199    
    913000   511.33194      1314.829       1826.1609      81.034982      294.26142      0.11258756   
    914000   488.08504      1294.9649      1783.0499      71.608697      289.8158       0.11167972   
    915000   481.33618      1330.5243      1811.8605      66.095671      297.77408      0.11182904   
    916000   498.16536      1305.1912      1803.3565      91.368658      292.10446      0.11452594   
    917000   480.62053      1284.3573      1764.9778      94.631468      287.4418       0.11669786   
    918000   468.08607      1296.3352      1764.4213      81.796743      290.12249      0.11802685   
    919000   459.20942      1318.3306      1777.54        97.865236      295.04509      0.11856568   
    920000   481.85699      1335.3748      1817.2318      86.189898      298.85962      0.11813222   
    921000   484.2048       1319.8783      1804.0831      92.176636      295.39148      0.11640668   
    922000   495.6351       1309.7441      1805.3792      96.765788      293.12341      0.11525313   
    923000   464.1725       1315.1445      1779.317       83.200357      294.33203      0.11525857   
    924000   524.13175      1348.5748      1872.7066      66.276583      301.81381      0.11656656   
    925000   499.74703      1353.7966      1853.5436      24.352087      302.98246      0.11861968   
    926000   496.30807      1344.8235      1841.1316      15.458445      300.97426      0.12005122   
    927000   499.98025      1357.0372      1857.0175      31.052859      303.70771      0.12108147   
    928000   475.53061      1375.9336      1851.4643      83.167163      307.93677      0.1230242    
    929000   494.43855      1383.4978      1877.9363      119.41189      309.62964      0.12564093   
    930000   486.00272      1369.3913      1855.394       127.80759      306.47258      0.12671306   
    931000   484.77861      1354.4356      1839.2142      98.716551      303.12546      0.12312813   
    932000   510.45575      1347.9569      1858.4127      79.374085      301.67553      0.11788532   
    933000   462.85107      1363.5533      1826.4044      71.046448      305.16604      0.11516961   
    934000   494.8992       1314.5214      1809.4206      65.367214      294.19259      0.11377801   
    935000   487.9371       1286.5686      1774.5057      62.050209      287.9367       0.11197091   
    936000   507.45645      1302.5457      1810.0022      64.295714      291.5124       0.11147732   
    937000   481.5103       1330.2705      1811.7808      107.45827      297.71726      0.11508973   
    938000   468.64744      1344.4638      1813.1113      119.12042      300.89377      0.11994665   
    939000   485.25768      1327.1552      1812.4128      103.48497      297.02005      0.12219327   
    940000   489.13364      1329.7835      1818.9172      118.37099      297.60828      0.12253686   
    941000   492.45539      1306.2852      1798.7406      118.65725      292.34932      0.12051863   
    942000   510.06917      1328.3424      1838.4116      123.03064      297.28576      0.11730436   
    943000   498.55279      1321.6302      1820.183       146.91149      295.78355      0.115027     
    944000   499.31361      1331.7082      1831.0218      135.14303      298.03902      0.11282652   
    945000   458.08155      1330.6549      1788.7365      91.834835      297.80331      0.11130676   
    946000   511.44286      1308.5124      1819.9553      59.608432      292.84777      0.11072474   
    947000   494.87918      1332.1512      1827.0304      90.341239      298.13818      0.11180361   
    948000   500.17881      1331.023       1831.2018      130.43974      297.88567      0.11378023   
    949000   470.12817      1359.3962      1829.5244      177.7111       304.23567      0.11414862   
    950000   460.93392      1307.9906      1768.9245      161.98888      292.73097      0.11367127   
    951000   489.59771      1309.631       1799.2287      159.75501      293.0981       0.1143767    
    952000   492.2711       1307.0811      1799.3522      127.7263       292.52743      0.11395754   
    953000   511.92537      1329.9527      1841.878       93.653755      297.64614      0.11193353   
    954000   505.4875       1303.7166      1809.2041      48.422585      291.77445      0.10806634   
    955000   466.01836      1355.6892      1821.7075      47.127003      303.40602      0.10607411   
    956000   494.76804      1316.9452      1811.7133      65.722085      294.73505      0.10769917   
    957000   496.49049      1339.5282      1836.0187      110.35755      299.78915      0.11195472   
    958000   471.13022      1327.5838      1798.714       177.06477      297.11597      0.11544685   
    959000   493.63802      1345.0778      1838.7158      180.7538       301.03117      0.11679281   
    960000   497.78988      1316.1421      1813.9319      199.64421      294.55529      0.11675143   
    961000   484.77449      1352.8965      1837.671       172.68299      302.78101      0.11583446   
    962000   498.96222      1343.8146      1842.7768      109.96877      300.74847      0.11493835   
    963000   520.67344      1337.5298      1858.2033      66.486282      299.34192      0.11411844   
    964000   527.40892      1344.6747      1872.0836      42.809339      300.94095      0.10983786   
    965000   506.37958      1350.2671      1856.6467      45.332548      302.19255      0.10240598   
    966000   492.13284      1369.921       1862.0538      66.823155      306.59112      0.10081373   
    967000   544.1636       1400.2041      1944.3677      70.907312      313.36854      0.10260114   
    968000   499.70351      1359.4646      1859.1681      98.188483      304.25096      0.10579058   
    969000   492.71829      1372.2082      1864.9265      117.09093      307.10301      0.10858172   
    970000   495.0291       1347.8275      1842.8566      148.13201      301.64656      0.11061634   
    971000   500.72035      1379.0013      1879.7217      174.15247      308.62333      0.11184003   
    972000   488.10262      1356.7107      1844.8133      190.68269      303.63463      0.11322015   
    973000   516.87448      1374.4557      1891.3301      175.96453      307.606        0.11320392   
    974000   530.57595      1326.3632      1856.9392      120.36567      296.84282      0.10951593   
    975000   527.52167      1342.8299      1870.3516      72.656868      300.52808      0.10405384   
    976000   511.74821      1347.3888      1859.137       43.414503      301.54839      0.10161847   
    977000   492.49914      1369.6769      1862.176       64.895725      306.5365       0.10342712   
    978000   507.80997      1320.862       1828.672       75.50525       295.61163      0.10690765   
    979000   483.23495      1295.2612      1778.4962      73.199059      289.88212      0.10960135   
    980000   488.63886      1312.7134      1801.3522      61.48631       293.78795      0.1117206    
    981000   469.39108      1331.7502      1801.1412      51.595316      298.04842      0.11319924   
    982000   516.81524      1309.5367      1826.352       72.481848      293.07701      0.11485631   
    983000   487.48882      1313.875       1801.3638      90.011237      294.04791      0.1135948    
    984000   473.25638      1296.8472      1770.1036      128.61979      290.23706      0.11093474   
    985000   490.64496      1325.7549      1816.3999      137.77185      296.70668      0.10875504   
    986000   521.24248      1320.6859      1841.9284      126.81708      295.57221      0.10623149   
    987000   494.53944      1349.2995      1843.839       107.03011      301.976        0.10369598   
    988000   495.03675      1360.4565      1855.4933      120.31542      304.47296      0.1040896    
    989000   510.62352      1345.7694      1856.393       103.50008      301.18596      0.10752487   
    990000   507.59253      1338.1835      1845.7761      96.720768      299.48822      0.11176139   
    991000   475.26176      1394.4869      1869.7486      78.694769      312.08902      0.11481159   
    992000   481.46942      1362.4543      1843.9237      75.952027      304.92007      0.11645114   
    993000   500.1813       1361.0316      1861.2129      79.328682      304.60166      0.11711544   
    994000   483.52814      1371.3848      1854.9129      104.52701      306.91873      0.11743772   
    995000   496.05932      1360.1128      1856.1721      123.98261      304.39603      0.1166887    
    996000   502.14028      1357.1052      1859.2455      143.96201      303.72293      0.1139495    
    997000   502.24051      1365.3362      1867.5767      143.24343      305.56505      0.10845551   
    998000   531.27193      1341.5452      1872.8172      123.25251      300.24058      0.1075514    
    999000   529.33565      1342.002       1871.3377      113.39786      300.34281      0.11023152   
   1000000   496.51205      1376.5752      1873.0872      70.323765      308.08035      0.11350633   
   1001000   476.01052      1393.1579      1869.1684      73.963858      311.7916       0.1165438    
   1002000   508.27408      1384.0502      1892.3242      76.981799      309.75326      0.1171213    
   1003000   499.41521      1386.4725      1885.8877      78.859232      310.29539      0.1158969    
   1004000   489.45096      1369.9718      1859.4228      102.06361      306.6025       0.11567431   
   1005000   465.42565      1385.741       1851.1667      115.33954      310.13169      0.11933578   
   1006000   492.20106      1323.5626      1815.7636      123.20252      296.21602      0.12695231   
   1007000   494.84345      1289.2213      1784.0648      124.53301      288.53038      0.1284861    
   1008000   491.76507      1326.8525      1818.6176      106.79589      296.95231      0.12533297   
   1009000   470.56396      1303.6185      1774.1825      62.450337      291.7525       0.1202282    
   1010000   505.63391      1305.8347      1811.4686      63.186129      292.24849      0.11754757   
   1011000   493.9838       1322.7045      1816.6883      54.551912      296.02398      0.11517787   
   1012000   481.52373      1336.8249      1818.3486      92.820523      299.18416      0.11475984   
   1013000   480.24556      1339.0368      1819.2824      110.09618      299.67919      0.11537759   
   1014000   468.5371       1292.7343      1761.2714      117.8273       289.31658      0.11569482   
   1015000   458.1823       1339.5208      1797.7031      166.81953      299.78751      0.11649258   
   1016000   499.63202      1336.7733      1836.4054      157.73195      299.17262      0.11598421   
   1017000   502.58035      1333.8966      1836.4769      146.03656      298.5288       0.11686079   
   1018000   504.64522      1349.9291      1854.5743      81.707959      302.1169       0.11832032   
   1019000   499.79838      1365.2998      1865.0982      62.604496      305.5569       0.11870897   
   1020000   499.83579      1375.964       1875.7998      61.028839      307.94358      0.11725121   
   1021000   493.52385      1361.6205      1855.1444      91.891511      304.73347      0.1156806    
   1022000   504.40512      1377.2667      1881.6719      110.8441       308.23513      0.11468156   
   1023000   493.27852      1369.9531      1863.2316      127.80994      306.59831      0.11373276   
   1024000   501.8839       1360.7289      1862.6128      117.23011      304.53391      0.11485892   
   1025000   492.81093      1358.4469      1851.2578      128.6265       304.0232       0.11859751   
   1026000   476.52049      1365.257       1841.7775      135.61586      305.54733      0.12274444   
   1027000   469.44835      1339.6218      1809.0702      94.783673      299.81012      0.1244208    
   1028000   477.24282      1324.0714      1801.3143      87.91757       296.3299       0.12366451   
   1029000   490.57635      1323.0947      1813.6711      96.637427      296.11132      0.11975978   
   1030000   482.95663      1305.5248      1788.4814      135.93837      292.17913      0.11571009   
   1031000   479.68124      1346.08        1825.7612      158.72108      301.25547      0.11418831   
   1032000   465.9568       1322.4638      1788.4206      151.79884      295.9701       0.1147329    
   1033000   488.60495      1331.9471      1820.5521      111.28529      298.0925       0.11566545   
   1034000   463.44672      1358.9481      1822.3949      66.993645      304.13538      0.11633761   
   1035000   529.26446      1377.0353      1906.2997      52.344001      308.18332      0.11658937   
   1036000   516.4018       1354.8843      1871.2861      48.883996      303.22589      0.1160244    
   1037000   496.46348      1368.4789      1864.9424      90.504467      306.26839      0.11433298   
   1038000   490.90126      1352.2138      1843.115       138.98523      302.62822      0.11314375   
   1039000   491.6613       1377.6227      1869.284       160.69491      308.31479      0.11275903   
   1040000   496.26547      1349.5224      1845.7879      144.00652      302.02588      0.11433077   
   1041000   477.31972      1388.9011      1866.2208      153.9999       310.83892      0.1177465    
   1042000   488.18615      1346.7494      1834.9356      103.22999      301.40529      0.1202168    
   1043000   471.04417      1395.764       1866.8082      96.530108      312.37485      0.12160668   
   1044000   493.38035      1348.614       1841.9944      110.17793      301.82259      0.12372685   
   1045000   496.84109      1359.8291      1856.6702      114.99903      304.33255      0.12687027   
   1046000   476.63173      1398.7917      1875.4235      115.94907      313.05246      0.12876997   
   1047000   478.69543      1383.5379      1862.2334      109.49523      309.63863      0.12609772   
   1048000   492.42566      1350.1295      1842.5551      132.31521      302.16175      0.12087428   
   1049000   483.27062      1359.5784      1842.849       117.55837      304.27643      0.11721968   
   1050000   503.83345      1324.0839      1827.9174      75.213947      296.3327       0.11476968   
   1051000   472.21101      1355.3357      1827.5467      66.745139      303.3269       0.11279402   
   1052000   491.98908      1340.1956      1832.1847      58.759065      299.93853      0.11240619   
   1053000   496.09345      1308.2027      1804.2962      68.035384      292.77846      0.1148172    
   1054000   485.29972      1280.9738      1766.2735      109.28425      286.68457      0.11840006   
   1055000   484.06398      1293.8587      1777.9227      95.40548       289.56823      0.11908934   
   1056000   472.20675      1314.963       1787.1697      88.666427      294.29141      0.11860753   
   1057000   496.99195      1323.4744      1820.4663      74.440745      296.19628      0.11758388   
   1058000   487.11841      1321.0397      1808.1581      101.42922      295.65139      0.11531763   
   1059000   459.78273      1344.0275      1803.8102      122.14074      300.79611      0.1104091    
   1060000   479.90184      1312.0204      1791.9223      125.61848      293.63286      0.10887775   
   1061000   515.78486      1355.9051      1871.69        139.29763      303.45435      0.11099356   
   1062000   492.87562      1345.8634      1838.7391      125.56134      301.207        0.11371338   
   1063000   486.64342      1359.1267      1845.7702      140.31092      304.17535      0.11616531   
   1064000   506.20451      1342.7618      1848.9664      126.71901      300.51286      0.11660105   
   1065000   482.79564      1345.9258      1828.7215      126.15979      301.22096      0.11573693   
   1066000   493.13107      1351.2098      1844.3408      110.89171      302.40352      0.11541233   
   1067000   491.50982      1373.19        1864.6998      107.71027      307.32274      0.11534978   
   1068000   510.4934       1386.1732      1896.6666      116.12187      310.22842      0.11624902   
   1069000   510.5972       1375.3349      1885.9321      101.38705      307.80278      0.11853993   
   1070000   500.83435      1371.5284      1872.3627      92.928544      306.95086      0.11987222   
   1071000   461.1001       1367.112       1828.2121      110.78023      305.96246      0.12006376   
   1072000   493.49806      1353.1902      1846.6882      121.21584      302.84674      0.12025326   
   1073000   503.61661      1366.0383      1869.6549      113.05627      305.72218      0.11863785   
   1074000   499.19424      1343.8441      1843.0383      131.08777      300.75506      0.11676143   
   1075000   520.18785      1394.4574      1914.6453      103.56899      312.08244      0.11421788   
   1076000   510.81412      1337.1472      1847.9613      51.993185      299.25629      0.1108137    
   1077000   512.43306      1326.2055      1838.6386      32.780365      296.80751      0.11100355   
   1078000   497.81085      1337.3296      1835.1405      62.658572      299.29712      0.11532215   
   1079000   494.51781      1272.0702      1766.5881      74.49641       284.69193      0.12025226   
   1080000   486.488        1289.5834      1776.0714      108.5007       288.61141      0.12150673   
   1081000   484.50419      1331.3409      1815.8451      166.07622      297.95684      0.12014944   
   1082000   500.92239      1334.7842      1835.7066      154.53293      298.72744      0.11633821   
   1083000   517.78593      1321.9746      1839.7605      113.1085       295.86063      0.11291264   
   1084000   468.89771      1331.3366      1800.2343      97.933694      297.95587      0.11180991   
   1085000   481.18275      1351.1642      1832.3469      71.594228      302.39332      0.1129252    
   1086000   472.73721      1357.8393      1830.5765      50.886791      303.88721      0.11399875   
   1087000   481.40981      1342.1083      1823.5181      79.22563       300.3666       0.11733027   
   1088000   483.9824       1364.1564      1848.1388      137.53836      305.301        0.12027946   
   1089000   475.13556      1352.6356      1827.7711      178.56048      302.72262      0.12049092   
   1090000   493.90183      1339.3614      1833.2632      177.38673      299.75182      0.11495385   
   1091000   512.43462      1386.959       1899.3937      136.81689      310.40428      0.10936427   
   1092000   521.90159      1351.7689      1873.6705      84.33872       302.52866      0.10842037   
   1093000   522.86171      1340.7389      1863.6006      60.825981      300.06012      0.11103438   
   1094000   498.4662       1371.6192      1870.0854      101.99725      306.97118      0.11532612   
   1095000   494.09911      1438.2278      1932.3269      137.40304      321.87833      0.11723292   
   1096000   480.49974      1351.42        1831.9198      175.73368      302.45057      0.11781448   
   1097000   471.4229       1367.1059      1838.5288      184.15357      305.96111      0.11953133   
   1098000   473.98473      1363.6123      1837.597       150.39901      305.17923      0.12173634   
   1099000   473.75885      1359.0418      1832.8007      87.44889       304.15635      0.12389929   
   1100000   469.61057      1403.5728      1873.1833      66.723638      314.12247      0.12607403   
   1101000   494.90405      1369.6752      1864.5793      36.88576       306.53613      0.12788915   
   1102000   483.92752      1363.6363      1847.5638      106.61963      305.1846       0.132326     
   1103000   464.92955      1362.7678      1827.6974      147.68824      304.99023      0.13314412   
   1104000   466.55213      1356.081       1822.6332      111.77997      303.49372      0.12725816   
   1105000   493.97831      1357.8897      1851.8681      101.31014      303.89851      0.12240248   
   1106000   497.99286      1325.1864      1823.1793      70.667243      296.57944      0.11987841   
   1107000   471.49465      1301.9696      1773.4643      60.535473      291.38347      0.11807237   
   1108000   471.89205      1300.1403      1772.0323      84.24034       290.97407      0.11729982   
   1109000   493.45803      1339.7985      1833.2565      143.5037       299.84965      0.11777062   
   1110000   492.0017       1357.2681      1849.2698      138.70377      303.75938      0.11777444   
   1111000   503.49072      1376.2664      1879.7571      165.9247       308.01124      0.11738032   
   1112000   495.67348      1356.0542      1851.7276      128.2402       303.4877       0.11589337   
   1113000   493.97038      1353.8773      1847.8476      99.900131      303.00051      0.11422732   
   1114000   510.25956      1371.0592      1881.3187      97.81472       306.84586      0.11466492   
   1115000   479.49671      1353.4233      1832.92        131.10635      302.89891      0.11736399   
   1116000   503.52792      1341.5937      1845.1216      161.23656      300.25142      0.1205343    
   1117000   495.24141      1335.3599      1830.6013      199.41146      298.85628      0.12359874   
   1118000   472.01531      1350.6512      1822.6665      189.33712      302.2785       0.12355905   
   1119000   490.93631      1308.5564      1799.4927      126.0286       292.85762      0.12014801   
   1120000   482.78432      1318.7232      1801.5075      84.403158      295.13295      0.11491875   
   1121000   479.77526      1329.9497      1809.7249      88.609215      297.64546      0.11363407   
   1122000   497.44776      1333.5522      1831           114.77874      298.45172      0.11616663   
   1123000   476.31333      1315.6585      1791.9718      134.36876      294.44707      0.11937313   
   1124000   505.12183      1322.9802      1828.102       124.02141      296.08568      0.12046958   
   1125000   491.38623      1301.1947      1792.581       89.82254       291.21005      0.11773301   
   1126000   489.05869      1328.5817      1817.6403      52.175013      297.3393       0.11415337   
   1127000   508.19482      1299.8841      1808.0789      43.715247      290.91674      0.11210438   
   1128000   508.44488      1328.3021      1836.747       55.384619      297.27674      0.112105     
   1129000   491.69005      1347.3481      1839.0382      36.234229      301.53927      0.11315726   
   1130000   498.3503       1369.6139      1867.9642      59.452645      306.52239      0.11804262   
   1131000   483.3063       1356.1326      1839.4389      114.75664      303.50526      0.12288271   
   1132000   474.50302      1366.7509      1841.2539      121.98779      305.88166      0.12317962   
   1133000   492.46275      1355.8435      1848.3063      134.00513      303.44057      0.12071708   
   1134000   523.8894       1364.0952      1887.9846      115.55901      305.28732      0.11641612   
   1135000   477.06373      1351.2388      1828.3025      119.99398      302.41002      0.11454993   
   1136000   487.22872      1331.0364      1818.2652      120.36382      297.88869      0.11395319   
   1137000   494.59598      1317.3496      1811.9456      82.883691      294.82554      0.11308864   
   1138000   479.18148      1347.1752      1826.3566      100.7847       301.50057      0.11335573   
   1139000   459.39909      1351.9033      1811.3024      135.67794      302.55873      0.11483756   
   1140000   493.75508      1320.2296      1813.9846      169.88889      295.47008      0.11640032   
   1141000   480.72046      1323.4464      1804.1668      159.34931      296.19002      0.11736021   
   1142000   486.98715      1315.4435      1802.4307      133.16815      294.39897      0.11466507   
   1143000   482.96182      1290.2048      1773.1666      110.78471      288.75048      0.11002292   
   1144000   526.93218      1309.0598      1835.992       88.13031       292.97028      0.10669479   
   1145000   503.08805      1348.5561      1851.6441      127.34059      301.80961      0.10636602   
   1146000   508.30972      1360.8211      1869.1308      128.73257      304.55455      0.10810773   
   1147000   496.86137      1409.5257      1906.387       120.02364      315.45474      0.1119608    
   1148000   493.5658       1389.3595      1882.9253      96.787099      310.94151      0.11432235   
   1149000   481.58623      1364.4406      1846.0269      66.324219      305.36461      0.11599388   
   1150000   507.14907      1353.4794      1860.6285      35.773268      302.91147      0.11611229   
   1151000   503.67272      1356.1203      1859.793       73.150815      303.50251      0.11629747   
   1152000   522.11281      1419.2761      1941.3889      103.55854      317.6369       0.1152748    
   1153000   522.28857      1377.0711      1899.3596      105.64308      308.19133      0.11413699   
   1154000   503.68856      1364.0969      1867.7855      99.849647      305.28769      0.1148718    
   1155000   501.38411      1352.014       1853.3982      99.817966      302.58352      0.11555234   
   1156000   509.96528      1379.6179      1889.5832      85.663866      308.76133      0.11484149   
   1157000   490.12529      1374.4112      1864.5365      110.49987      307.59606      0.11415485   
   1158000   493.48051      1378.7397      1872.2202      114.35364      308.56478      0.11278372   
   1159000   509.00098      1343.1687      1852.1697      130.38138      300.60392      0.1111388    
   1160000   481.01146      1386.5892      1867.6007      123.21903      310.32151      0.11033562   
   1161000   514.50242      1345.2872      1859.7896      146.67004      301.07803      0.11255765   
   1162000   493.09557      1357.7682      1850.8638      146.32986      303.87132      0.11711137   
   1163000   485.08835      1375.2629      1860.3512      148.8061       307.78666      0.12061826   
   1164000   496.98144      1379.9349      1876.9163      125.12459      308.83226      0.12134269   
   1165000   520.0529       1378.7088      1898.7617      119.87569      308.55785      0.1202397    
   1166000   494.66192      1350.4203      1845.0822      117.48136      302.22684      0.11655086   
   1167000   494.94553      1324.9218      1819.8673      148.34448      296.52022      0.11461807   
   1168000   502.07633      1325.9828      1828.0592      116.8997       296.75768      0.1137006    
   1169000   523.78782      1284.9699      1808.7577      96.102239      287.57889      0.11279906   
   1170000   490.81947      1339.8818      1830.7013      102.01199      299.86831      0.11266931   
   1171000   498.16594      1314.7951      1812.961       87.47902       294.25384      0.11506583   
   1172000   488.80039      1301.1779      1789.9783      73.962045      291.20628      0.11881801   
   1173000   478.05491      1325.5123      1803.5672      54.811252      296.65236      0.12053903   
   1174000   478.44717      1332.0192      1810.4664      44.421047      298.10864      0.1196096    
   1175000   479.02474      1296.3636      1775.3884      42.911714      290.12884      0.11637772   
   1176000   517.21982      1311.7573      1828.9771      53.404315      293.57398      0.11370932   
   1177000   498.08003      1326.1713      1824.2513      93.795836      296.79985      0.11306421   
   1178000   496.85137      1320.7778      1817.6292      94.802543      295.59279      0.11239772   
   1179000   488.61064      1337.9013      1826.512       92.773343      299.42507      0.11330399   
   1180000   483.58757      1301.9182      1785.5058      60.416323      291.37196      0.11729098   
   1181000   479.18453      1296.7529      1775.9374      35.120741      290.21596      0.12122208   
   1182000   461.9217       1283.3005      1745.2222      47.158232      287.20529      0.12265913   
   1183000   458.53913      1309.9141      1768.4533      86.752768      293.16147      0.1208147    
   1184000   461.45186      1340.489       1801.9409      99.261222      300.00419      0.11769924   
   1185000   523.58199      1313.0907      1836.6727      97.232553      293.8724       0.11413609   
   1186000   528.73714      1291.0058      1819.7429      121.94713      288.92974      0.11024012   
   1187000   499.33603      1300.1302      1799.4662      97.498267      290.9718       0.10860749   
   1188000   487.89305      1275.2917      1763.1848      92.833202      285.4129       0.10982207   
   1189000   508.80616      1322.6541      1831.4602      71.533117      296.0127       0.11228595   
   1190000   498.45038      1341.7827      1840.233       83.031151      300.29371      0.11448025   
   1191000   493.56717      1351.2338      1844.8009      99.451703      302.40889      0.11634708   
   1192000   503.58184      1345.9917      1849.5735      95.88709       301.2357       0.11723161   
   1193000   470.13216      1393.6226      1863.7547      128.78715      311.89559      0.11857125   
   1194000   459.77875      1414.8791      1874.6579      151.2834       316.65285      0.11823797   
   1195000   491.41044      1376.7442      1868.1546      143.98155      308.11817      0.11648941   
   1196000   485.5921       1362.0873      1847.6794      176.64634      304.83792      0.1162962    
   1197000   481.4856       1367.011       1848.4966      209.47471      305.93987      0.11809421   
   1198000   492.62335      1389.5765      1882.1998      186.78301      310.99007      0.12012583   
   1199000   519.65521      1381.6187      1901.2739      136.39823      309.2091       0.12070631   
   1200000   505.4545       1366.7687      1872.2232      81.331685      305.88563      0.12037257   
   1201000   490.63413      1341.9853      1832.6194      44.95304       300.33907      0.11993744   
   1202000   485.70154      1319.5948      1805.2964      78.316037      295.32804      0.11866074   
   1203000   490.03574      1304.1884      1794.2241      118.47832      291.88003      0.11593852   
   1204000   490.49476      1277.7668      1768.2616      151.40535      285.96684      0.11332532   
   1205000   509.87582      1302.963       1812.8388      164.74189      291.60579      0.11218619   
   1206000   495.32957      1325.8182      1821.1478      122.2043       296.72084      0.11333286   
   1207000   498.77254      1336.4273      1835.1998      59.670602      299.09516      0.11634938   
   1208000   501.42689      1343.9454      1845.3723      21.094532      300.77773      0.11970905   
   1209000   470.46457      1305.5041      1775.9687      26.109906      292.1745       0.12113077   
   1210000   481.15205      1312.7627      1793.9147      35.029061      293.79898      0.11969619   
   1211000   501.59384      1346.36        1847.9539      86.506059      301.31813      0.11656744   
   1212000   507.63143      1336.0265      1843.6579      99.402113      299.00547      0.11114758   
   1213000   519.93217      1318.2468      1838.179       100.90373      295.02635      0.10871098   
   1214000   512.08221      1346.9088      1858.991       118.53824      301.44095      0.11094079   
   1215000   503.81801      1351.2889      1855.1069      98.112865      302.42124      0.11359587   
   1216000   528.5549       1357.6334      1886.1883      88.839025      303.84114      0.11497751   
   1217000   497.38347      1360.9031      1858.2866      64.297241      304.57291      0.11545125   
   1218000   487.33234      1370.0095      1857.3418      92.28974       306.61093      0.1168287    
   1219000   505.80572      1386.7869      1892.5926      114.03671      310.36575      0.11827958   
   1220000   507.172        1350.7517      1857.9237      145.2089       302.30099      0.12063576   
   1221000   476.46689      1343.2208      1819.6877      118.11431      300.61558      0.12288607   
   1222000   455.26226      1332.9929      1788.2552      91.8704        298.32656      0.12378357   
   1223000   502.92126      1316.9274      1819.8486      57.160889      294.73105      0.11874974   
   1224000   482.43682      1332.1017      1814.5385      38.071651      298.12708      0.11359128   
   1225000   499.81423      1312.0972      1811.9114      29.021118      293.65004      0.11183432   
   1226000   491.09578      1331.1386      1822.2344      35.230242      297.91156      0.11253739   
   1227000   493.89223      1350.2857      1844.178       59.915789      302.19672      0.11511686   
   1228000   498.99923      1318.048       1817.0472      69.37795       294.98184      0.11810168   
   1229000   503.56423      1330.1533      1833.7176      52.44466       297.69105      0.12010924   
   1230000   505.93065      1362.4312      1868.3618      85.840776      304.91489      0.12068403   
   1231000   500.11804      1381.099       1881.217       101.7816       309.09279      0.11830633   
   1232000   504.00498      1382.4188      1886.4238      109.8006       309.38816      0.11374923   
   1233000   500.57088      1359.8657      1860.4365      94.522809      304.34073      0.11122912   
   1234000   520.23887      1351.7981      1872.037       90.39759       302.5352       0.111333     
   1235000   509.24717      1367.7378      1876.9849      121.56284      306.10252      0.11298866   
   1236000   506.49919      1394.0195      1900.5187      97.50159       311.98442      0.11473929   
   1237000   516.58651      1381.5015      1898.088       99.678563      309.18287      0.11652334   
   1238000   504.84911      1360.6014      1865.4506      91.208513      304.50539      0.11545099   
   1239000   496.71248      1354.1221      1850.8346      93.615435      303.05531      0.11219558   
   1240000   516.71642      1337.8849      1854.6013      102.12848      299.42138      0.10903231   
   1241000   528.09652      1314.1187      1842.2153      107.21909      294.10247      0.10746378   
   1242000   480.83375      1282.7565      1763.5903      128.0988       287.08354      0.11017422   
   1243000   478.84658      1302.8524      1781.699       118.44239      291.58104      0.11689122   
   1244000   502.69694      1316.3663      1819.0632      83.78271       294.60548      0.11962433   
   1245000   491.03091      1310.6099      1801.6408      86.008991      293.31718      0.12080555   
   1246000   475.78668      1298.4259      1774.2126      93.69157       290.59039      0.11986873   
   1247000   505.85662      1320.2621      1826.1187      91.646967      295.47737      0.11627433   
   1248000   489.48945      1338.2782      1827.7677      134.68228      299.50941      0.1134315    
   1249000   474.66595      1287.5514      1762.2174      130.83014      288.15665      0.11331161   
   1250000   495.05961      1299.2724      1794.332       123.14824      290.77983      0.11508257   
   1251000   481.84         1349.6414      1831.4814      117.02447      302.05252      0.11699011   
   1252000   496.37148      1335.3966      1831.7681      80.454353      298.86451      0.1179051    
   1253000   495.47721      1338.1688      1833.646       39.742487      299.48493      0.11743696   
   1254000   490.45725      1345.8879      1836.3452      20.827815      301.21248      0.11685894   
   1255000   480.00024      1355.4293      1835.4296      37.978846      303.34786      0.11791569   
   1256000   493.50191      1337.7851      1831.287       75.801555      299.39905      0.12002178   
   1257000   490.2085       1363.7         1853.9085      129.97724      305.19886      0.12160986   
   1258000   487.75956      1399.9746      1887.7341      147.16847      313.31718      0.1203586    
   1259000   489.51581      1362.6503      1852.1661      106.19558      304.96393      0.11800449   
   1260000   497.8739       1375.9468      1873.8207      63.658705      307.93972      0.11681234   
   1261000   491.52623      1345.5651      1837.0913      51.637765      301.14023      0.11703505   
   1262000   486.93256      1330.0541      1816.9866      77.589231      297.66883      0.11950176   
   1263000   500.27859      1304.8425      1805.1211      117.38808      292.02643      0.11995261   
   1264000   506.38768      1293.6389      1800.0266      148.78853      289.51905      0.11866649   
   1265000   504.23565      1346.6143      1850.8499      191.49354      301.37504      0.11823368   
   1266000   536.24967      1342.431       1878.6806      194.66892      300.43881      0.11822846   
   1267000   507.26518      1366.9223      1874.1874      166.44595      305.92001      0.11763941   
   1268000   505.39397      1400.0117      1905.4057      146.61766      313.32549      0.11560997   
   1269000   487.25013      1379.1835      1866.4336      119.79099      308.6641       0.11386264   
   1270000   490.70856      1351.3856      1842.0942      116.30421      302.44287      0.11323015   
   1271000   491.941        1329.1109      1821.0519      68.843202      297.45774      0.11477309   
   1272000   470.38944      1331.8239      1802.2133      59.208598      298.06491      0.11808106   
   1273000   496.05516      1296.5878      1792.643       42.037678      290.17901      0.11747439   
   1274000   499.74269      1339.8951      1839.6377      78.116722      299.87126      0.11501671   
   1275000   490.95168      1345.9104      1836.8621      94.109407      301.21751      0.11079724   
   1276000   515.61246      1341.1332      1856.7457      132.48076      300.14837      0.10854182   
   1277000   476.65116      1308.7561      1785.4073      130.2453       292.90231      0.10911219   
   1278000   482.33315      1330.4578      1812.7909      135.97327      297.75918      0.11321785   
   1279000   529.21213      1311.89        1841.1021      105.38197      293.60367      0.11516195   
   1280000   494.72955      1333.0543      1827.7839      78.448894      298.3403       0.11531246   
   1281000   510.59211      1345.4158      1856.0079      57.485841      301.10681      0.11545497   
   1282000   483.38162      1350.7435      1834.1251      69.919373      302.29917      0.11745292   
   1283000   502.64379      1384.1141      1886.7579      102.80122      309.76759      0.12065905   
   1284000   484.82804      1370.3677      1855.1957      122.94671      306.6911       0.12029337   
   1285000   513.51065      1348.4209      1861.9316      151.85222      301.77938      0.11869353   
   1286000   497.07341      1356.7886      1853.862       159.58257      303.65207      0.11780044   
   1287000   532.40137      1360.9642      1893.3656      92.633288      304.58659      0.11515061   
   1288000   507.43525      1345.9449      1853.3802      72.011629      301.22524      0.11163719   
   1289000   504.74263      1357.6366      1862.3792      39.069459      303.84185      0.10747453   
   1290000   511.03877      1363.5797      1874.6185      33.10828       305.17193      0.10718141   
   1291000   511.06725      1346.6259      1857.6931      59.017832      301.37764      0.1116662    
   1292000   496.20017      1330.3448      1826.545       91.954223      297.7339       0.11583963   
   1293000   489.01641      1299.0682      1788.0846      137.25823      290.73413      0.11810199   
   1294000   500.30358      1313.766       1814.0695      137.27484      294.02352      0.11834876   
   1295000   492.02994      1332.9946      1825.0245      128.91788      298.32692      0.11652417   
   1296000   475.44821      1322.7465      1798.1947      107.56788      296.03337      0.11412751   
   1297000   516.65664      1315.0469      1831.7035      100.11532      294.31019      0.1135733    
   1298000   473.02454      1329.2279      1802.2524      130.4296       297.48393      0.11571399   
   1299000   498.21269      1327.7797      1825.9924      101.84423      297.15982      0.11897564   
   1300000   494.91229      1345.904       1840.8163      115.87221      301.21607      0.12277276   
   1301000   494.05199      1408.6793      1902.7313      118.05534      315.26532      0.12394501   
   1302000   523.81274      1360.0782      1883.8909      75.670156      304.38829      0.11800915   
   1303000   526.68951      1344.7931      1871.4826      88.195805      300.96745      0.11285376   
   1304000   510.85306      1336.8094      1847.6625      43.607089      299.1807       0.11136725   
   1305000   520.29194      1355.0484      1875.3403      62.656707      303.26261      0.11326173   
   1306000   495.8504       1342.467       1838.3174      88.488393      300.44687      0.11531908   
   1307000   493.05093      1354.2878      1847.3388      138.9148       303.0924       0.11658509   
   1308000   509.13491      1357.7757      1866.9106      129.74501      303.873        0.11564687   
   1309000   522.38744      1373.4051      1895.7925      152.37797      307.37088      0.11459161   
   1310000   509.29531      1405.3391      1914.6344      125.86986      314.51778      0.11264645   
   1311000   539.22128      1328.309       1867.5303      62.755316      297.27829      0.10927185   
   1312000   506.98677      1350.1637      1857.1505      67.763998      302.1694       0.10771136   
   1313000   500.96847      1345.5403      1846.5088      50.748629      301.13469      0.10850494   
   1314000   520.05693      1356.5594      1876.6163      100.41476      303.60077      0.11224794   
   1315000   485.59986      1319.4275      1805.0273      125.78068      295.29058      0.11566464   
   1316000   474.0561       1310.2639      1784.32        161.43411      293.23974      0.11720239   
   1317000   494.85973      1311.3981      1806.2579      117.03468      293.49359      0.11685569   
   1318000   490.3551       1338.7598      1829.1149      80.187428      299.61718      0.11526174   
   1319000   509.82764      1288.2541      1798.0818      9.4552746      288.31392      0.11236867   
   1320000   494.97579      1323.7922      1818.768       43.643413      296.26742      0.11118922   
   1321000   495.38143      1324.2804      1819.6618      63.292127      296.37667      0.11062955   
   1322000   478.10032      1296.6555      1774.7559      97.898601      290.19417      0.11199958   
   1323000   486.60995      1308.9205      1795.5304      155.17501      292.93909      0.11731256   
   1324000   464.7893       1334.806       1799.5953      139.80543      298.73233      0.12141698   
   1325000   496.11121      1332.1681      1828.2793      98.867097      298.14195      0.12124787   
   1326000   498.80441      1324.5083      1823.3127      50.766847      296.42767      0.11705802   
   1327000   487.18652      1324.6376      1811.8242      73.304291      296.45662      0.11362312   
   1328000   503.72646      1369.8703      1873.5968      91.510478      306.57978      0.11242391   
   1329000   505.49149      1386.2596      1891.7511      123.53488      310.24775      0.11297305   
   1330000   500.52249      1377.4797      1878.0022      152.47379      308.28279      0.11549976   
   1331000   507.96368      1349.2853      1857.249       115.68326      301.97282      0.11818374   
   1332000   485.75342      1358.9876      1844.741       67.340415      304.14421      0.1196632    
   1333000   490.98403      1370.321       1861.305       22.498014      306.68064      0.120129     
   1334000   494.90631      1385.1735      1880.0798      7.9350785      310.00467      0.11861066   
   1335000   488.65188      1356.0093      1844.6612      35.643064      303.47766      0.11709455   
   1336000   472.77434      1383.1621      1855.9365      105.66314      309.55453      0.11601049   
   1337000   501.70348      1353.7446      1855.4481      142.79777      302.97083      0.11509235   
   1338000   514.87446      1352.298       1867.1725      115.42864      302.64708      0.11364294   
   1339000   488.87341      1330.2579      1819.1313      97.861687      297.71445      0.11306165   
   1340000   505.02134      1332.8415      1837.8629      56.932917      298.29267      0.11559111   
   1341000   477.89583      1302.5323      1780.4281      46.163136      291.5094       0.12077994   
   1342000   479.25574      1334.6665      1813.9223      67.076409      298.70111      0.12379336   
   1343000   475.84433      1350.2384      1826.0827      113.39836      302.18612      0.12522801   
   1344000   476.80482      1366.3408      1843.1456      134.76283      305.78988      0.12323237   
   1345000   503.25173      1384.934       1888.1857      184.26495      309.95106      0.11937269   
   1346000   491.92537      1356.7088      1848.6342      188.08715      303.63421      0.11562537   
   1347000   492.96173      1356.5335      1849.4953      168.76375      303.59499      0.11403857   
   1348000   521.58037      1346.1881      1867.7684      120.74977      301.27966      0.1144       
   1349000   517.51719      1348.0074      1865.5246      61.317589      301.68682      0.11477759   
   1350000   496.91941      1325.6717      1822.5911      42.633945      296.68804      0.11611495   
   1351000   489.16241      1293.258       1782.4204      66.284793      289.43378      0.11765485   
   1352000   481.6922       1336.48        1818.1722      108.23067      299.10696      0.1205204    
   1353000   496.45016      1330.4612      1826.9113      159.74544      297.75994      0.12521877   
   1354000   473.13962      1339.1455      1812.2852      127.56203      299.70352      0.12996557   
   1355000   476.31472      1297.3205      1773.6352      103.19395      290.34298      0.13009889   
   1356000   444.74664      1317.1111      1761.8578      99.669517      294.77217      0.12268582   
   1357000   496.44405      1342.4617      1838.9058      54.505748      300.44569      0.11721064   
   1358000   516.11892      1326.0678      1842.1867      51.568021      296.7767       0.1149075    
   1359000   532.90521      1355.5347      1888.4399      12.866648      303.37145      0.11424922   
   1360000   516.64965      1395.6642      1912.3139      31.843546      312.35252      0.11612205   
   1361000   494.97351      1322.5316      1817.5051      67.216002      295.98528      0.1195186    
   1362000   504.45456      1323.0473      1827.5019      104.95203      296.10071      0.12462919   
   1363000   479.21094      1343.9739      1823.1848      152.7555       300.78412      0.12654595   
   1364000   495.10476      1382.3584      1877.4631      131.02262      309.37464      0.12662394   
   1365000   522.17227      1398.3127      1920.485       132.99389      312.94525      0.12655132   
   1366000   494.85993      1366.5892      1861.4491      129.9326       305.84547      0.12526089   
   1367000   505.96041      1337.7318      1843.6922      138.24325      299.38712      0.12341256   
   1368000   485.59996      1384.0038      1869.6038      107.14996      309.7429       0.12024246   
   1369000   496.49625      1351.5033      1847.9995      52.077568      302.46921      0.11567876   
   1370000   500.81734      1340.5632      1841.3806      6.9109177      300.0208       0.11090638   
   1371000   500.07803      1342.0939      1842.1719      10.459929      300.36337      0.10923808   
   1372000   518.62861      1270.1696      1788.7982      39.696408      284.26656      0.11185539   
   1373000   498.26345      1316.8868      1815.1503      72.64664       294.72197      0.11949935   
   1374000   473.21411      1356.6408      1829.8549      143.77649      303.61899      0.12304353   
   1375000   487.8729       1365.44        1853.3129      165.03135      305.58827      0.12456441   
   1376000   503.78643      1339.5946      1843.381       140.01877      299.80402      0.12480405   
   1377000   480.57502      1381.464       1862.039       112.94668      309.17448      0.12304473   
   1378000   512.98671      1345.0677      1858.0544      75.137442      301.0289       0.12037308   
   1379000   511.89773      1361.2387      1873.1364      30.419168      304.64801      0.1162349    
   1380000   503.74678      1391.5573      1895.3041      17.224856      311.43338      0.11487995   
   1381000   523.58272      1391.2923      1914.875       35.273946      311.37407      0.11466707   
   1382000   510.09268      1372.9445      1883.0371      42.137734      307.26779      0.11549149   
   1383000   521.04833      1339.7302      1860.7785      74.686314      299.83437      0.11821072   
   1384000   481.67169      1355.8419      1837.5136      124.69443      303.44019      0.12240264   
   1385000   465.65074      1352.8697      1818.5205      119.49716      302.77502      0.12477954   
   1386000   490.16918      1338.8415      1829.0106      130.65356      299.63547      0.12448602   
   1387000   507.67642      1319.2728      1826.9492      92.624338      295.25596      0.11854016   
   1388000   490.37838      1310.9166      1801.295       91.80074       293.38582      0.11354021   
   1389000   479.09327      1339.6781      1818.7714      120.3462       299.82271      0.11375204   
   1390000   491.62844      1326.2107      1817.8391      149.96673      296.80868      0.11647249   
   1391000   450.47554      1372.4536      1822.9291      176.91828      307.15793      0.11915694   
   1392000   470.39318      1321.9273      1792.3204      185.99978      295.85004      0.12082008   
   1393000   477.77777      1344.3819      1822.1597      145.38434      300.87544      0.12095254   
   1394000   465.94639      1330.815       1796.7614      106.68866      297.83912      0.11926961   
   1395000   495.19292      1273.5369      1768.7298      5.5755237      285.02017      0.11441241   
   1396000   498.3072       1311.8551      1810.1622     -5.6332409      293.59585      0.11151776   
   1397000   489.61005      1335.4413      1825.0514      11.516208      298.87451      0.1106537    
   1398000   507.40632      1330.4461      1837.8524      47.786834      297.75657      0.11125328   
   1399000   502.0183       1301.3732      1803.3915      100.14736      291.25         0.11169274   
   1400000   495.70776      1328.756       1824.4638      156.57526      297.37832      0.11188428   
   1401000   503.58601      1336.9111      1840.4971      165.57507      299.20344      0.1111037    
   1402000   528.38108      1343.6128      1871.9939      111.62598      300.7033       0.10939392   
   1403000   504.59053      1342.5349      1847.1254      64.096772      300.46207      0.10741161   
   1404000   527.28021      1322.7443      1850.0245      51.677657      296.03288      0.10851129   
   1405000   506.63587      1328.6417      1835.2776      68.096454      297.35274      0.11365938   
   1406000   490.65222      1328.8047      1819.4569      75.343181      297.38922      0.1176718    
   1407000   486.57317      1341.9211      1828.4942      106.65511      300.32469      0.11897901   
   1408000   513.43949      1295.1526      1808.5921      85.920498      289.85781      0.11677284   
   1409000   493.1122       1342.8452      1835.9574      63.488479      300.53152      0.11281724   
   1410000   489.36423      1321.8438      1811.208       67.277342      295.83136      0.11022151   
   1411000   509.21212      1297.7807      1806.9929      81.06908       290.44599      0.10884402   
   1412000   514.0308       1297.3742      1811.405       111.90497      290.35502      0.10977507   
   1413000   486.6452       1329.6537      1816.2989      122.58001      297.57922      0.11174939   
   1414000   489.5408       1335.1638      1824.7046      131.35519      298.8124       0.11470789   
   1415000   500.06835      1307.2331      1807.3015      118.88439      292.56146      0.11800797   
   1416000   484.13946      1321.4535      1805.593       112.20321      295.744        0.12071731   
   1417000   518.11155      1338.9868      1857.0983      99.941029      299.66799      0.12138383   
   1418000   496.30587      1329.3869      1825.6927      92.823829      297.51951      0.11842243   
   1419000   508.81002      1381.7029      1890.5129      120.58304      309.22794      0.11516733   
   1420000   490.13647      1389.6972      1879.8337      133.68448      311.0171       0.11349801   
   1421000   517.60724      1347.6993      1865.3065      149.0246       301.61787      0.11309566   
   1422000   540.00292      1359.7656      1899.7685      102.37078      304.31833      0.11219829   
   1423000   515.79936      1404.9078      1920.7072      75.355404      314.42125      0.11183247   
   1424000   486.8211       1411.1874      1898.0085      64.656906      315.82665      0.11233895   
   1425000   516.18762      1356.9562      1873.1438      98.74307       303.68957      0.11440845   
   1426000   491.30543      1355.084       1846.3894      153.26973      303.27058      0.11927474   
   1427000   487.1291       1335.4285      1822.5576      181.53303      298.87164      0.12495719   
   1428000   479.11786      1317.9564      1797.0743      186.12903      294.96135      0.12653993   
   1429000   478.21541      1284.124       1762.3394      131.86456      287.38959      0.12408821   
   1430000   476.19595      1339.826       1816.0219      70.755218      299.85581      0.1199693    
   1431000   494.8471       1311.7356      1806.5827      23.370209      293.56911      0.11656669   
   1432000   473.80667      1318.2355      1792.0421      6.1311652      295.0238       0.11474435   
   1433000   487.81111      1323.553       1811.3641      13.889244      296.21387      0.11380459   
   1434000   484.56512      1321.2155      1805.7806      91.995059      295.69074      0.11466539   
   1435000   490.90942      1312.4583      1803.3677      145.05145      293.73086      0.11633143   
   1436000   486.43071      1304.6541      1791.0848      183.77121      291.98427      0.11649049   
   1437000   464.56932      1344.4217      1808.9911      176.6798       300.88434      0.11490864   
   1438000   490.04888      1343.817       1833.8659      121.59845      300.74901      0.11310769   
   1439000   539.04213      1347.047       1886.0891      67.484182      301.47189      0.11211874   
   1440000   483.5675       1417.4563      1901.0238      73.14467       317.22963      0.1125976    
   1441000   486.25648      1382.9742      1869.2307      87.166213      309.51246      0.11437571   
   1442000   483.54029      1363.7321      1847.2723      125.03033      305.20603      0.11539047   
   1443000   512.27249      1340.9307      1853.2032      145.73309      300.10304      0.11610008   
   1444000   489.99791      1348.7124      1838.7103      131.0197       301.84459      0.11580735   
   1445000   490.02035      1346.8192      1836.8396      84.422795      301.42091      0.11450378   
   1446000   504.37844      1369.0876      1873.4661      75.617091      306.40462      0.11318645   
   1447000   524.76343      1341.4671      1866.2306      59.822708      300.22309      0.11198233   
   1448000   524.47954      1335.2727      1859.7523      73.819407      298.83678      0.11219907   
   1449000   488.9433       1350.6249      1839.5682      78.725405      302.27262      0.11294456   
   1450000   493.93558      1348.2873      1842.2228      103.19712      301.74946      0.1155892    
   1451000   499.31811      1345.8199      1845.138       115.65292      301.19726      0.11778658   
   1452000   494.89955      1350.7438      1845.6433      97.160545      302.29922      0.11917054   
   1453000   495.93542      1328.5305      1824.4659      91.700997      297.32784      0.12063716   
   1454000   511.27848      1330.8298      1842.1083      82.849601      297.84244      0.12263497   
   1455000   496.32741      1343.6796      1840.007       60.029511      300.71824      0.12049983   
   1456000   474.97774      1316.6707      1791.6484      58.570088      294.6736       0.11483838   
   1457000   502.47814      1309.1633      1811.6415      82.539111      292.99344      0.11183632   
   1458000   499.25375      1316.4152      1815.6689      92.583529      294.61642      0.11085805   
   1459000   496.62127      1318.1711      1814.7923      117.98164      295.00939      0.11162147   
   1460000   496.09732      1319.7707      1815.868       128.35508      295.3674       0.11456562   
   1461000   486.38579      1291.4476      1777.8334      117.2845       289.02862      0.11714678   
   1462000   484.79848      1335.3315      1820.13        75.55751       298.84994      0.11673017   
   1463000   508.99676      1331.878       1840.8747      52.220937      298.07702      0.11435137   
   1464000   511.10452      1317.403       1828.5075      50.156813      294.83749      0.11063086   
   1465000   489.40102      1337.8389      1827.2399      77.313538      299.41109      0.10792934   
   1466000   496.57738      1328.0638      1824.6412      96.079882      297.2234       0.10976238   
   1467000   511.98393      1323.755       1835.7389      110.69769      296.25908      0.11569505   
   1468000   477.13199      1332.1345      1809.2665      79.80233       298.13444      0.11888922   
   1469000   499.04824      1376.1767      1875.2249      100.68581      307.99116      0.12006235   
   1470000   492.83066      1356.0607      1848.8913      97.127584      303.48916      0.11902198   
   1471000   499.93483      1360.5029      1860.4377      106.23743      304.48333      0.1164281    
   1472000   516.67509      1335.4899      1852.165       131.60747      298.88538      0.11476243   
   1473000   494.10965      1364.4787      1858.5883      184.23837      305.37313      0.11535793   
   1474000   494.13662      1346.1535      1840.2901      200.87239      301.27192      0.1193487    
   1475000   483.24213      1361.882       1845.1242      198.30622      304.792        0.12534881   
   1476000   495.00698      1356.2388      1851.2457      130.10185      303.52902      0.12752967   
   1477000   455.93809      1321.3059      1777.244       81.765941      295.71097      0.12593486   
   1478000   462.8409       1321.8089      1784.6498      59.877982      295.82355      0.12386223   
   1479000   505.00812      1328.8251      1833.8333      96.089628      297.39379      0.12159355   
   1480000   514.76599      1311.6312      1826.3971      134.81791      293.54575      0.11919412   
   1481000   508.42649      1319.7287      1828.1552      106.67479      295.35798      0.1168793    
   1482000   517.73934      1301.3702      1819.1095      69.312528      291.24932      0.11559846   
   1483000   498.15306      1285.8077      1783.9608      65.367307      287.76641      0.11605257   
   1484000   505.87451      1284.5416      1790.4162      68.073195      287.48306      0.11828094   
   1485000   504.88005      1324.5354      1829.4154      75.162525      296.43373      0.12084241   
   1486000   500.7177       1325.9985      1826.7162      136.3538       296.76119      0.12415061   
   1487000   506.52247      1317.4174      1823.9399      190.96739      294.84072      0.12564838   
   1488000   491.65785      1300.5394      1792.1972      173.40062      291.06338      0.12382652   
   1489000   486.16699      1299.7906      1785.9576      111.7459       290.8958       0.12046263   
   1490000   503.49469      1312.3662      1815.8609      60.264589      293.71026      0.11818516   
   1491000   498.8545       1317.9586      1816.8131      59.129276      294.96185      0.11679484   
   1492000   494.62401      1353.7375      1848.3615      85.206303      302.96923      0.11729322   
   1493000   505.26372      1357.5822      1862.8459      116.94159      303.82969      0.12024766   
   1494000   482.43476      1310.5047      1792.9395      114.198        293.29365      0.12581495   
   1495000   453.53611      1325.5703      1779.1064      93.121065      296.66535      0.1302248    
   1496000   489.83618      1303.7654      1793.6016      48.362853      291.78537      0.12922957   
   1497000   483.36859      1330.1394      1813.508       17.355313      297.68792      0.12458136   
   1498000   514.57877      1305.6686      1820.2474      42.330968      292.21132      0.12156965   
   1499000   502.21635      1283.402       1785.6184      68.802119      287.22801      0.1191677    
   1500000   481.21383      1273.754       1754.9679      86.150991      285.06877      0.1185151    
   1501000   500.25638      1301.1087      1801.3651      82.569472      291.19079      0.11924458   
   1502000   487.70955      1338.6189      1826.3284      106.79325      299.58566      0.12139425   
   1503000   489.13704      1315.8737      1805.0108      118.04568      294.49524      0.12151106   
   1504000   518.68927      1325.5201      1844.2094      104.85303      296.65412      0.11703108   
   1505000   513.16601      1329.6671      1842.8331      89.083476      297.58223      0.11222136   
   1506000   532.86946      1320.8517      1853.7212      52.242105      295.60933      0.11029967   
   1507000   512.52379      1309.2586      1821.7824      28.104129      293.01477      0.11059872   
   1508000   510.33652      1359.5935      1869.93       -15.859031      304.27981      0.11270303   
   1509000   505.03647      1362.1381      1867.1745      4.3507095      304.84929      0.11474848   
   1510000   511.88185      1366.2028      1878.0846      82.78728       305.75898      0.11634486   
   1511000   526.42158      1334.759       1861.1806      152.27149      298.7218       0.11707049   
   1512000   496.36419      1375.5549      1871.9191      217.39379      307.85202      0.11754856   
   1513000   500.86132      1409.4083      1910.2696      201.38347      315.42847      0.11827816   
   1514000   513.93586      1383.3905      1897.3264      116.42605      309.60564      0.11671106   
   1515000   541.41877      1336.2048      1877.6235      49.709834      299.04537      0.1156032    
   1516000   502.36744      1357.2164      1859.5839      19.871363      303.74783      0.11723466   
   1517000   514.87049      1382.6555      1897.5259      27.112323      309.44113      0.12163121   
   1518000   506.34864      1391.0708      1897.4194      70.939727      311.32449      0.1254746    
   1519000   477.31345      1388.3514      1865.6648      117.1303       310.71589      0.12631814   
   1520000   500.2694       1342.6429      1842.9123      117.8387       300.48624      0.12556069   
   1521000   502.98518      1319.0104      1821.9956      109.90813      295.19724      0.12445449   
   1522000   476.71057      1306.8433      1783.5539      80.389418      292.47421      0.1235651    
   1523000   477.71909      1328.0693      1805.7884      69.44053       297.22463      0.12307952   
   1524000   488.56219      1311.2721      1799.8343      73.20847       293.46539      0.1230383    
   1525000   482.23841      1319.9626      1802.201       83.546239      295.41034      0.12224243   
   1526000   484.79327      1290.974       1775.7672      80.683425      288.92262      0.11978678   
   1527000   515.86177      1338.5559      1854.4176      35.55074       299.57155      0.11327142   
   1528000   512.03947      1336.0601      1848.0995      14.361858      299.01299      0.10942629   
   1529000   508.05781      1347.8669      1855.9247      30.960642      301.65538      0.11064486   
   1530000   495.59209      1381.8404      1877.4325      81.749576      309.25872      0.11391035   
   1531000   513.51295      1356.0631      1869.576       163.20435      303.4897       0.11767942   
   1532000   499.79435      1361.2374      1861.0317      205.81873      304.64772      0.11966968   
   1533000   486.72886      1361.4234      1848.1522      185.19877      304.68934      0.11935263   
   1534000   512.21531      1357.0465      1869.2618      116.15884      303.7098       0.11756205   
   1535000   514.7557       1375.5894      1890.3451      48.582619      307.85973      0.11485797   
   1536000   499.57641      1347.7891      1847.3655      32.29636       301.63797      0.11215139   
   1537000   491.24257      1347.0306      1838.2732      26.518833      301.46822      0.10855111   
   1538000   515.75804      1338.8317      1854.5897      52.110859      299.63328      0.10643415   
   1539000   528.29684      1308.5086      1836.8054      61.350537      292.84691      0.10796133   
   1540000   486.25712      1315.0357      1801.2928      68.88018       294.3077       0.11374765   
   1541000   474.22299      1324.6677      1798.8907      97.548092      296.46336      0.11877974   
   1542000   506.04974      1299.6548      1805.7045      139.15422      290.86541      0.12004214   
   1543000   486.25157      1371.1716      1857.4232      199.39283      306.87102      0.1206394    
   1544000   490.79067      1356.9693      1847.76        212.85779      303.69251      0.12102239   
   1545000   484.118        1384.3905      1868.5085      225.15326      309.82944      0.12036419   
   1546000   508.74897      1377.6219      1886.3709      197.63813      308.31462      0.11650757   
   1547000   530.25526      1354.9033      1885.1585      136.69836      303.23013      0.11036975   
   1548000   507.85656      1305.0114      1812.868       56.833269      292.06423      0.10841941   
   1549000   491.39873      1326.1883      1817.5871     -17.465251      296.80367      0.10905578   
   1550000   498.37321      1329.7424      1828.1157     -25.663416      297.59909      0.11188515   
   1551000   514.90959      1318.4762      1833.3858     -4.5213976      295.07769      0.1154454    
   1552000   496.89814      1324.8993      1821.7975      57.034772      296.51519      0.11754743   
   1553000   492.09056      1395.2888      1887.3794      126.02896      312.2685       0.11855555   
   1554000   495.86818      1383.9011      1879.7693      170.86203      309.71991      0.11691145   
   1555000   532.61589      1345.8703      1878.4862      189.11501      301.20853      0.1131619    
   1556000   489.94224      1364.9896      1854.9319      154.24584      305.48748      0.11099634   
   1557000   517.45351      1371.3467      1888.8002      106.59836      306.9102       0.11091519   
   1558000   515.14891      1335.6634      1850.8123      75.061705      298.92421      0.11117812   
   1559000   507.42039      1377.6951      1885.1155      86.385116      308.33099      0.11127624   
   1560000   505.81141      1352.7109      1858.5223      75.895435      302.73947      0.11161987   
   1561000   525.75884      1359.1845      1884.9433      108.1189       304.18828      0.11398117   
   1562000   511.13379      1380.434       1891.5678      115.56965      308.94396      0.11523366   
   1563000   512.19146      1390.79        1902.9814      92.718606      311.26165      0.11606684   
   1564000   493.71789      1305.867       1799.5849      67.999789      292.25573      0.11758252   
   1565000   492.77394      1330.941       1823.7149      58.854439      297.86732      0.11886696   
   1566000   496.58995      1331.8731      1828.463       81.628892      298.07593      0.11813317   
   1567000   492.65577      1326.9818      1819.6375      85.277308      296.98124      0.11507709   
   1568000   508.15371      1271.2786      1779.4323      97.941358      284.51476      0.1113083    
   1569000   487.04811      1301.3685      1788.4166      94.575346      291.24893      0.10929709   
   1570000   515.60523      1306.3558      1821.9611      80.456119      292.36512      0.1106121    
   1571000   516.91581      1321.0011      1837.9169      67.828473      295.64276      0.11462738   
   1572000   498.03294      1334.5135      1832.5464      67.508488      298.66685      0.11848139   
   1573000   471.4484       1348.7769      1820.2253      99.185574      301.85904      0.12038372   
   1574000   486.01737      1316.5767      1802.5941      130.76843      294.65257      0.1202919    
   1575000   479.59618      1330.457       1810.0531      155.14066      297.759        0.11864398   
   1576000   503.85632      1335.7038      1839.5601      150.72052      298.93325      0.11713236   
   1577000   486.17596      1317.5303      1803.7062      103.17941      294.86597      0.11597307   
   1578000   525.30401      1303.2963      1828.6004      48.605075      291.6804       0.11478047   
   1579000   485.44129      1348.6055      1834.0468      41.57233       301.82069      0.11470863   
   1580000   495.84021      1326.5395      1822.3798      69.048144      296.88227      0.11495452   
   1581000   513.69968      1322.8424      1836.5421      115.1968       296.05484      0.11313942   
   1582000   501.84704      1341.754       1843.6011      142.2966       300.28731      0.10930623   
   1583000   500.32832      1353.5131      1853.8414      144.40144      302.919        0.10672812   
   1584000   515.13331      1365.5386      1880.6719      119.92897      305.61034      0.10747837   
   1585000   511.65533      1352.9053      1864.5606      83.474443      302.78298      0.11281966   
   1586000   466.36635      1380.6755      1847.0418      76.783256      308.99801      0.11882206   
   1587000   498.82522      1365.4253      1864.2506      65.16797       305.58499      0.12123563   
   1588000   497.68681      1372.4442      1870.131       88.893805      307.15583      0.12249598   
   1589000   475.93137      1320.2237      1796.1551      143.88066      295.46878      0.12304916   
   1590000   503.86205      1346.6292      1850.4912      167.07643      301.37837      0.12085615   
   1591000   522.44262      1343.4319      1865.8745      142.24898      300.66281      0.11575516   
   1592000   503.05613      1333.6613      1836.7175      94.610453      298.47614      0.11267943   
   1593000   519.33873      1280.6265      1799.9653      38.66449       286.60685      0.11181128   
   1594000   515.84812      1285.5095      1801.3576      22.064079      287.69966      0.11357695   
   1595000   511.83443      1334.7974      1846.6318      55.452026      298.73039      0.11633392   
   1596000   494.74959      1353.2081      1847.9577      80.758378      302.85076      0.11897707   
   1597000   506.36574      1360.1038      1866.4695      88.265641      304.39402      0.11975192   
   1598000   497.06414      1406.1301      1903.1942      111.03284      314.69479      0.11986364   
   1599000   488.31466      1410.9679      1899.2826      63.631984      315.77751      0.11897158   
   1600000   513.12617      1359.1365      1872.2626      33.654492      304.17753      0.11878929   
   1601000   499.95292      1348.6826      1848.6355      59.976849      301.83793      0.11927713   
   1602000   515.69309      1323.2054      1838.8985      101.92371      296.13608      0.12044136   
   1603000   482.06611      1345.5171      1827.5832      130.27385      301.1295       0.12121887   
   1604000   498.13962      1331.449       1829.5886      108.54851      297.98101      0.11985278   
   1605000   509.4344       1337.9931      1847.4275      88.925637      299.44561      0.11635731   
   1606000   519.19514      1368.9461      1888.1413      89.70087       306.37296      0.11252532   
   1607000   510.42697      1343.2718      1853.6987      107.08365      300.62698      0.11059874   
   1608000   485.73931      1389.4405      1875.1799      139.26757      310.95965      0.11211752   
   1609000   515.49411      1348.082       1863.5762      168.74934      301.70353      0.11571232   
   1610000   506.28654      1353.8667      1860.1532      166.12191      302.99814      0.11813125   
   1611000   489.98583      1340.275       1830.2608      136.22986      299.9563       0.11926031   
   1612000   482.0777       1364.2351      1846.3128      99.754846      305.31861      0.11912183   
   1613000   499.98964      1407.5122      1907.5018      69.242916      315.00412      0.1166314    
   1614000   505.89949      1399.1967      1905.0962      65.12789       313.14309      0.11351754   
   1615000   518.46221      1347.0528      1865.5151      104.76806      301.47319      0.11163257   
   1616000   508.03809      1365.898       1873.9361      147.2196       305.69078      0.11127174   
   1617000   523.04674      1370.8285      1893.8753      160.70843      306.79424      0.11252458   
   1618000   486.42389      1418.3599      1904.7838      171.14791      317.43186      0.112853     
   1619000   500.98422      1343.127       1844.1112      93.847779      300.59457      0.11211145   
   1620000   484.47646      1350.4538      1834.9303      98.166218      302.23433      0.11315086   
   1621000   495.05468      1353.3194      1848.3741      90.550172      302.87566      0.11395288   
   1622000   498.32319      1357.6995      1856.0227      87.725123      303.85594      0.11469747   
   1623000   474.88583      1363.0636      1837.9495      91.061729      305.05644      0.11909153   
   1624000   483.75755      1359.6365      1843.394       106.32299      304.28944      0.12399122   
   1625000   487.07414      1345.4383      1832.5125      119.50966      301.11186      0.12409449   
   1626000   500.77322      1295.542       1796.3152      115.88885      289.94496      0.11975135   
   1627000   519.71787      1338.0508      1857.7686      152.05111      299.45851      0.11625093   
   1628000   500.35897      1353.8237      1854.1826      157.28683      302.98852      0.11465673   
   1629000   478.87643      1342.2351      1821.1116      171.37061      300.39498      0.1144743    
   1630000   495.56465      1312.9964      1808.561       150.94174      293.85128      0.11423089   
   1631000   496.26554      1335.0766      1831.3422      145.30937      298.79289      0.11323617   
   1632000   501.31104      1305.276       1806.587       122.72692      292.12344      0.11355038   
   1633000   501.06167      1332.6417      1833.7034      88.892259      298.24796      0.11541154   
   1634000   498.27145      1307.6174      1805.8889      66.083614      292.64747      0.11866573   
   1635000   468.88273      1356.527       1825.4098      67.359789      303.59354      0.11992325   
   1636000   496.58195      1322.0023      1818.5843      89.446342      295.86683      0.11873413   
   1637000   510.77137      1333.1191      1843.8905      94.274477      298.3548       0.11543788   
   1638000   510.27896      1299.9135      1810.1925      76.732919      290.92332      0.11074024   
   1639000   512.31509      1328.4125      1840.7276      52.343239      297.30145      0.10839982   
   1640000   493.05348      1335.8109      1828.8644      60.314545      298.95722      0.1080462    
   1641000   507.62284      1324.7099      1832.3328      79.392236      296.4728       0.10985943   
   1642000   517.8851       1302.8953      1820.7804      106.05082      291.59064      0.11419192   
   1643000   508.97914      1321.3098      1830.2889      174.66513      295.71185      0.11941801   
   1644000   485.1603       1339.0129      1824.1732      194.43044      299.67384      0.1208803    
   1645000   488.24171      1359.1991      1847.4408      148.29389      304.19155      0.12062384   
   1646000   489.11035      1357.1869      1846.2972      110.93254      303.74121      0.12041903   
   1647000   507.65811      1368.6689      1876.327       53.138385      306.31091      0.11956996   
   1648000   505.12793      1337.7307      1842.8587      44.520744      299.38689      0.11769902   
   1649000   540.45289      1334.6583      1875.1112      31.461875      298.69926      0.11401557   
   1650000   533.22452      1374.5244      1907.7489      63.449745      307.62138      0.11136434   
   1651000   538.34367      1337.0203      1875.364       83.944271      299.22789      0.11013523   
   1652000   523.70066      1348.8169      1872.5176      110.32339      301.868        0.11244997   
   1653000   499.61951      1405.6301      1905.2496      108.83686      314.5829       0.11818914   
   1654000   475.00945      1393.0676      1868.0771      101.39007      311.77139      0.12255368   
   1655000   501.92972      1366.9923      1868.9221      100.87815      305.93569      0.1244466    
   1656000   493.11337      1349.321       1842.4343      110.25392      301.9808       0.12236021   
   1657000   493.87129      1370.2562      1864.1274      112.54471      306.66614      0.11784313   
   1658000   523.23967      1366.1559      1889.3956      94.425437      305.74851      0.11454359   
   1659000   505.90841      1400.9869      1906.8953      103.48714      313.54373      0.11340859   
   1660000   545.87711      1374.448       1920.3251      85.843132      307.60428      0.11295702   
   1661000   514.78891      1350.9281      1865.717       62.485232      302.34049      0.11360792   
   1662000   495.67165      1350.9278      1846.5994      75.212618      302.34041      0.11505707   
   1663000   507.66023      1344.8725      1852.5328      94.482558      300.98524      0.1176406    
   1664000   492.85788      1350.0976      1842.9555      153.31687      302.15462      0.12028148   
   1665000   515.77563      1376.1559      1891.9315      148.42134      307.98652      0.12117965   
   1666000   498.05219      1352.244       1850.2962      135.45551      302.63499      0.12007684   
   1667000   502.53319      1353.1023      1855.6355      75.175267      302.82708      0.116694     
   1668000   496.38576      1333.2294      1829.6152      36.113469      298.37949      0.11286342   
   1669000   492.70364      1327.5775      1820.2811      25.027094      297.11456      0.11119709   
   1670000   501.00211      1290.7158      1791.7179      33.699222      288.86485      0.1105146    
   1671000   513.21748      1315.8726      1829.0901      90.128724      294.495        0.11149151   
   1672000   510.2583       1303.9107      1814.169       152.41318      291.81789      0.11473409   
   1673000   500.6539       1324.5766      1825.2305      208.51218      296.44296      0.11991093   
   1674000   485.26644      1319.7294      1804.9958      185.24017      295.35814      0.12243862   
   1675000   476.71339      1307.6617      1784.3751      118.96988      292.65737      0.1214802    
   1676000   504.62179      1322.1817      1826.8035      44.97316       295.90698      0.11938075   
   1677000   498.63202      1344.6009      1843.233       5.470624       300.92445      0.11794834   
   1678000   480.72894      1289.8153      1770.5442     -9.1011827      288.66331      0.11676577   
   1679000   483.54305      1309.4214      1792.9644      13.392127      293.05119      0.11587806   
   1680000   480.40432      1322.665       1803.0693      70.273922      296.01514      0.11549179   
   1681000   498.78894      1328.4459      1827.2349      140.96098      297.30892      0.11552805   
   1682000   492.03028      1333.1556      1825.1859      199.92813      298.36297      0.11614652   
   1683000   494.79525      1337.4858      1832.2811      221.26139      299.33207      0.11754196   
   1684000   463.46364      1321.4388      1784.9025      198.02277      295.74073      0.11914193   
   1685000   472.2399       1362.6446      1834.8845      142.41791      304.96266      0.12149297   
   1686000   471.57301      1372.2295      1843.8025      117.03915      307.10777      0.1246525    
   1687000   519.17537      1332.1741      1851.3495      127.08202      298.14329      0.1264689    
   1688000   489.70565      1357.3397      1847.0453      111.02353      303.77541      0.12422797   
   1689000   515.80465      1369.1059      1884.9105      98.221594      306.4087       0.11724811   
   1690000   505.74507      1365.6391      1871.3842      85.621051      305.63283      0.11235526   
   1691000   514.61198      1326.62        1841.232       69.226753      296.90028      0.11259151   
   1692000   491.74447      1311.5006      1803.245       72.102834      293.51652      0.1143418    
   1693000   491.37224      1308.7667      1800.139       58.734874      292.90468      0.11609927   
   1694000   495.04998      1317.7091      1812.7591      71.6473        294.90601      0.1188936    
   1695000   505.91526      1320.8891      1826.8044      81.129196      295.6177       0.11941739   
   1696000   487.69355      1307.2539      1794.9474      83.081044      292.5661       0.1172003    
   1697000   531.15598      1337.6311      1868.7871      60.510111      299.36459      0.11332667   
   1698000   502.51078      1347.5754      1850.0862      69.314585      301.59015      0.10943733   
   1699000   504.4073       1358.8331      1863.2404      69.264585      304.10964      0.10889822   
   1700000   500.52141      1397.4551      1897.9765      75.79108       312.75333      0.10997997   
   1701000   508.46537      1384.8694      1893.3348      94.908064      309.93662      0.11509732   
   1702000   487.51481      1392.7992      1880.314       127.48919      311.71132      0.1206157    
   1703000   495.88205      1332.6184      1828.5005      152.56813      298.24274      0.12331559   
   1704000   494.84512      1347.9827      1842.8278      185.22768      301.68129      0.12549798   
   1705000   461.49713      1359.4725      1820.9696      178.63435      304.25273      0.12712409   
   1706000   485.66089      1354.1194      1839.7802      154.01538      303.05469      0.12736239   
   1707000   485.73989      1357.2807      1843.0206      120.10336      303.7622       0.12409119   
   1708000   474.36166      1348.9422      1823.3039      97.090692      301.89603      0.11918834   
   1709000   453.07769      1340.0171      1793.0948      94.276095      299.89859      0.11608073   
   1710000   508.14309      1280.4338      1788.5769      65.554668      286.56372      0.11476962   
   1711000   520.47083      1283.2646      1803.7355      86.666179      287.19726      0.11519104   
   1712000   474.46305      1330.3477      1804.8107      115.81205      297.73455      0.11591067   
   1713000   486.82924      1340.0971      1826.9263      77.922395      299.91647      0.11537658   
   1714000   504.27174      1340.2802      1844.552       35.59749       299.95747      0.1147253    
   1715000   507.20449      1362.6258      1869.8302      13.289006      304.95844      0.11431316   
   1716000   490.31272      1379.7613      1870.074       31.928732      308.79342      0.11491306   
   1717000   498.3822       1374.0929      1872.4751      100.45215      307.5248       0.11723829   
   1718000   500.24489      1356.4246      1856.6694      136.96985      303.5706       0.11992452   
   1719000   503.42135      1356.1471      1859.5684      173.15334      303.50849      0.12075435   
   1720000   491.04037      1346.6402      1837.6806      157.39594      301.38084      0.12065647   
   1721000   485.20478      1355.7102      1840.9149      130.73423      303.41072      0.11991981   
   1722000   499.91355      1351.1426      1851.0562      102.21066      302.3885       0.11971345   
   1723000   512.75554      1327.6091      1840.3646      71.938159      297.12164      0.11937998   
   1724000   489.99256      1343.9279      1833.9204      52.564609      300.77382      0.11918902   
   1725000   487.12226      1344.6461      1831.7684      25.969984      300.93457      0.11771229   
   1726000   515.94226      1325.6346      1841.5769      10.423342      296.67975      0.11503185   
   1727000   491.58903      1319.2409      1810.8299     -3.0080387      295.24882      0.11238229   
   1728000   495.77528      1316.4937      1812.269       0.34518421     294.634        0.11168734   
   1729000   504.21925      1265.6306      1769.8498      23.998004      283.25072      0.11318224   
   1730000   490.61375      1309.9789      1800.5927      70.735838      293.17598      0.11820852   
   1731000   482.56464      1335.692       1818.2566      110.76083      298.9306       0.12256263   
   1732000   464.23418      1324.2368      1788.471       121.49403      296.36692      0.12307878   
   1733000   502.47478      1326.6347      1829.1095      123.63085      296.90358      0.12251663   
   1734000   476.76982      1324.4246      1801.1944      118.25039      296.40895      0.12174297   
   1735000   475.67067      1344.7504      1820.4211      145.71964      300.9579       0.12080313   
   1736000   480.06397      1312.3452      1792.4092      162.01188      293.70556      0.12009529   
   1737000   511.13114      1338.3097      1849.4408      135.50013      299.51645      0.11810235   
   1738000   495.40427      1338.4862      1833.8905      96.343274      299.55596      0.11575338   
   1739000   523.27255      1330.2113      1853.4839      72.031408      297.70403      0.11373004   
   1740000   507.2632       1333.197       1840.4602      65.601544      298.37223      0.11186372   
   1741000   506.71262      1322.3069      1829.0195      70.491565      295.935        0.10925218   
   1742000   519.4307       1378.4814      1897.9121      82.700721      308.50698      0.10582057   
   1743000   520.7598       1374.343       1895.1028      85.826113      307.58079      0.10444      
   1744000   536.54095      1356.0208      1892.5618      64.850881      303.48024      0.1078328    
   1745000   505.9386       1351.8739      1857.8125      34.039344      302.55214      0.11353756   
   1746000   498.50207      1353.0898      1851.5919      13.21825       302.82428      0.11766814   
   1747000   499.23519      1392.0327      1891.2679      35.268306      311.53978      0.1205131    
   1748000   484.79224      1368.3517      1853.1439      93.492847      306.23992      0.12129294   
   1749000   469.64085      1369.0494      1838.6902      144.05424      306.39606      0.11985639   
   1750000   505.25362      1340.6561      1845.9097      173.13682      300.04159      0.11704946   
   1751000   482.76522      1355.0428      1837.8081      132.8663       303.26137      0.11329878   
   1752000   487.24067      1346.0667      1833.3073      109.14176      301.25248      0.1106177    
   1753000   468.119        1322.564       1790.683       99.526931      295.99254      0.11009053   
   1754000   489.45927      1305.4956      1794.9548      94.822343      292.17259      0.11058987   
   1755000   491.48567      1360.9063      1852.3919      143.59686      304.57362      0.11229901   
   1756000   508.14314      1354.0238      1862.1669      159.18167      303.03331      0.11373546   
   1757000   497.77787      1366.3788      1864.1566      133.58159      305.79837      0.11423843   
   1758000   486.6788       1361.5913      1848.2701      114.84769      304.72694      0.11466731   
   1759000   498.06789      1370.5296      1868.5975      108.01631      306.72733      0.11419853   
   1760000   527.28619      1320.7884      1848.0745      81.446676      295.59514      0.1137743    
   1761000   515.48253      1327.5404      1843.0229      65.504427      297.10626      0.11489577   
   1762000   496.77801      1354.7922      1851.5702      49.591231      303.20527      0.1168535    
   1763000   510.17054      1334.0592      1844.2298      69.552239      298.5652       0.11894906   
   1764000   501.91482      1374.2939      1876.2088      87.622812      307.5698       0.12049664   
   1765000   500.07574      1351.0885      1851.1643      137.98624      302.37639      0.12043587   
   1766000   514.95747      1340.6323      1855.5898      142.82544      300.03626      0.11808155   
   1767000   477.50157      1347.5853      1825.0869      153.80695      301.59235      0.11365245   
   1768000   517.71281      1322.0846      1839.7974      147.09095      295.88526      0.11169179   
   1769000   504.0329       1337.6393      1841.6722      122.7257       299.36643      0.11362371   
   1770000   502.73615      1336.8876      1839.6238      84.78519       299.19819      0.11633282   
   1771000   508.00061      1321.431       1829.4316      80.973463      295.73897      0.11806958   
   1772000   487.37001      1325.1644      1812.5344      95.301818      296.57451      0.11923199   
   1773000   448.13381      1302.5063      1750.6401      86.305811      291.50358      0.12042405   
   1774000   490.49474      1305.7034      1796.1981      69.046939      292.21909      0.12195112   
   1775000   498.77751      1332.6361      1831.4136      50.705976      298.2467       0.12270363   
   1776000   477.79316      1350.0123      1827.8055      45.441339      302.13553      0.12269429   
   1777000   478.73444      1324.298       1803.0325      43.631673      296.38062      0.11832965   
   1778000   481.0801       1318.6316      1799.7117      57.969356      295.11245      0.11241646   
   1779000   517.3234       1367.8044      1885.1278      91.291514      306.11742      0.11062805   
   1780000   516.12027      1347.9414      1864.0616      98.291977      301.67204      0.11033046   
   1781000   527.74122      1353.5142      1881.2554      92.660897      302.91926      0.111068     
   1782000   501.90156      1373.1622      1875.0638      123.10719      307.31652      0.11321089   
   1783000   493.07575      1348.143       1841.2188      134.16961      301.71717      0.11676414   
   1784000   496.60474      1360.0114      1856.6162      141.21743      304.37335      0.1202737    
   1785000   537.36831      1375.5523      1912.9206      103.9743       307.85143      0.12171062   
   1786000   516.17898      1394.0832      1910.2622      99.36405       311.99868      0.12067587   
   1787000   506.84305      1368.2872      1875.1302      99.785047      306.22547      0.11685768   
   1788000   508.40783      1351.0209      1859.4287      105.49677      302.36125      0.11461714   
   1789000   517.69214      1353.3373      1871.0294      104.48163      302.87966      0.11400655   
   1790000   519.71302      1360.7804      1880.4934      81.461562      304.54545      0.11406095   
   1791000   507.29258      1342.8633      1850.1558      36.613244      300.53555      0.11428237   
   1792000   483.72628      1303.8394      1787.5657      37.017882      291.80194      0.11647946   
   1793000   495.10731      1297.578       1792.6853      44.220742      290.40062      0.11868909   
   1794000   478.57203      1314.0951      1792.6671      97.508407      294.09718      0.12096458   
   1795000   510.21059      1312.9542      1823.1648      150.36118      293.84184      0.12359671   
   1796000   486.92928      1313.0532      1799.9825      169.74904      293.864        0.12326583   
   1797000   490.28551      1336.1189      1826.4044      126.57941      299.02615      0.11963839   
   1798000   508.18873      1335.5984      1843.7871      76.805712      298.90966      0.11475662   
   1799000   507.49632      1324.9753      1832.4716      30.791802      296.53218      0.11140472   
   1800000   507.18448      1336.4206      1843.6051      13.95372       299.09368      0.11128627   
   1801000   505.19838      1300.3491      1805.5475      35.985986      291.02079      0.11264209   
   1802000   494.7305       1346.7013      1841.4318      118.33216      301.39451      0.1164053    
   1803000   503.91227      1366.9071      1870.8194      164.92069      305.91662      0.1194045    
   1804000   489.13004      1351.025       1840.155       179.67119      302.36216      0.11990102   
   1805000   488.0832       1374.5561      1862.6393      174.96499      307.62849      0.11977688   
   1806000   488.74698      1395.0642      1883.8112      142.05334      312.21824      0.11867652   
   1807000   496.81545      1354.1883      1851.0037      100.56735      303.07012      0.11684475   
   1808000   524.51948      1366.8124      1891.3319      92.305709      305.89542      0.1146326    
   1809000   504.86171      1343.9432      1848.8049      97.39905       300.77725      0.11252904   
   1810000   516.59513      1361.597       1878.1921      99.866192      304.7282       0.11351328   
   1811000   488.83093      1353.4256      1842.2565      119.78584      302.89943      0.11666875   
   1812000   486.6009       1366.2432      1852.8441      71.710923      305.76804      0.11816792   
   1813000   511.69001      1383.4593      1895.1493      69.08925       309.62102      0.11957011   
   1814000   478.28813      1365.4796      1843.7677      87.650513      305.59714      0.11911453   
   1815000   506.6033       1364.2102      1870.8135      97.569458      305.31304      0.11661783   
   1816000   490.77432      1349.5734      1840.3477      125.04999      302.0373       0.11395003   
   1817000   499.31377      1347.1532      1846.467       148.23005      301.49566      0.11343729   
   1818000   534.99512      1324.5013      1859.4965      157.18544      296.42612      0.11639693   
   1819000   496.55674      1369.4874      1866.0441      122.15373      306.49409      0.11992859   
   1820000   495.98542      1368.4643      1864.4497      70.328656      306.26511      0.12200711   
   1821000   496.50803      1368.3859      1864.894       30.707206      306.24758      0.12034104   
   1822000   502.00274      1356.3404      1858.3432      54.16315       303.55177      0.1173598    
   1823000   495.38538      1368.5156      1863.901       74.044311      306.2766       0.11487678   
   1824000   504.80628      1359.9693      1864.7756      98.004458      304.36392      0.11428867   
   1825000   482.98557      1351.4452      1834.4308      131.55933      302.45622      0.11636314   
   1826000   509.92033      1291.6467      1801.5671      109.70706      289.07319      0.12226214   
   1827000   491.63936      1300.4412      1792.0806      89.858326      291.04141      0.1275904    
   1828000   488.20653      1283.4805      1771.687       57.016574      287.24557      0.12871164   
   1829000   496.42306      1295.8271      1792.2501      92.949731      290.00876      0.12726743   
   1830000   492.50026      1324.115       1816.6153      116.64403      296.33966      0.12308734   
   1831000   514.77019      1339.0946      1853.8648      111.82595      299.69212      0.12067564   
   1832000   483.07928      1360.4129      1843.4922      92.321178      304.4632       0.11974987   
   1833000   505.62252      1366.7936      1872.4161      8.3893183      305.89121      0.1179088    
   1834000   523.80914      1356.8066      1880.6157     -23.494749      303.6561       0.11723925   
   1835000   489.47962      1407.5826      1897.0622      12.598337      315.01988      0.11753633   
   1836000   502.11431      1334.6459      1836.7602      103.78535      298.6965       0.11798488   
   1837000   486.10753      1342.7054      1828.8129      159.91233      300.50022      0.1176587    
   1838000   519.08989      1300.8535      1819.9433      179.76711      291.13367      0.11614811   
   1839000   511.91567      1338.2164      1850.1321      160.06192      299.49558      0.11435815   
   1840000   514.2341       1295.9286      1810.1627      106.66656      290.03148      0.11321827   
   1841000   492.2535       1344.8497      1837.1032      82.300693      300.98013      0.1137767    
   1842000   505.94977      1304.3657      1810.3155      57.843274      291.91973      0.11446108   
   1843000   512.01831      1340.0048      1852.0232      66.328096      299.89584      0.11680267   
   1844000   493.16285      1335.7115      1828.8744      83.429856      298.93498      0.11865318   
   1845000   496.96202      1296.5291      1793.4911      108.97624      290.16587      0.11978166   
   1846000   495.01795      1353.2398      1848.2578      127.45186      302.85786      0.12136987   
   1847000   487.13214      1343.6949      1830.827       124.06032      300.72167      0.12219349   
   1848000   501.84663      1338.3951      1840.2418      141.37395      299.53558      0.12269073   
   1849000   518.25554      1343.1156      1861.3711      112.83988      300.59203      0.1208424    
   1850000   481.64905      1335.0645      1816.7135      134.69387      298.79017      0.1168804    
   1851000   513.5295       1345.2124      1858.7419      97.715764      301.06129      0.11303246   
   1852000   522.95261      1333.5033      1856.4559      108.60152      298.44078      0.11207559   
   1853000   509.43261      1389.8472      1899.2798      128.01282      311.05065      0.11269738   
   1854000   510.0749       1370.5045      1880.5794      107.29258      306.72171      0.11492839   
   1855000   487.89592      1319.6         1807.4959      74.818841      295.32919      0.11941154   
   1856000   482.98942      1325.964       1808.9534      73.773219      296.75347      0.12293711   
   1857000   498.85824      1316.4948      1815.3531      87.738799      294.63425      0.12313041   
   1858000   503.57481      1295.7551      1799.3299      88.711927      289.99264      0.12176607   
   1859000   472.94314      1282.4761      1755.4192      93.066933      287.02079      0.11941222   
   1860000   483.93935      1320.8759      1804.8153      137.93459      295.61474      0.11731198   
   1861000   495.62133      1318.3066      1813.9279      132.80078      295.03972      0.11507502   
   1862000   497.07264      1296.9007      1793.9733      118.7903       290.24903      0.11424364   
   1863000   497.72756      1326.0348      1823.7624      99.143678      296.76932      0.11489915   
   1864000   515.1494       1331.1729      1846.3223      84.593545      297.91923      0.11692741   
   1865000   497.53395      1358.6061      1856.1401      78.657714      304.05884      0.1218299    
   1866000   487.76707      1430.1139      1917.881       127.38191      320.06243      0.12830493   
   1867000   483.09314      1396.1283      1879.2214      130.91216      312.45637      0.12704225   
   1868000   511.68579      1350.864       1862.5498      147.57471      302.32614      0.12243452   
   1869000   507.45971      1342.3607      1849.8204      154.88642      300.42309      0.11832702   
   1870000   509.20502      1324.3842      1833.5892      130.64514      296.39989      0.11573778   
   1871000   470.34235      1306.9397      1777.282       102.86918      292.49578      0.11406626   
   1872000   504.67933      1311.0018      1815.6811      67.205717      293.40489      0.11339015   
   1873000   482.69831      1339.3798      1822.0781      62.439345      299.75595      0.11339039   
   1874000   518.77706      1303.1581      1821.9352      21.291939      291.64946      0.11485411   
   1875000   515.22366      1331.6996      1846.9232     -4.1938304      298.03709      0.11872666   
   1876000   504.08984      1333.6884      1837.7782      8.7646184      298.48219      0.12283151   
   1877000   506.42526      1335.7627      1842.1879      45.28064       298.94643      0.1236076    
   1878000   483.90626      1352.7104      1836.6167      76.124649      302.73937      0.1177277    
   1879000   526.04844      1293.844       1819.8925      138.20743      289.56495      0.11171714   
   1880000   508.9957       1333.2831      1842.2788      193.37553      298.3915       0.11100059   
   1881000   524.13442      1291.6496      1815.784       176.87421      289.07383      0.11202164   
   1882000   496.18745      1342.7216      1838.909       131.42179      300.50384      0.11419082   
   1883000   501.97044      1353.8436      1855.8141      64.599881      302.99299      0.11683961   
   1884000   498.25282      1341.7573      1840.0101      34.419989      300.28804      0.11935888   
   1885000   491.82196      1339.1589      1830.9809      25.04318       299.70652      0.11972162   
   1886000   485.25881      1343.4123      1828.6711      96.057278      300.65844      0.11882531   
   1887000   520.66384      1363.2371      1883.901       132.79889      305.09526      0.11498585   
   1888000   520.71413      1369.0333      1889.7474      177.54341      306.39246      0.11118512   
   1889000   546.05329      1398.8499      1944.9032      182.71235      313.06548      0.10993125   
   1890000   516.09026      1374.04        1890.1302      136.84945      307.51296      0.10943049   
   1891000   513.04751      1363.9178      1876.9653      95.858036      305.2476       0.11076375   
   1892000   512.25938      1345.8356      1858.095       49.022025      301.20078      0.11276321   
   1893000   507.3753       1336.8182      1844.1935      60.394593      299.18266      0.11512917   
   1894000   523.31125      1307.4461      1830.7573      44.667285      292.60912      0.11479196   
   1895000   522.63805      1387.2869      1909.925       92.726159      310.47766      0.11403064   
   1896000   517.78436      1341.4143      1859.1987      124.42616      300.21128      0.11258659   
   1897000   516.85546      1340.0385      1856.8939      145.5484       299.90336      0.11130273   
   1898000   503.45788      1321.7218      1825.1797      144.28494      295.80406      0.10881127   
   1899000   519.53434      1333.0346      1852.569       138.59532      298.33589      0.10669338   
   1900000   501.39691      1317.3082      1818.7051      111.76122      294.81627      0.10581409   
   1901000   522.91474      1333.1649      1856.0796      103.26812      298.36504      0.10698614   
   1902000   520.51637      1317.3739      1837.8903      97.412892      294.83098      0.10906457   
   1903000   500.78689      1336.0111      1836.798       94.582623      299.00203      0.11144278   
   1904000   485.24594      1316.9042      1802.1501      58.754511      294.72586      0.11355968   
   1905000   492.89767      1336.0082      1828.9059      56.03981       299.00137      0.11460333   
   1906000   500.4737       1297.8077      1798.2814      55.168568      290.45203      0.11557742   
   1907000   492.16548      1341.5687      1833.7342      103.63513      300.24584      0.11737778   
   1908000   480.92178      1329.0001      1809.9219      124.51202      297.43294      0.11757179   
   1909000   509.16382      1326.3082      1835.4721      147.82642      296.83051      0.11638449   
   1910000   508.38727      1301.2466      1809.6339      106.03214      291.22166      0.11225597   
   1911000   510.80126      1329.9974      1840.7987      68.030605      297.65616      0.10734756   
   1912000   488.72389      1326.6816      1815.4055      77.562795      296.91406      0.10760511   
   1913000   501.0107       1330.2754      1831.2861      69.477489      297.71837      0.11089688   
   1914000   526.92216      1314.9167      1841.8388      122.22714      294.28105      0.11460212   
   1915000   485.52727      1329.9948      1815.5221      175.86766      297.65557      0.11713817   
   1916000   490.02706      1350.4         1840.4271      188.5135       302.2223       0.11862535   
   1917000   486.38582      1336.4788      1822.8647      175.14862      299.10671      0.11819614   
   1918000   514.59348      1334.1374      1848.7309      132.31462      298.58269      0.11630087   
   1919000   505.0238       1335.3859      1840.4097      118.98978      298.86211      0.11478228   
   1920000   500.20558      1341.7077      1841.9133      134.1991       300.27693      0.11564088   
   1921000   492.7163       1389.5862      1882.3025      156.00603      310.99225      0.11823542   
   1922000   490.67672      1376.3332      1867.0099      136.40548      308.02619      0.1214637    
   1923000   485.45028      1370.1061      1855.5564      126.00963      306.63256      0.12288494   
   1924000   512.5851       1358.5806      1871.1657      77.170376      304.05313      0.1209365    
   1925000   526.80654      1368.5308      1895.3373      94.482225      306.28         0.11712127   
   1926000   509.72642      1348.6206      1858.347       36.06402       301.82406      0.11237442   
   1927000   509.65408      1375.1134      1884.7674      56.546279      307.75319      0.11184694   
   1928000   513.08636      1347.185       1860.2713      80.850048      301.50276      0.11358804   
   1929000   506.73204      1360.4824      1867.2145      121.06021      304.47876      0.11589436   
   1930000   493.3213       1330.1326      1823.4539      116.81915      297.68642      0.11655845   
   1931000   489.2806       1343.3436      1832.6242      121.70547      300.64307      0.1175429    
   1932000   516.29147      1301.2658      1817.5573      84.723337      291.22597      0.11803506   
   1933000   517.06465      1294.0056      1811.0702      89.483834      289.60111      0.1177291    
   1934000   494.99075      1290.533       1785.5238      107.30845      288.82393      0.11747055   
   1935000   480.98445      1342.5907      1823.5752      123.75831      300.47456      0.11737988   
   1936000   518.84433      1331.5047      1850.349       125.53062      297.99348      0.11835136   
   1937000   500.78775      1327.2504      1828.0382      95.653159      297.04137      0.1187518    
   1938000   482.19641      1328.718       1810.9144      90.926706      297.36982      0.12006946   
   1939000   488.75596      1336.8701      1825.6261      70.738145      299.19428      0.12081936   
   1940000   499.32467      1312.3716      1811.6962      36.82301       293.71145      0.11970366   
   1941000   506.03167      1355.7729      1861.8046     -2.3554094      303.42477      0.11822099   
   1942000   511.26669      1339.3652      1850.6319      25.30654       299.75268      0.11721847   
   1943000   505.27058      1339.2314      1844.5019      57.635698      299.72273      0.118433     
   1944000   500.15765      1392.646       1892.8036      75.781603      311.67703      0.12237706   
   1945000   505.92667      1376.4902      1882.4169      52.65172       308.06133      0.12399347   
   1946000   496.23248      1363.3711      1859.6036      33.082445      305.12526      0.12241491   
   1947000   520.97145      1335.0021      1855.9736      7.1394355      298.77622      0.11890633   
   1948000   518.09233      1368.2221      1886.3145      39.413628      306.21092      0.11514205   
   1949000   520.79015      1370.6617      1891.4519      78.434031      306.75691      0.1109153    
   1950000   515.18531      1357.2018      1872.3871      149.06657      303.74455      0.10933592   
   1951000   518.83158      1349.2199      1868.0515      178.63476      301.95819      0.10982319   
   1952000   540.93012      1335.49        1876.4202      185.60457      298.88541      0.11442108   
   1953000   484.33411      1292.7936      1777.1277      154.39879      289.32986      0.11933995   
   1954000   486.633        1327.8868      1814.5198      102.37158      297.18378      0.12085735   
   1955000   484.80643      1307.3329      1792.1393      69.099746      292.58379      0.12072316   
   1956000   470.09616      1369.0799      1839.1761      61.739185      306.40289      0.11866797   
   1957000   520.17871      1345.8363      1866.015       86.095755      301.20092      0.11663972   
   1958000   522.25411      1364.0097      1886.2639      104.52919      305.26818      0.11497339   
   1959000   509.19887      1364.1148      1873.3136      149.9886       305.29168      0.11451361   
   1960000   486.41119      1430.4584      1916.8696      156.29705      320.13953      0.11795335   
   1961000   490.5142       1367.1505      1857.6647      148.7872       305.97109      0.1230527    
   1962000   490.74347      1352.5468      1843.2903      138.62367      302.70276      0.12667822   
   1963000   491.4773       1352.8776      1844.3549      110.62097      302.77679      0.12770442   
   1964000   484.42845      1327.9076      1812.336       96.854125      297.18844      0.12636278   
   1965000   502.27514      1323.4794      1825.7546      68.125003      296.19741      0.1236559    
   1966000   496.27656      1340.3115      1836.5881      83.308127      299.96447      0.12095094   
   1967000   469.84782      1325.9413      1795.7891      121.59141      296.74838      0.11749896   
   1968000   519.44354      1292.634       1812.0776      143.91485      289.29415      0.11350911   
   1969000   490.28285      1323.9397      1814.2225      113.56655      296.30042      0.1114619    
   1970000   484.7492       1343.4382      1828.1874      89.180874      300.66423      0.11318993   
   1971000   476.25119      1323.7787      1800.0299      72.94952       296.26438      0.11801047   
   1972000   520.27977      1314.6845      1834.9643      68.827599      294.22909      0.12113459   
   1973000   504.75825      1316.5124      1821.2706      93.143539      294.63817      0.12182903   
   1974000   469.97968      1328.4901      1798.4698      111.11999      297.31882      0.12111903   
   1975000   499.11995      1330.4091      1829.5291      103.35432      297.74829      0.11954266   
   1976000   483.86735      1370.2133      1854.0806      113.09485      306.65654      0.11897782   
   1977000   509.24779      1338.414       1847.6618      78.120214      299.5398       0.11892101   
   1978000   493.42129      1379.0248      1872.4461      92.89255       308.62859      0.12142888   
   1979000   474.18063      1354.503       1828.6836      74.454264      303.14055      0.12816468   
   1980000   476.64969      1362.6611      1839.3108      61.1126        304.96636      0.13171873   
   1981000   463.60481      1349.1101      1812.7149      76.058312      301.93362      0.13061215   
   1982000   468.81893      1313.3544      1782.1734      103.06526      293.93142      0.12572638   
   1983000   491.08297      1359.0189      1850.1019      139.99528      304.15122      0.1204311    
   1984000   527.54742      1352.1821      1879.7295      184.54942      302.62112      0.11715362   
   1985000   502.63581      1383.612       1886.2478      175.58456      309.65521      0.11428482   
   1986000   505.38151      1366.9987      1872.3802      161.43906      305.93711      0.11164504   
   1987000   538.30368      1355.0543      1893.358       145.31485      303.26394      0.10982934   
   1988000   480.53068      1343.8317      1824.3624      117.19108      300.75229      0.11042707   
   1989000   496.34106      1341.9647      1838.3057      78.135204      300.33445      0.11401679   
   1990000   513.18336      1357.4868      1870.6701      41.201314      303.80833      0.11793662   
   1991000   497.15213      1383.0743      1880.2264      4.2121018      309.53487      0.11945255   
   1992000   500.67048      1371.0622      1871.7327     -12.545069      306.84653      0.11931016   
   1993000   495.07852      1356.7445      1851.823       38.359338      303.6422       0.11860427   
   1994000   563.58031      1297.6227      1861.203       97.687783      290.41063      0.11668676   
   1995000   469.58737      1343.5005      1813.0879      108.75922      300.67818      0.11345708   
   1996000   486.22371      1337.7433      1823.967       100.00963      299.3897       0.11198421   
   1997000   497.14763      1332.8722      1830.0199      100.2691       298.29954      0.11292482   
   1998000   493.79002      1309.1865      1802.9765      89.834644      292.99863      0.11748062   
   1999000   506.42963      1332.5071      1838.9367      103.57987      298.21782      0.12390467   
   2000000   488.32397      1309.2725      1797.5965      97.460128      293.01787      0.12500701   
Loop time of 13683.3 on 8 procs for 2000000 steps with 1500 atoms

Performance: 6.314 ns/day, 3.801 hours/ns, 146.163 timesteps/s, 219.245 katom-step/s
98.7% CPU use with 8 MPI tasks x 1 OpenMP threads

MPI task timing breakdown:
Section |  min time  |  avg time  |  max time  |%varavg| %total
---------------------------------------------------------------
Pair    | 296.3      | 309.86     | 324.7      |  53.0 |  2.26
Bond    | 23.454     | 23.923     | 24.601     |   7.1 |  0.17
Kspace  | 6149.1     | 6164.5     | 6177.4     |  11.6 | 45.05
Neigh   | 5.5666     | 5.5844     | 5.6042     |   0.5 |  0.04
Comm    | 151.76     | 153.01     | 153.73     |   5.7 |  1.12
Output  | 0.90461    | 0.91254    | 0.96636    |   2.1 |  0.01
Modify  | 6326.8     | 6677.5     | 6984.7     | 318.9 | 48.80
Other   |            | 348        |            |       |  2.54

Nlocal:          187.5 ave         199 max         169 min
Histogram: 1 0 1 0 0 1 1 1 1 2
Nghost:           1430 ave        1454 max        1416 min
Histogram: 1 2 2 0 0 2 0 0 0 1
Neighs:        10751.1 ave       11678 max       10056 min
Histogram: 2 0 1 0 1 3 0 0 0 1

Total # of neighbors = 86009
Ave neighs/atom = 57.339333
Ave special neighs/atom = 2
Neighbor list builds = 12653
Dangerous builds = 0
System init for write_data ...
PPPM initialization ...
  using 12-bit tables for long-range coulomb (src/kspace.cpp:342)
  G vector (1/distance) = 0.27001935
  grid = 54 54 54
  stencil order = 5
  estimated absolute RMS force accuracy = 0.00031218041
  estimated relative force accuracy = 9.4012202e-07
  using single precision FFTW3
  3d grid and FFT values/proc = 39304 20412
Generated 1 of 1 mixed pair_coeff terms from arithmetic mixing rule
Last active /omp style is kspace_style pppm/omp
