LAMMPS (19 Nov 2024)
OMP_NUM_THREADS environment is not set. Defaulting to 1 thread. (src/comm.cpp:99)
  using 1 OpenMP thread(s) per MPI task
using multi-threaded neighbor list subroutines
Reading data file ...
  orthogonal box = (0 0 0) to (46.994434 46.994434 46.994434)
  2 by 2 by 2 MPI processor grid
  reading atoms ...
  1500 atoms
  scanning bonds ...
  1 = max bonds/atom
  scanning angles ...
  1 = max angles/atom
  orthogonal box = (0 0 0) to (46.994434 46.994434 46.994434)
  2 by 2 by 2 MPI processor grid
  reading bonds ...
  1000 bonds
  reading angles ...
  500 angles
Finding 1-2 1-3 1-4 neighbors ...
  special bond factors lj:    0        0        0       
  special bond factors coul:  0        0        0       
     2 = max # of 1-2 neighbors
     1 = max # of 1-3 neighbors
     1 = max # of 1-4 neighbors
     2 = max # of special neighbors
  special bonds CPU = 0.000 seconds
  read_data CPU = 0.084 seconds
Setting atom values ...
  1000 settings made for charge
Setting atom values ...
  500 settings made for charge
1000 atoms in group oxy
500 atoms in group carb
PPPM initialization ...
  using 12-bit tables for long-range coulomb (src/kspace.cpp:342)
  G vector (1/distance) = 0.27054255
  grid = 45 45 45
  stencil order = 5
  estimated absolute RMS force accuracy = 0.00039841041
  estimated relative force accuracy = 1.1998011e-06
  using single precision FFTW3
  3d grid and FFT values/proc = 27000 12420
Generated 1 of 1 mixed pair_coeff terms from arithmetic mixing rule
Last active /omp style is kspace_style pppm/omp
Neighbor list info ...
  update: every = 1 steps, delay = 0 steps, check = yes
  max neighbors/atom: 2000, page size: 100000
  master list distance cutoff = 15
  ghost atom cutoff = 15
  binsize = 7.5, bins = 7 7 7
  1 neighbor lists, perpetual/occasional/extra = 1 0 0
  (1) pair lj/cut/coul/long/omp, perpetual
      attributes: half, newton on, omp
      pair build: half/bin/newton/omp
      stencil: half/bin/3d
      bin: standard
Setting up cg style minimization ...
  Unit style    : real
  Current step  : 0
Per MPI rank memory allocation (min/avg/max) = 9.374 | 9.42 | 9.487 Mbytes
   Step          Temp          E_pair         E_mol          TotEng         Press     
         0   0              64.58149       1.4450289e-05  64.581505      787.9886     
      9001   0             -613.65947      0.35321957    -613.30625     -32.55136     
Loop time of 43.9359 on 8 procs for 9001 steps with 1500 atoms

99.6% CPU use with 8 MPI tasks x 1 OpenMP threads

Minimization stats:
  Stopping criterion = energy tolerance
  Energy initial, next-to-last, final = 
      64.5815045960751  -613.305833864493  -613.306248472365
  Force two-norm initial, final = 145.96005 0.67677573
  Force max component initial, final = 14.197689 0.092468619
  Final line search alpha, max atom move = 0.53724002 0.049677843
  Iterations, force evaluations = 9001 18001

MPI task timing breakdown:
Section |  min time  |  avg time  |  max time  |%varavg| %total
---------------------------------------------------------------
Pair    | 3.5976     | 8.9003     | 15.242     | 112.2 | 20.26
Bond    | 0.10338    | 0.13237    | 0.16755    |   6.3 |  0.30
Kspace  | 26.707     | 33.089     | 38.357     |  58.6 | 75.31
Neigh   | 0.027375   | 0.027811   | 0.028634   |   0.3 |  0.06
Comm    | 1.2876     | 1.4756     | 1.5897     |   7.5 |  3.36
Output  | 0          | 0          | 0          |   0.0 |  0.00
Modify  | 0.027979   | 0.028981   | 0.02983    |   0.3 |  0.07
Other   |            | 0.2816     |            |       |  0.64

Nlocal:          187.5 ave         259 max         115 min
Histogram: 1 0 2 0 1 1 1 0 0 2
Nghost:        2354.88 ave        2473 max        2194 min
Histogram: 1 0 1 0 1 1 1 0 2 1
Neighs:        31282.4 ave       55881 max        9541 min
Histogram: 1 0 1 1 1 2 1 0 0 1

Total # of neighbors = 250259
Ave neighs/atom = 166.83933
Ave special neighs/atom = 2
Neighbor list builds = 37
Dangerous builds = 0
PPPM initialization ...
  using 12-bit tables for long-range coulomb (src/kspace.cpp:342)
  G vector (1/distance) = 0.27054255
  grid = 45 45 45
  stencil order = 5
  estimated absolute RMS force accuracy = 0.00039841041
  estimated relative force accuracy = 1.1998011e-06
  using single precision FFTW3
  3d grid and FFT values/proc = 27000 12420
Generated 1 of 1 mixed pair_coeff terms from arithmetic mixing rule
Last active /omp style is kspace_style pppm/omp
Setting up Verlet run ...
  Unit style    : real
  Current step  : 9001
  Time step     : 0.1
Per MPI rank memory allocation (min/avg/max) = 8.275 | 8.321 | 8.388 Mbytes
   Step         PotEng         KinEng         TotEng         Press           Temp        v_Density   
      9001  -613.30625      1340.4703      727.16403      557.85465      300            0.22330196   
     10000   250.05372      1154.522       1404.5757      375.35765      258.3844       0.18388558   
     11000   86.218917      1417.0707      1503.2896      296.79768      317.14333      0.16046389   
     12000   240.28193      1288.3786      1528.6606      159.31602      288.34178      0.1529604    
     13000   211.70666      1322.6722      1534.3789      180.28516      296.01675      0.15328472   
     14000   187.05637      1379.5723      1566.6286      225.33966      308.7511       0.15565652   
     15000   281.5411       1282.2663      1563.8074      168.09731      286.97384      0.15737902   
     16000   192.33594      1412.8634      1605.1993      212.16328      316.20173      0.15353262   
     17000   307.0197       1256.4533      1563.473       168.71356      281.19682      0.16678867   
     18000   180.2881       1412.3895      1592.6776      213.51955      316.09566      0.17107292   
     19000   278.05905      1325.5956      1603.6546      183.88075      296.67101      0.18058654   
     20000   224.85644      1372.4032      1597.2597      208.1251       307.14666      0.18478762   
     21000   258.32236      1377.0471      1635.3695      194.96976      308.18598      0.19339264   
     22000   265.45305      1364.5214      1629.9744      164.14091      305.38269      0.19066059   
     23000   257.86151      1328.8355      1586.697       219.30577      297.3961       0.19237902   
     24000   281.46785      1303.6714      1585.1393      211.60141      291.76434      0.20152304   
     25000   255.74346      1367.2216      1622.965       229.44453      305.98699      0.20234258   
     26000   347.01727      1323.4749      1670.4921      113.12156      296.19639      0.19377803   
     27000   286.14343      1378.1905      1664.3339      248.24273      308.44185      0.1945694    
     28000   324.62018      1325.9031      1650.5233      193.96635      296.73984      0.18706299   
     29000   305.39202      1338.2396      1643.6316      198.45885      299.50076      0.18941655   
     30000   336.12427      1323.5097      1659.634       134.38383      296.2042       0.18451067   
     31000   370.35392      1304.8105      1675.1644      191.1651       292.01927      0.18140053   
     32000   322.91927      1402.6682      1725.5874      276.3572       313.92001      0.19095057   
     33000   339.67463      1329.9576      1669.6323      147.44461      297.64725      0.19233341   
     34000   351.37168      1326.7011      1678.0727      118.58843      296.91842      0.17809707   
     35000   347.62059      1324.0469      1671.6675      227.38659      296.32441      0.1790113    
     36000   365.40651      1316.3728      1681.7793      228.47584      294.60693      0.1856433    
     37000   332.57536      1302.8444      1635.4198      167.83685      291.57926      0.18883068   
     38000   338.03167      1341.9947      1680.0264      166.15417      300.34118      0.19200909   
     39000   324.7471       1367.4913      1692.2384      265.51233      306.04737      0.1922768    
     40000   337.77939      1340.5248      1678.3042      268.50965      300.01221      0.18873227   
     41000   369.99489      1352.344       1722.3389      110.74104      302.65736      0.1918608    
     42000   369.24543      1352.2136      1721.459       109.9969       302.62817      0.18556943   
     43000   372.61718      1404.33        1776.9472      281.53869      314.29193      0.18304893   
     44000   376.3486       1352.9198      1729.2684      254.39986      302.78623      0.19201284   
     45000   372.12687      1364.9973      1737.1241      113.06498      305.48919      0.18438193   
     46000   383.99318      1352.6796      1736.6727      138.1171       302.73246      0.18240567   
     47000   361.65616      1387.9202      1749.5764      261.20742      310.61939      0.18910925   
     48000   362.36366      1334.8617      1697.2254      185.80503      298.74479      0.19185607   
     49000   381.38164      1385.3067      1766.6884      177.90478      310.03448      0.18950506   
     50000   377.2057       1332.7262      1709.9319      177.39007      298.26685      0.17850723   
     51000   393.4961       1336.3844      1729.8805      197.38696      299.08557      0.1789679    
     52000   376.87177      1381.0294      1757.9012      207.62907      309.07722      0.19011589   
     53000   369.1          1351.7757      1720.8757      151.84744      302.53018      0.1912474    
     54000   372.15929      1343.7407      1715.9         210.92387      300.73193      0.18750669   
     55000   348.77716      1375.3113      1724.0885      231.29258      307.79749      0.18878287   
     56000   349.34417      1368.8636      1718.2078      210.81855      306.35449      0.19355921   
     57000   380.48171      1355.0176      1735.4993      139.03168      303.25572      0.19794486   
     58000   366.26541      1376.4336      1742.699       147.49353      308.04866      0.19458665   
     59000   362.42174      1358.5741      1720.9959      248.46835      304.05168      0.18772134   
     59001   364.99086      1356.3878      1721.3787      247.36262      303.56238      0.18771758   
Loop time of 188.426 on 8 procs for 50000 steps with 1500 atoms

Performance: 2.293 ns/day, 10.468 hours/ns, 265.356 timesteps/s, 398.033 katom-step/s
99.6% CPU use with 8 MPI tasks x 1 OpenMP threads

MPI task timing breakdown:
Section |  min time  |  avg time  |  max time  |%varavg| %total
---------------------------------------------------------------
Pair    | 9.1444     | 10.947     | 14.402     |  58.6 |  5.81
Bond    | 0.35266    | 0.42363    | 0.50565    |   6.9 |  0.22
Kspace  | 78.108     | 81.623     | 83.729     |  22.1 | 43.32
Neigh   | 0.052845   | 0.05354    | 0.05472    |   0.3 |  0.03
Comm    | 3.0805     | 3.4734     | 3.7558     |  10.5 |  1.84
Output  | 0.0017726  | 0.0019412  | 0.0030503  |   1.0 |  0.00
Modify  | 79.276     | 84.281     | 91.605     |  40.6 | 44.73
Other   |            | 7.623      |            |       |  4.05

Nlocal:          187.5 ave         251 max         149 min
Histogram: 2 0 2 1 1 0 1 0 0 1
Nghost:         1821.5 ave        1943 max        1672 min
Histogram: 1 0 1 0 1 1 2 0 1 1
Neighs:        16637.6 ave       25356 max       11802 min
Histogram: 2 1 1 1 2 0 0 0 0 1

Total # of neighbors = 133101
Ave neighs/atom = 88.734
Ave special neighs/atom = 2
Neighbor list builds = 83
Dangerous builds = 0
PPPM initialization ...
  using 12-bit tables for long-range coulomb (src/kspace.cpp:342)
  G vector (1/distance) = 0.27069482
  grid = 48 48 48
  stencil order = 5
  estimated absolute RMS force accuracy = 0.00035693698
  estimated relative force accuracy = 1.0749051e-06
  using single precision FFTW3
  3d grid and FFT values/proc = 29791 13824
Generated 1 of 1 mixed pair_coeff terms from arithmetic mixing rule
Last active /omp style is kspace_style pppm/omp
Setting up Verlet run ...
  Unit style    : real
  Current step  : 59001
  Time step     : 0.25
Per MPI rank memory allocation (min/avg/max) = 8.515 | 8.517 | 8.519 Mbytes
   Step         PotEng         KinEng         TotEng         Press           Temp        v_Density   
     59001   364.99248      1356.3878      1721.3803      247.36018      303.56238      0.18771758   
     60000   372.12714      1347.3861      1719.5133      285.75271      301.54778      0.19426571   
     61000   404.25164      1385.732       1789.9837      260.12301      310.12967      0.18936922   
     62000   415.87854      1336.9041      1752.7826      108.3545       299.20187      0.18910548   
     63000   400.96681      1288.3857      1689.3525     -14.327414      288.34336      0.1879709    
     64000   376.75749      1296.8549      1673.6124      46.457848      290.23879      0.18854039   
     65000   367.54932      1289.3589      1656.9082      160.88962      288.56117      0.19447957   
     66000   385.7356       1362.8033      1748.5389      270.11285      304.99817      0.19107316   
     67000   393.98062      1363.3855      1757.3661      323.92509      305.12847      0.18439268   
     68000   370.90292      1354.5606      1725.4635      286.62485      303.15344      0.19265478   
     69000   371.59713      1292.1872      1663.7844      79.417711      289.19416      0.18661472   
     70000   384.90732      1395.7133      1780.6206      58.568038      312.3635       0.18692568   
     71000   411.08764      1403.0015      1814.0891      54.644418      313.99461      0.17968659   
     72000   419.71683      1321.3134      1741.0302      174.35478      295.71265      0.18307918   
     73000   396.75996      1341.1965      1737.9564      266.37223      300.16252      0.18369674   
     74000   389.13754      1399.056       1788.1936      370.5807       313.11161      0.18856036   
     75000   395.76806      1355.2421      1751.0101      269.66333      303.30595      0.18024476   
     76000   396.11685      1338.2462      1734.3631      132.44634      299.50225      0.17970067   
     77000   387.60127      1343.566       1731.1673      43.706105      300.69284      0.17965985   
     78000   367.82925      1350.6869      1718.5162      100.60562      302.2865       0.18906393   
     79000   381.70216      1344.9815      1726.6836      185.88787      301.00961      0.18760154   
     80000   351.34689      1345.9259      1697.2728      340.23425      301.22098      0.20049991   
     81000   401.26563      1325.6757      1726.9414      257.4768       296.68895      0.18531018   
     82000   385.14056      1310.9142      1696.0548      191.55304      293.38529      0.18935624   
     83000   410.71843      1380.8355      1791.554       148.48716      309.03382      0.18761856   
     84000   399.1221       1357.2843      1756.4064      121.65862      303.76301      0.18479149   
     85000   406.96415      1344.1816      1751.1457      177.57682      300.8306       0.18929779   
     86000   412.04041      1387.9977      1800.0381      251.65225      310.63673      0.19509995   
     87000   402.80367      1354.6187      1757.4224      290.89727      303.16644      0.1897805    
     88000   368.77104      1265.0451      1633.8162      238.34024      283.1197       0.1826106    
     89000   384.9393       1343.2525      1728.1918      195.99055      300.62266      0.18124138   
     90000   385.46726      1300.9175      1686.3848      95.93161       291.14801      0.18200354   
     91000   393.59287      1323.8405      1717.4333      132.25554      296.27821      0.18236223   
     92000   405.87088      1338.3854      1744.2563      198.35561      299.53341      0.18692741   
     93000   400.98338      1352.6077      1753.5911      255.11362      302.71638      0.18372473   
     94000   422.59551      1347.8765      1770.472       237.61366      301.65753      0.1856243    
     95000   395.9872       1285.5301      1681.5173      193.36287      287.70427      0.18012547   
     96000   391.27144      1297.1091      1688.3806      183.5947       290.29569      0.19501686   
     97000   415.23547      1298.6703      1713.9058      203.21657      290.64509      0.18904337   
     98000   409.31212      1332.0413      1741.3534      210.02602      298.11357      0.19118628   
     99000   411.13314      1337.7151      1748.8482      209.7896       299.38338      0.1797879    
    100000   392.62377      1367.055       1759.6788      228.84384      305.94972      0.19004588   
    101000   391.13082      1373.7383      1764.8691      198.59836      307.44545      0.18284271   
    102000   387.72759      1376.8458      1764.5734      198.78164      308.14091      0.19230147   
    103000   382.98004      1335.4129      1718.3929      172.19571      298.86814      0.1814414    
    104000   411.38153      1293.796       1705.1776      197.56655      289.55421      0.18155183   
    105000   394.11479      1321.9547      1716.0695      318.69753      295.85618      0.18895348   
    106000   391.598        1339.4303      1731.0283      286.01991      299.76724      0.18482893   
    107000   426.74196      1323.4588      1750.2008      200.88197      296.1928       0.17897329   
    108000   380.31072      1331.3681      1711.6789      134.05395      297.96292      0.18917647   
    109000   375.70852      1364.3487      1740.0572      165.10838      305.34403      0.19641087   
    109001   387.43208      1354.8359      1742.268       157.76455      303.21505      0.19637877   
Loop time of 205.203 on 8 procs for 50000 steps with 1500 atoms

Performance: 5.263 ns/day, 4.560 hours/ns, 243.662 timesteps/s, 365.492 katom-step/s
99.6% CPU use with 8 MPI tasks x 1 OpenMP threads

MPI task timing breakdown:
Section |  min time  |  avg time  |  max time  |%varavg| %total
---------------------------------------------------------------
Pair    | 7.7202     | 9.0109     | 9.4575     |  17.9 |  4.39
Bond    | 0.38669    | 0.4231     | 0.43998    |   2.6 |  0.21
Kspace  | 85.815     | 86.367     | 87.545     |   5.7 | 42.09
Neigh   | 0.10588    | 0.1072     | 0.10973    |   0.5 |  0.05
Comm    | 3.0014     | 3.354      | 3.5573     |   9.7 |  1.63
Output  | 0.0017138  | 0.0018244  | 0.0025635  |   0.7 |  0.00
Modify  | 101.91     | 103.66     | 105.44     |  12.2 | 50.52
Other   |            | 2.281      |            |       |  1.11

Nlocal:          187.5 ave         198 max         164 min
Histogram: 1 0 0 0 1 0 1 0 3 2
Nghost:         1854.5 ave        1912 max        1814 min
Histogram: 3 0 0 1 1 0 1 1 0 1
Neighs:        17141.6 ave       18696 max       14357 min
Histogram: 1 0 0 1 0 1 0 1 3 1

Total # of neighbors = 137133
Ave neighs/atom = 91.422
Ave special neighs/atom = 2
Neighbor list builds = 195
Dangerous builds = 0
PPPM initialization ...
  using 12-bit tables for long-range coulomb (src/kspace.cpp:342)
  G vector (1/distance) = 0.27189514
  grid = 48 48 48
  stencil order = 5
  estimated absolute RMS force accuracy = 0.00033816042
  estimated relative force accuracy = 1.0183601e-06
  using single precision FFTW3
  3d grid and FFT values/proc = 29791 13824
Generated 1 of 1 mixed pair_coeff terms from arithmetic mixing rule
Last active /omp style is kspace_style pppm/omp
Setting up Verlet run ...
  Unit style    : real
  Current step  : 109001
  Time step     : 0.5
Per MPI rank memory allocation (min/avg/max) = 8.515 | 8.517 | 8.519 Mbytes
   Step         PotEng         KinEng         TotEng         Press           Temp        v_Density   
    109001   387.43166      1354.8359      1742.2675      157.7646       303.21505      0.19637877   
    110000   492.07555      1377.4873      1869.5628      215.46138      308.28448      0.21838454   
    111000   434.41763      1320.7833      1755.201       349.27962      295.59402      0.23550751   
    112000   511.79991      1332.6011      1844.401       55.261238      298.23887      0.20267202   
    113000   515.89811      1374.2867      1890.1848      149.64466      307.56818      0.21303433   
    114000   475.59198      1293.5897      1769.1817      325.86835      289.50804      0.22912999   
    115000   493.90263      1405.6398      1899.5425      123.36403      314.58508      0.21155599   
    116000   495.42073      1330.9827      1826.4034      287.29135      297.87665      0.21184495   
    117000   467.51308      1346.84        1814.353       270.27644      301.42555      0.21555788   
    118000   521.63328      1356.9692      1878.6025      62.930267      303.6925       0.21754913   
    119000   504.86874      1358.6473      1863.516       207.95794      304.06805      0.21552934   
    120000   462.23677      1355.8256      1818.0624      312.54428      303.43656      0.20641386   
    121000   514.26862      1383.0894      1897.358       144.05429      309.53825      0.21045436   
    122000   525.9817       1359.0344      1885.0161      171.1926       304.15469      0.21517569   
    123000   494.99563      1339.8042      1834.7998      245.28029      299.85092      0.21105907   
    124000   472.89134      1311.2824      1784.1737      142.82118      293.46769      0.20871089   
    125000   509.1889       1367.1098      1876.2987      159.77315      305.96198      0.21226275   
    126000   474.52259      1307.8904      1782.413       279.35591      292.70855      0.21993946   
    127000   472.54767      1316.6071      1789.1548      180.96034      294.65938      0.22164977   
    128000   502.25851      1377.7436      1880.0021      188.56474      308.34184      0.20874786   
    129000   499.46627      1354.9897      1854.4559      277.71593      303.24947      0.20470827   
    130000   506.28505      1312.43        1818.7151      62.382383      293.72453      0.20503817   
    131000   503.01715      1341.4379      1844.4551      180.8894       300.21656      0.20681846   
    132000   468.4377       1364.6021      1833.0398      252.00096      305.40076      0.21781251   
    133000   455.23531      1363.542       1818.7773      193.49478      305.16349      0.21985174   
    134000   516.8312       1359.396       1876.2272      163.35314      304.2356       0.20705212   
    135000   509.44734      1328.9751      1838.4225      257.59331      297.42736      0.21159106   
    136000   518.55623      1350.5554      1869.1117      199.48188      302.25708      0.22389226   
    137000   493.7494       1346.1121      1839.8615      132.68608      301.26266      0.21106468   
    138000   495.18799      1369.544       1864.732       305.50405      306.50675      0.2134467    
    139000   479.21672      1384.6861      1863.9029      245.08116      309.8956       0.2180577    
    140000   464.75745      1313.784       1778.5415      14.555659      294.02756      0.22815276   
    141000   521.61731      1403.3878      1925.0051      293.2732       314.08107      0.21823487   
    142000   494.16907      1323.2345      1817.4036      226.43625      296.1426       0.21244469   
    143000   482.1077       1338.2174      1820.3251      166.61306      299.4958       0.23322053   
    144000   484.10264      1380.265       1864.3677      215.95318      308.90615      0.23454126   
    145000   531.31797      1348.8458      1880.1638      163.96955      301.87447      0.20952723   
    146000   484.38954      1360.1042      1844.4938      272.54289      304.39411      0.21021184   
    147000   540.50228      1322.5856      1863.0878      97.99295       295.99736      0.20860981   
    148000   501.68653      1299.6287      1801.3152      144.35653      290.85957      0.23587446   
    149000   477.70386      1353.9781      1831.6819      332.62444      303.02307      0.22111466   
    150000   510.13044      1334.9144      1845.0449      223.03011      298.75659      0.21680733   
    151000   470.74597      1371.0649      1841.8109     -103.69752      306.84714      0.21659258   
    152000   439.75536      1378.1354      1817.8908      360.88048      308.42954      0.2295688    
    153000   519.40237      1376.4624      1895.8648      232.87303      308.05511      0.2202713    
    154000   480.8815       1293.3937      1774.2752      77.359371      289.46417      0.23090595   
    155000   460.5151       1354.5675      1815.0826      250.41973      303.15499      0.22966914   
    156000   504.89292      1341.083       1845.976       313.85539      300.13714      0.21271345   
    157000   481.10802      1336.6607      1817.7687      11.561259      299.14741      0.22121744   
    158000   468.23795      1276.1003      1744.3383      207.39644      285.59387      0.22572966   
    159000   471.14549      1364.6039      1835.7494      350.76371      305.40116      0.23996427   
    159001   493.37604      1356.1433      1849.5193      326.15955      303.50765      0.2399553    
Loop time of 206.266 on 8 procs for 50000 steps with 1500 atoms

Performance: 10.472 ns/day, 2.292 hours/ns, 242.406 timesteps/s, 363.608 katom-step/s
99.6% CPU use with 8 MPI tasks x 1 OpenMP threads

MPI task timing breakdown:
Section |  min time  |  avg time  |  max time  |%varavg| %total
---------------------------------------------------------------
Pair    | 9.7931     | 10.415     | 10.865     |  11.5 |  5.05
Bond    | 0.41396    | 0.42392    | 0.43662    |   1.0 |  0.21
Kspace  | 85.277     | 85.821     | 86.39      |   3.3 | 41.61
Neigh   | 0.21693    | 0.21939    | 0.22514    |   0.7 |  0.11
Comm    | 3.1568     | 3.5442     | 3.7297     |  10.3 |  1.72
Output  | 0.0016302  | 0.0017274  | 0.0023605  |   0.6 |  0.00
Modify  | 101.93     | 103.62     | 105.41     |  12.1 | 50.23
Other   |            | 2.224      |            |       |  1.08

Nlocal:          187.5 ave         213 max         165 min
Histogram: 1 0 1 1 2 1 0 1 0 1
Nghost:        2107.88 ave        2130 max        2073 min
Histogram: 1 1 0 0 1 0 0 2 0 3
Neighs:        20459.8 ave       25572 max       18288 min
Histogram: 2 2 2 0 0 1 0 0 0 1

Total # of neighbors = 163678
Ave neighs/atom = 109.11867
Ave special neighs/atom = 2
Neighbor list builds = 377
Dangerous builds = 0
PPPM initialization ...
  using 12-bit tables for long-range coulomb (src/kspace.cpp:342)
  G vector (1/distance) = 0.27178215
  grid = 45 45 45
  stencil order = 5
  estimated absolute RMS force accuracy = 0.00037259834
  estimated relative force accuracy = 1.1220688e-06
  using single precision FFTW3
  3d grid and FFT values/proc = 27000 12420
Generated 1 of 1 mixed pair_coeff terms from arithmetic mixing rule
Last active /omp style is kspace_style pppm/omp
Setting up Verlet run ...
  Unit style    : real
  Current step  : 0
  Time step     : 0.5
Per MPI rank memory allocation (min/avg/max) = 8.276 | 8.322 | 8.389 Mbytes
   Step         PotEng         KinEng         TotEng         Press           Temp        v_Density   
         0   493.3764       1356.1433      1849.5197      326.15961      303.50765      0.2399553    
      1000   455.8091       1362.667       1818.4761      368.33566      304.96767      0.23745728   
      2000   482.37039      1338.7466      1821.1169      313.37064      299.61423      0.22875033   
      3000   513.95296      1320.415       1834.368       254.75768      295.51158      0.22171574   
      4000   496.13951      1334.7116      1830.8511      173.93103      298.7112       0.21978335   
      5000   481.47686      1331.7317      1813.2085      138.89456      298.04428      0.22207066   
      6000   484.77342      1328.8467      1813.6201      73.106876      297.39862      0.22678664   
      7000   465.00623      1324.7961      1789.8023      170.47184      296.49208      0.23022613   
      8000   467.7162       1281.7872      1749.5034      170.69217      286.8666       0.22597394   
      9000   492.51416      1281.6736      1774.1877      269.69429      286.84117      0.22222155   
     10000   495.37104      1311.3881      1806.7592      265.33153      293.49135      0.2173995    
     11000   521.5842       1314.321       1835.9052      282.99406      294.14773      0.2132836    
     12000   511.88838      1328.0861      1839.9745      277.97231      297.2284       0.21084493   
     13000   508.61688      1338.1344      1846.7513      224.10748      299.47723      0.21163667   
     14000   503.78051      1342.7255      1846.506       177.89718      300.50472      0.21972328   
     15000   504.8143       1328.4002      1833.2145      163.74119      297.29869      0.22822292   
     16000   471.9329       1354.5938      1826.5267      176.33618      303.16088      0.2307352    
     17000   472.43789      1358.038       1830.4759      158.81337      303.9317       0.22770838   
     18000   480.30293      1374.5765      1854.8795      193.69926      307.63305      0.22128347   
     19000   514.24293      1351.6794      1865.9224      168.07695      302.50863      0.21719916   
     20000   505.39393      1373.202       1878.596       209.96198      307.32544      0.21635605   
     21000   519.85787      1371.0248      1890.8826      138.74426      306.83816      0.21631866   
     22000   498.71797      1362.6574      1861.3754      150.22659      304.96552      0.21765468   
     23000   482.56501      1331.0727      1813.6378      209.32844      297.89681      0.2251853    
     24000   438.23618      1369.4782      1807.7144      385.23622      306.49203      0.23063135   
     25000   474.5239       1332.2185      1806.7424      348.42563      298.15324      0.22962008   
     26000   488.13989      1317.5415      1805.6814      333.54391      294.86849      0.2261204    
     27000   479.63707      1340.0007      1819.6378      292.23077      299.89491      0.22210699   
     28000   463.86343      1315.2181      1779.0815      250.30621      294.34851      0.21899617   
     29000   510.39138      1318.1659      1828.5573      246.17327      295.00824      0.21938666   
     30000   494.30828      1344.5046      1838.8129      284.18534      300.90289      0.22163067   
     31000   466.48243      1277.8473      1744.3297      333.6479       285.98484      0.2241464    
     32000   483.80622      1306.2804      1790.0867      329.14295      292.34824      0.22701842   
     33000   500.74534      1320.3853      1821.1306      280.98572      295.50493      0.22664685   
     34000   500.92827      1316.5935      1817.5218      253.95966      294.65633      0.21705781   
     35000   489.44056      1328.7677      1818.2082      203.17152      297.38093      0.20799058   
     36000   491.10767      1325.0707      1816.1784      124.04347      296.55355      0.20662018   
     37000   486.44254      1339.6721      1826.1146      127.30172      299.82136      0.20964939   
     38000   495.44969      1349.6235      1845.0732      150.50173      302.04852      0.21569733   
     39000   504.96835      1377.311       1882.2793      163.10698      308.24502      0.2205637    
     40000   506.46879      1364.6468      1871.1156      181.61118      305.41075      0.22366485   
     41000   476.13163      1380.7425      1856.8741      96.273069      309.01301      0.22358958   
     42000   469.86111      1370.1264      1839.9875      129.89408      306.63711      0.21987854   
     43000   492.60583      1352.2896      1844.8954      136.74258      302.64519      0.21619685   
     44000   500.52401      1340.0663      1840.5903      131.81403      299.90959      0.21530364   
     45000   526.3812       1351.7508      1878.132       98.396553      302.5246       0.21593205   
     46000   494.35898      1316.9096      1811.2686      179.15973      294.72708      0.21888151   
     47000   475.007        1332.0115      1807.0185      129.56031      298.10691      0.22111449   
     48000   468.23874      1347.7973      1816.036       201.38313      301.63979      0.22682531   
     49000   508.7486       1340.5908      1849.3394      168.48711      300.02697      0.23056029   
     50000   481.84345      1350.2313      1832.0747      172.03742      302.18454      0.22773979   
     51000   506.63632      1338.4639      1845.1002      208.66588      299.55097      0.21698992   
     52000   521.3267       1353.4372      1874.7639      180.77095      302.90201      0.21086502   
     53000   519.26449      1341.2739      1860.5384      247.52285      300.17986      0.21220251   
     54000   531.76489      1353.1433      1884.9082      251.66629      302.83625      0.21624936   
     55000   499.11503      1320.0015      1819.1165      199.79906      295.41904      0.22206708   
     56000   498.03922      1333.1709      1831.2101      253.305        298.36638      0.22917887   
     57000   512.91122      1307.2512      1820.1624      257.02029      292.56551      0.2294015    
     58000   477.31695      1315.4968      1792.8137      202.27696      294.41088      0.22458507   
     59000   497.52056      1316.717       1814.2376      223.77097      294.68397      0.21794214   
     60000   499.80942      1327.716       1827.5254      127.58164      297.14557      0.21115106   
     61000   496.62056      1321.518       1818.1386      139.59972      295.75845      0.21025832   
     62000   500.24838      1302.9591      1803.2075      124.25179      291.60492      0.21511336   
     63000   469.90255      1340.549       1810.4515      172.97335      300.01762      0.22363383   
     64000   491.31773      1331.7379      1823.0556      260.42445      298.04567      0.22821812   
     65000   471.54974      1336.5252      1808.0749      323.79205      299.11707      0.23004628   
     66000   451.27694      1334.2649      1785.5418      322.1135       298.61122      0.23125854   
     67000   471.85806      1277.4774      1749.3355      311.62569      285.90207      0.2322586    
     68000   438.898        1330.8794      1769.7774      257.51408      297.85354      0.23338161   
     69000   484.92866      1322.7653      1807.6939      203.03671      296.03759      0.2308689    
     70000   472.53613      1309.1981      1781.7343      122.07         293.00123      0.22545315   
     71000   461.98173      1287.7469      1749.7286      31.562351      288.2004       0.22095744   
     72000   476.21219      1336.362       1812.5742      17.404309      299.08056      0.22611279   
     73000   497.79007      1324.4232      1822.2133      52.529884      296.40863      0.23591167   
     74000   467.33577      1348.2574      1815.5932      186.12606      301.74278      0.2389258    
     75000   481.74411      1333.2144      1814.9585      273.38259      298.37611      0.23157445   
     76000   488.59148      1327.9895      1816.581       261.35511      297.20679      0.22175235   
     77000   514.8084       1322.6137      1837.4221      262.11271      296.00365      0.21822922   
     78000   515.72898      1310.7495      1826.4784      239.92829      293.34842      0.21743724   
     79000   503.74282      1329.5643      1833.3071      216.11599      297.55922      0.22140334   
     80000   509.44809      1323.6687      1833.1168      204.47275      296.23977      0.22987941   
     81000   492.88089      1305.8889      1798.7697      127.02024      292.26061      0.23400193   
     82000   480.07549      1291.6784      1771.7539      76.898002      289.08027      0.23585624   
     83000   445.93306      1304.2546      1750.1877      55.278435      291.89486      0.23454525   
     84000   503.49868      1327.8183      1831.317       67.750584      297.16847      0.22890936   
     85000   480.83543      1308.3551      1789.1905      81.425565      292.81255      0.22455416   
     86000   488.90795      1318.9455      1807.8535      114.42027      295.18271      0.22197818   
     87000   473.07891      1354.669       1827.7479      225.06624      303.1777       0.2231762    
     88000   489.20061      1340.1284      1829.329       206.07575      299.92349      0.22446122   
     89000   504.9857       1337.6065      1842.5922      283.11146      299.35908      0.22715392   
     90000   481.86014      1386.0627      1867.9228      284.7391       310.20368      0.22591007   
     91000   490.9625       1342.9937      1833.9562      271.09147      300.56476      0.22614786   
     92000   495.82626      1315.8024      1811.6287      250.87785      294.47928      0.23056625   
     93000   468.49249      1348.9504      1817.4429      151.61012      301.89787      0.23482674   
     94000   503.05459      1363.0856      1866.1402      30.483486      305.06136      0.23184179   
     95000   488.36005      1355.4513      1843.8114      4.1314205      303.35279      0.22559373   
     96000   489.48112      1344.5772      1834.0583      108.36559      300.91914      0.22274762   
     97000   493.06207      1336.3464      1829.4085      152.2705       299.07707      0.22273039   
     98000   495.32335      1332.019       1827.3423      241.9406       298.10858      0.22885666   
     99000   482.99315      1353.9851      1836.9783      289.87717      303.02465      0.23610225   
    100000   452.40087      1343.7643      1796.1651      279.15398      300.7372       0.23610099   
    101000   474.76231      1319.9458      1794.7081      228.52825      295.40658      0.22984536   
    102000   443.61735      1277.2788      1720.8961      171.04911      285.85761      0.22254888   
    103000   489.93166      1299.6963      1789.628       157.87768      290.87471      0.22324305   
    104000   492.3778       1310.2474      1802.6252      152.24627      293.23607      0.22808541   
    105000   495.92111      1326.9351      1822.8563      198.12674      296.97081      0.23094811   
    106000   467.42651      1312.4127      1779.8392      236.66197      293.72065      0.23129582   
    107000   503.38554      1298.6014      1801.9869      230.52805      290.62965      0.2233845    
    108000   511.76542      1286.5655      1798.331       199.66777      287.93601      0.21308358   
    109000   512.65108      1324.6903      1837.3414      185.71346      296.46842      0.21077042   
    110000   489.41566      1351.1032      1840.5189      218.68178      302.37968      0.2133461    
    111000   502.02712      1319.0902      1821.1174      196.84557      295.21511      0.21822248   
    112000   484.25123      1315.1265      1799.3777      218.12111      294.32801      0.22464231   
    113000   460.54948      1342.5407      1803.0902      193.91433      300.46337      0.22644027   
    114000   458.83886      1337.4699      1796.3088      136.27781      299.32851      0.22419043   
    115000   481.58021      1309.8149      1791.3951      112.88357      293.13926      0.22242851   
    116000   506.83193      1318.2657      1825.0977      205.99185      295.03057      0.22264725   
    117000   475.07247      1329.3233      1804.3958      240.49409      297.50528      0.22085796   
    118000   465.53001      1342.2181      1807.7481      257.91589      300.39116      0.21870931   
    119000   494.38022      1303.925       1798.3052      260.98032      291.82109      0.21888326   
    120000   495.73542      1315.9777      1811.7132      198.95528      294.51852      0.21895159   
    121000   494.95989      1311.2655      1806.2254      126.91946      293.46392      0.22108387   
    122000   472.98197      1352.3647      1825.3467      186.2001       302.662        0.22908631   
    123000   490.54015      1351.8524      1842.3925      167.60925      302.54734      0.23536904   
    124000   503.59205      1331.4116      1835.0036      109.60791      297.97264      0.23522906   
    125000   547.39542      1334.9912      1882.3866      117.46177      298.77377      0.22845699   
    126000   502.35252      1398.4793      1900.8318      129.12734      312.98254      0.21853317   
    127000   526.2812       1370.2807      1896.5619      193.33378      306.67164      0.21638679   
    128000   492.51995      1348.1333      1840.6532      231.31721      301.715        0.2173057    
    129000   472.11251      1358.5135      1830.626       296.1756       304.0381       0.22154764   
    130000   491.17569      1339.332       1830.5076      276.16059      299.74524      0.22468345   
    131000   500.20576      1331.8638      1832.0695      180.93626      298.07384      0.22208948   
    132000   486.10554      1317.0975      1803.203       130.6748       294.76912      0.2194058    
    133000   510.84597      1334.0104      1844.8563      152.17357      298.55425      0.21567084   
    134000   505.28638      1341.8282      1847.1146      177.59585      300.30391      0.21255487   
    135000   498.89889      1343.927       1842.8259      222.88556      300.77363      0.21174969   
    136000   480.81452      1301.0082      1781.8227      240.33169      291.16831      0.21823141   
    137000   499.82101      1327.8595      1827.6805      212.11618      297.17768      0.23007355   
    138000   485.79519      1362.623       1848.4182      151.42772      304.95783      0.23495689   
    139000   496.64046      1323.243       1819.8835      67.515314      296.14451      0.23186777   
    140000   479.26189      1344.5626      1823.8245      49.929636      300.91586      0.22566198   
    141000   448.59544      1328.3123      1776.9077      85.33066       297.27901      0.22328535   
    142000   489.26485      1335.2656      1824.5304      162.83069      298.83518      0.22841271   
    143000   467.51578      1289.784       1757.2998      193.14291      288.65631      0.23233221   
    144000   459.07566      1328.9018      1787.9774      239.91504      297.41094      0.23208907   
    145000   486.93171      1322.7418      1809.6735      285.33678      296.03234      0.2315639    
    146000   496.78762      1322.2873      1819.0749      353.91382      295.93061      0.23145977   
    147000   507.41595      1340.6238      1848.0397      317.31291      300.03435      0.23278522   
    148000   468.98075      1415.6649      1884.6457      207.69579      316.82872      0.23079953   
    149000   504.32987      1383.5289      1887.8587      125.74597      309.6366       0.22593941   
    150000   508.17765      1369.4154      1877.5931      109.45378      306.47798      0.2235875    
    151000   520.30695      1371.5601      1891.867       112.51872      306.95796      0.21911242   
    152000   515.90793      1345.6937      1861.6016      171.5844       301.16901      0.21239109   
    153000   505.86473      1335.4251      1841.2898      177.21931      298.87087      0.20646802   
    154000   510.14966      1277.7136      1787.8633      252.29953      285.95494      0.20685887   
    155000   512.16278      1309.1396      1821.3024      218.08418      292.98813      0.21368377   
    156000   535.17184      1310.0864      1845.2583      191.19237      293.20004      0.22409764   
    157000   490.84981      1316.0248      1806.8746      142.16072      294.52906      0.22590986   
    158000   493.21169      1331.3533      1824.565       116.01001      297.9596       0.22280858   
    159000   502.17385      1323.2598      1825.4337      91.139261      296.14827      0.21824198   
    160000   500.52474      1313.9294      1814.4542      175.7979       294.0601       0.21738832   
    161000   496.91256      1317.3197      1814.2323      225.94461      294.81885      0.22075291   
    162000   470.27499      1323.3606      1793.6356      261.77409      296.17083      0.2255104    
    163000   463.75277      1339.1241      1802.8769      357.63849      299.69873      0.23140397   
    164000   494.53638      1322.1072      1816.6436      297.32651      295.89031      0.23642125   
    165000   476.99149      1326.1487      1803.1402      192.62404      296.7948       0.2405196    
    166000   508.42904      1368.4292      1876.8582      39.278751      306.25726      0.23702665   
    167000   511.56494      1369.9628      1881.5277      22.522458      306.60049      0.22693773   
    168000   515.41099      1378.3312      1893.7422      50.828331      308.47336      0.22013434   
    169000   521.2586       1353.2866      1874.5452      173.34542      302.86832      0.21940955   
    170000   507.27473      1350.0897      1857.3644      244.15591      302.15285      0.22354674   
    171000   505.03606      1369.8625      1874.8985      280.8325       306.57803      0.22797356   
    172000   489.2641       1349.7906      1839.0547      254.49809      302.08591      0.23079088   
    173000   481.36445      1373.5887      1854.9532      245.19383      307.41198      0.23413147   
    174000   495.5197       1365.5128      1861.0325      265.73597      305.60456      0.23546251   
    175000   458.03334      1367.4853      1825.5186      203.45763      306.04601      0.23238337   
    176000   479.82068      1373.8148      1853.6355      177.38917      307.46257      0.23100834   
    177000   477.81859      1371.71        1849.5285      187.6581       306.9915       0.2308781    
    178000   483.55822      1366.9901      1850.5483      178.33646      305.93519      0.22740145   
    179000   465.6687       1395.7208      1861.3895      231.00168      312.36517      0.2251151    
    180000   490.83204      1348.3085      1839.1406      296.61689      301.75422      0.22480602   
    181000   514.71525      1349.4023      1864.1175      217.06393      301.999        0.22162109   
    182000   488.45919      1317.2724      1805.7316      76.095197      294.80827      0.21706545   
    183000   495.0935       1313.2654      1808.3589      104.00528      293.9115       0.21955015   
    184000   486.06739      1326.3631      1812.4305      104.8424       296.84279      0.22790574   
    185000   470.32173      1321.1572      1791.4789      221.02541      295.67768      0.23419557   
    186000   437.62559      1317.9821      1755.6077      347.78715      294.96711      0.23347736   
    187000   491.34582      1339.3528      1830.6986      266.28029      299.74991      0.22606771   
    188000   517.84119      1351.1498      1868.991       224.48941      302.39009      0.21909412   
    189000   506.8902       1301.6016      1808.4918      166.38612      291.30111      0.2148099    
    190000   525.96712      1333.7386      1859.7057      103.13333      298.49343      0.21307883   
    191000   508.34603      1329.7774      1838.1235      116.91591      297.60692      0.21414652   
    192000   534.68133      1339.0874      1873.7687      152.9842       299.69051      0.21719917   
    193000   484.33553      1351.9217      1836.2573      135.48975      302.56286      0.21821466   
    194000   478.22349      1351.3418      1829.5653      267.10176      302.43307      0.22099828   
    195000   504.62724      1319.2489      1823.8761      287.70782      295.25061      0.22146403   
    196000   491.68929      1324.6435      1816.3328      242.72051      296.45794      0.21735372   
    197000   521.31056      1298.2482      1819.5587      121.80182      290.55061      0.20962792   
    198000   516.51084      1322.7438      1839.2546      75.748623      296.03277      0.20569695   
    199000   511.9396       1328.4661      1840.4057      135.69557      297.31344      0.20913589   
    200000   474.69615      1330.8255      1805.5217      191.3077       297.84149      0.21653273   
    201000   510.70371      1307.7737      1818.4774      231.95135      292.68243      0.22277236   
    202000   501.34183      1329.722       1831.0638      228.91817      297.59451      0.22375648   
    203000   496.5947       1332.4871      1829.0818      230.09295      298.21335      0.22240287   
    204000   506.53609      1331.68        1838.2161      266.11216      298.03273      0.22112604   
    205000   502.32668      1373.3367      1875.6634      300.07167      307.35557      0.21970279   
    206000   515.24846      1329.5716      1844.82        253.89841      297.56085      0.21721608   
    207000   510.09452      1330.7108      1840.8053      194.23636      297.8158       0.21316405   
    208000   491.56742      1339.2926      1830.86        110.78586      299.73643      0.20650376   
    209000   498.4742       1258.0038      1756.478       47.21695       281.54382      0.20328173   
    210000   528.02829      1293.0174      1821.0457      60.730641      289.37995      0.20794738   
    211000   507.46623      1336.4542      1843.9204      121.11593      299.10119      0.21769887   
    212000   489.787        1346.87        1836.657       190.72632      301.43227      0.22525296   
    213000   510.47469      1324.0635      1834.5382      174.68335      296.32813      0.22768735   
    214000   509.77985      1343.2099      1852.9897      228.44776      300.61313      0.22859637   
    215000   489.75684      1368.8048      1858.5616      250.65275      306.34132      0.22815043   
    216000   475.92599      1355.7228      1831.6487      185.83359      303.41354      0.22559678   
    217000   501.56138      1353.4817      1855.0431      88.216123      302.91199      0.22512514   
    218000   497.65838      1354.2848      1851.9432      62.095765      303.09173      0.22962088   
    219000   482.98253      1314.5077      1797.4902      87.961219      294.18952      0.23610268   
    220000   479.33764      1325.8467      1805.1843      136.15807      296.72721      0.2374972    
    221000   481.10082      1307.0702      1788.1711      203.86359      292.525        0.23437929   
    222000   494.45382      1335.2649      1829.7188      214.88694      298.83503      0.2269331    
    223000   493.82844      1306.6119      1800.4403      235.94045      292.42243      0.21870711   
    224000   525.63426      1321.2361      1846.8704      155.70099      295.69535      0.21491695   
    225000   511.57757      1331.114       1842.6916      144.70616      297.90606      0.21670846   
    226000   495.1563       1316.7673      1811.9236      99.195862      294.69522      0.21737979   
    227000   492.38652      1328.1771      1820.5637      138.38959      297.24877      0.21915137   
    228000   490.54746      1317.9353      1808.4827      178.15824      294.95661      0.22086561   
    229000   489.12084      1347.5599      1836.6807      225.52654      301.58666      0.22174714   
    230000   473.76777      1354.3101      1828.0779      361.24199      303.09738      0.22448481   
    231000   462.26826      1387.4444      1849.7127      377.42708      310.51291      0.22434391   
    232000   499.00335      1348.3548      1847.3582      271.58258      301.76458      0.22262884   
    233000   508.54556      1355.34        1863.8855      217.924        303.32787      0.22034221   
    234000   530.89379      1349.8446      1880.7383      157.77082      302.09798      0.2178175    
    235000   522.81188      1352.2811      1875.093       98.269996      302.64329      0.2109414    
    236000   540.45954      1305.2464      1845.706       63.175754      292.11683      0.20585451   
    237000   487.18959      1307.3402      1794.5297      75.917901      292.58541      0.20738979   
    238000   495.6437       1336.6088      1832.2525      98.52815       299.1358       0.21609731   
    239000   495.06411      1363.5369      1858.601       140.41783      305.16235      0.22572791   
    240000   512.28776      1330.4043      1842.692       184.58406      297.74721      0.22635633   
    241000   492.32959      1356.3627      1848.6923      353.8369       303.55676      0.22780408   
    242000   474.2102       1373.3328      1847.543       343.14151      307.3547       0.22645823   
    243000   487.95745      1324.0976      1812.055       319.87115      296.33576      0.2262651    
    244000   485.26784      1335.8725      1821.1403      291.95391      298.97101      0.23154635   
    245000   492.89274      1309.6791      1802.5719      164.4884       293.10888      0.23695557   
    246000   446.2529       1361.0707      1807.3236      156.22612      304.61042      0.23983341   
    247000   464.64948      1321.5122      1786.1616      97.597501      295.75713      0.23723514   
    248000   483.08601      1324.3696      1807.4556      63.568705      296.39663      0.22555538   
    249000   523.53544      1333.3038      1856.8393     -8.4141882      298.39613      0.21906788   
    250000   482.33979      1355.3677      1837.7075      64.638406      303.33407      0.2233777    
    251000   504.4028       1364.1975      1868.6003      171.08712      305.31021      0.23158289   
    252000   500.78205      1380.2846      1881.0666      185.05408      308.91052      0.22897813   
    253000   505.90135      1351.8902      1857.7916      124.79471      302.55581      0.22353376   
    254000   477.08387      1363.6375      1840.7213      193.94641      305.18486      0.22540768   
    255000   498.07404      1342.6734      1840.7475      303.14929      300.49307      0.22899077   
    256000   510.55598      1304.6437      1815.1997      319.34462      291.98194      0.22849248   
    257000   477.27674      1305.905       1783.1818      308.97224      292.26423      0.22511497   
    258000   473.68153      1347.344       1821.0256      269.15971      301.53836      0.21974983   
    259000   508.49789      1314.8604      1823.3582      144.54315      294.26845      0.2158801    
    260000   486.78591      1328.2991      1815.085       101.92738      297.27606      0.21517613   
    261000   495.62722      1299.9209      1795.5481      58.482077      290.92496      0.21967026   
    262000   471.91397      1321.259       1793.173       45.157783      295.70047      0.22839556   
    263000   480.25357      1316.0376      1796.2912      99.590052      294.53192      0.23503155   
    264000   467.20566      1345.2218      1812.4275      211.36904      301.0634       0.23561925   
    265000   484.26641      1314.5415      1798.8079      176.68795      294.19709      0.23059585   
    266000   501.35356      1307.1622      1808.5157      216.34187      292.54558      0.22450463   
    267000   483.39061      1328.8106      1812.2012      181.17584      297.39054      0.21833178   
    268000   486.1517       1330.6124      1816.7641      190.92683      297.79379      0.21702971   
    269000   477.90817      1333.8948      1811.803       178.73837      298.5284       0.21733245   
    270000   479.42421      1333.7983      1813.2225      150.06768      298.50679      0.22163903   
    271000   477.41159      1333.2534      1810.665       227.81218      298.38484      0.22932342   
    272000   489.64468      1345.1335      1834.7782      149.28704      301.04365      0.23230527   
    273000   498.85883      1373.8328      1872.6917      177.17594      307.46661      0.23360003   
    274000   489.15615      1395.6894      1884.8456      141.3204       312.35816      0.22817106   
    275000   507.3495       1353.3468      1860.6963      113.1831       302.88179      0.22084642   
    276000   533.95929      1348.0515      1882.0108      99.531478      301.69669      0.2162359    
    277000   500.07409      1351.9501      1852.0242      147.01982      302.56921      0.21823638   
    278000   480.79627      1372.216       1853.0123      206.16392      307.10476      0.22348851   
    279000   515.15707      1373.4552      1888.6123      231.12683      307.3821       0.22514663   
    280000   501.07817      1401.9191      1902.9973      194.12749      313.75238      0.22605699   
    281000   503.1335       1370.6524      1873.7859      193.67128      306.75481      0.22650819   
    282000   493.44092      1357.382       1850.8229      146.73856      303.78488      0.22709198   
    283000   510.31372      1306.5889      1816.9026      87.055189      292.41728      0.23075809   
    284000   476.48983      1311.2138      1787.7036      98.30448       293.45233      0.23316275   
    285000   485.90096      1272.4462      1758.3471      222.93504      284.77607      0.2368378    
    286000   476.72288      1300.386       1777.1088      212.16679      291.02905      0.24052989   
    287000   495.3296       1300.8216      1796.1512      248.74153      291.12655      0.24046459   
    288000   489.9467       1314.2863      1804.233       145.76597      294.13997      0.23635425   
    289000   460.1785       1349.5452      1809.7237      147.84067      302.03098      0.22777704   
    290000   489.46901      1321.567       1811.036       123.54787      295.76941      0.21964706   
    291000   497.97691      1313.2879      1811.2648      136.44009      293.91652      0.21679527   
    292000   487.47089      1321.4684      1808.9393      169.87547      295.74733      0.21698688   
    293000   478.28767      1313.4455      1791.7331      135.87195      293.95179      0.2166532    
    294000   476.47102      1345.5664      1822.0375      159.30224      301.14053      0.22128237   
    295000   491.7972       1349.9834      1841.7806      207.70098      302.12905      0.23035136   
    296000   487.92534      1328.563       1816.4884      295.39049      297.33513      0.23106837   
    297000   487.9675       1338.8116      1826.7791      328.46225      299.62879      0.22957814   
    298000   500.20295      1359.9106      1860.1135      266.07014      304.35078      0.22592042   
    299000   515.46324      1370.906       1886.3692      150.0062       306.81158      0.21981771   
    300000   505.56993      1377.4357      1883.0057      112.14396      308.27295      0.21838747   
    301000   510.01205      1349.555       1859.567       179.13711      302.03317      0.21882588   
    302000   535.56298      1337.0813      1872.6442      170.70376      299.24153      0.21396092   
    303000   515.17423      1343.6076      1858.7818      193.64574      300.70214      0.20855861   
    304000   510.26019      1352.9638      1863.224       209.00828      302.79608      0.20398847   
    305000   535.58195      1303.8549      1839.4368      210.6801       291.8054       0.2037676    
    306000   526.43132      1359.6101      1886.0414      157.88772      304.28353      0.21149046   
    307000   508.60959      1315.4718      1824.0814      170.48628      294.40528      0.2226192    
    308000   477.02641      1316.5752      1793.6016      190.71897      294.65224      0.22829627   
    309000   485.41385      1335.7043      1821.1181      131.03988      298.93335      0.23032558   
    310000   511.03415      1293.1203      1804.1544      157.44677      289.40298      0.23242815   
    311000   484.77509      1298.0852      1782.8603      160.04129      290.51414      0.2331554    
    312000   472.01677      1303.754       1775.7708      162.92267      291.78282      0.23270833   
    313000   490.92161      1313.779       1804.7006      169.20446      294.02644      0.23045948   
    314000   479.31159      1337.0688      1816.3804      167.81876      299.23875      0.22658545   
    315000   483.45052      1337.7915      1821.242       209.65177      299.40048      0.22311893   
    316000   485.07246      1334.2505      1819.3229      233.78037      298.60799      0.21991185   
    317000   502.39864      1316.7221      1819.1207      289.39676      294.68511      0.21886791   
    318000   496.5739       1301.8268      1798.4007      307.62283      291.35151      0.21834205   
    319000   465.54129      1307.9943      1773.5355      288.7938       292.7318       0.22155951   
    320000   499.18819      1325.8471      1825.0353      233.04719      296.7273       0.23009964   
    321000   455.18303      1305.5902      1760.7732      208.70568      292.19376      0.23799789   
    322000   482.88359      1295.7768      1778.6604      215.33022      289.99752      0.24348262   
    323000   479.29002      1313.2985      1792.5886      165.29137      293.91891      0.24117469   
    324000   465.09679      1335.7628      1800.8596      192.72546      298.94645      0.23445388   
    325000   476.52171      1276.1209      1752.6427      171.84373      285.59849      0.22927881   
    326000   493.1044       1309.1704      1802.2748      186.269        292.99503      0.22994793   
    327000   476.0914       1345.2867      1821.378       203.22351      301.07791      0.2263285    
    328000   460.2246       1334.183       1794.4076      211.14328      298.59289      0.22079808   
    329000   501.81474      1333.7293      1835.544       206.2006       298.49134      0.22070775   
    330000   495.02608      1293.4386      1788.4647      210.59546      289.47421      0.22480053   
    331000   502.39252      1315.6467      1818.0392      157.29757      294.44444      0.22916047   
    332000   495.89924      1288.4802      1784.3794      130.31712      288.36451      0.23594278   
    333000   488.89117      1329.4332      1818.3244      159.42468      297.52989      0.24173981   
    334000   480.69785      1365.7869      1846.4848      167.80823      305.66592      0.24039153   
    335000   469.37913      1365.9284      1835.3075      91.646613      305.69758      0.23627678   
    336000   526.68494      1359.9756      1886.6606      155.61656      304.36534      0.23430173   
    337000   513.79625      1333.8309      1847.6271      201.81207      298.51409      0.22514516   
    338000   484.1927       1353.2436      1837.4363      212.43239      302.8587       0.21653895   
    339000   494.86086      1309.9673      1804.8282      221.87305      293.17338      0.21451921   
    340000   502.38406      1315.7596      1818.1437      304.23007      294.4697       0.2166474    
    341000   477.50247      1337.9709      1815.4734      295.94378      299.44063      0.22038463   
    342000   481.21164      1331.1516      1812.3632      309.33351      297.91445      0.22576079   
    343000   485.17114      1359.0094      1844.1805      219.59639      304.14908      0.22826269   
    344000   513.97353      1338.6696      1852.6431      139.95985      299.597        0.22574497   
    345000   502.75413      1340.208       1842.9621      67.497019      299.94129      0.22326003   
    346000   510.1478       1328.8255      1838.9732      93.370437      297.39386      0.22630943   
    347000   516.75555      1343.3536      1860.1092      76.114706      300.6453       0.22935825   
    348000   496.62596      1338.7714      1835.3973      166.12148      299.61978      0.22932073   
    349000   497.84033      1352.0987      1849.9391      144.60292      302.60248      0.2276698    
    350000   513.07352      1333.7656      1846.8391      175.94804      298.49948      0.22221606   
    351000   537.06426      1365.1364      1902.2006      178.90164      305.52032      0.21292202   
    352000   530.81401      1353.0495      1883.8635      140.29708      302.81526      0.20893856   
    353000   522.84324      1345.6221      1868.4654      149.65008      301.15299      0.21484776   
    354000   514.30952      1376.7465      1891.0561      111.66657      308.1187       0.22306079   
    355000   508.27706      1368.4562      1876.7333      50.137435      306.26332      0.22669698   
    356000   519.72434      1331.2328      1850.9572      84.428753      297.93264      0.22753496   
    357000   502.56947      1307.0333      1809.6027      150.99163      292.51673      0.22685502   
    358000   467.7972       1351.7694      1819.5666      257.88456      302.52876      0.22999622   
    359000   514.25432      1309.9359      1824.1902      342.71864      293.16635      0.23529063   
    360000   457.74663      1307.003       1764.7497      325.36728      292.50996      0.23582838   
    361000   461.15151      1343.4755      1804.6271      344.29796      300.67258      0.23445399   
    362000   476.73288      1335.3807      1812.1135      276.2599       298.86093      0.22835839   
    363000   489.03493      1339.6021      1828.637       188.90841      299.80569      0.2216709    
    364000   519.03209      1370.1558      1889.1879      110.998        306.64369      0.21934816   
    365000   493.88521      1392.8144      1886.6996      153.43083      311.71473      0.21974674   
    366000   493.42914      1349.6386      1843.0677      153.06244      302.05189      0.21899151   
    367000   487.21191      1369.322       1856.5339      180.00907      306.45708      0.21610886   
    368000   492.19616      1346.687       1838.8832      222.15837      301.39131      0.21701263   
    369000   524.71296      1323.1935      1847.9065      262.74287      296.13343      0.22539429   
    370000   492.50868      1359.3302      1851.8389      266.66917      304.22089      0.23115606   
    371000   480.54017      1370.5896      1851.1297      279.68377      306.74076      0.23726014   
    372000   512.84179      1376.5487      1889.3905      278.92938      308.07442      0.2400966    
    373000   493.86432      1358.3424      1852.2068      244.93488      303.99983      0.23716805   
    374000   494.98956      1328.5586      1823.5482      205.52325      297.33414      0.23188158   
    375000   480.19489      1323.654       1803.8489      138.86229      296.23649      0.22228653   
    376000   489.61103      1306.9987      1796.6097      106.68685      292.50899      0.21826903   
    377000   466.30986      1346.5954      1812.9053      161.5705       301.37082      0.21942875   
    378000   523.00091      1319.5214      1842.5223      185.84107      295.31159      0.22075047   
    379000   508.87964      1345.8182      1854.6979      189.05851      301.19688      0.22319432   
    380000   542.04456      1350.6756      1892.7202      107.15584      302.28398      0.22359793   
    381000   487.41526      1382.4314      1869.8467      44.704752      309.39099      0.22555396   
    382000   501.8089       1344.4236      1846.2325      81.481562      300.88475      0.22828944   
    383000   518.19853      1374.0825      1892.2811      95.898809      307.52249      0.22429886   
    384000   533.92968      1385.1007      1919.0304      205.5983       309.98838      0.21660902   
    385000   567.41341      1378.0892      1945.5026      221.25766      308.41919      0.20736442   
    386000   533.73992      1366.9417      1900.6816      215.64141      305.92436      0.2055684    
    387000   488.83858      1384.822       1873.6606      272.88651      309.92601      0.21168579   
    388000   503.19018      1388.1651      1891.3552      250.48622      310.67419      0.22086755   
    389000   532.50631      1356.851       1889.3573      199.95808      303.66604      0.22262139   
    390000   486.64907      1391.5499      1878.199       106.41506      311.43172      0.21769893   
    391000   500.85199      1369.4756      1870.3276      86.027315      306.49144      0.2126865    
    392000   529.78092      1354.5801      1884.361       137.15507      303.15781      0.20728689   
    393000   541.52394      1323.7468      1865.2708      250.30349      296.25725      0.20675756   
    394000   503.84095      1334.5262      1838.3672      337.74723      298.66971      0.20796039   
    395000   497.61616      1322.1004      1819.7165      345.37951      295.88878      0.21496277   
    396000   490.62328      1340.5375      1831.1607      359.99859      300.01503      0.22702525   
    397000   467.12038      1350.4778      1817.5981      222.01594      302.2397       0.22954451   
    398000   483.23496      1298.9547      1782.1896      89.700932      290.70872      0.22928091   
    399000   503.00682      1329.7711      1832.7779      24.531701      297.60551      0.22699048   
    400000   487.9365       1335.3915      1823.328       98.638361      298.86337      0.22091044   
Loop time of 1861.83 on 8 procs for 400000 steps with 1500 atoms

Performance: 9.281 ns/day, 2.586 hours/ns, 214.842 timesteps/s, 322.263 katom-step/s
99.5% CPU use with 8 MPI tasks x 1 OpenMP threads

MPI task timing breakdown:
Section |  min time  |  avg time  |  max time  |%varavg| %total
---------------------------------------------------------------
Pair    | 87.523     | 100.67     | 105.96     |  55.5 |  5.41
Bond    | 4.9339     | 5.1096     | 5.4876     |   6.8 |  0.27
Kspace  | 910.65     | 915.82     | 930.07     |  19.3 | 49.19
Neigh   | 1.4804     | 1.509      | 1.5457     |   2.2 |  0.08
Comm    | 50.631     | 53.51      | 55.704     |  23.6 |  2.87
Output  | 0.02178    | 0.030508   | 0.090929   |  13.1 |  0.00
Modify  | 674.69     | 716.06     | 781.39     | 126.6 | 38.46
Other   |            | 69.13      |            |       |  3.71

Nlocal:          187.5 ave         216 max         158 min
Histogram: 2 0 1 1 0 0 1 0 2 1
Nghost:        1989.88 ave        2067 max        1911 min
Histogram: 2 0 0 2 0 0 1 1 1 1
Neighs:          19163 ave       23925 max       14544 min
Histogram: 2 0 0 1 2 0 0 1 1 1

Total # of neighbors = 153304
Ave neighs/atom = 102.20267
Ave special neighs/atom = 2
Neighbor list builds = 2459
Dangerous builds = 0
PPPM initialization ...
  using 12-bit tables for long-range coulomb (src/kspace.cpp:342)
  G vector (1/distance) = 0.2703526
  grid = 45 45 45
  stencil order = 5
  estimated absolute RMS force accuracy = 0.00040247565
  estimated relative force accuracy = 1.2120435e-06
  using single precision FFTW3
  3d grid and FFT values/proc = 27000 12420
Generated 1 of 1 mixed pair_coeff terms from arithmetic mixing rule
Last active /omp style is kspace_style pppm/omp
Setting up Verlet run ...
  Unit style    : real
  Current step  : 0
  Time step     : 0.5
Per MPI rank memory allocation (min/avg/max) = 8.276 | 8.322 | 8.389 Mbytes
   Step         PotEng         KinEng         TotEng         Press           Temp        v_Density   
         0   487.93719      1335.3915      1823.3287      98.639356      298.86337      0.22091044   
      1000   514.36371      1316.8507      1831.2144      79.868028      294.71389      0.22121004   
      2000   493.56465      1315.9619      1809.5265      206.63905      294.51497      0.22524113   
      3000   531.14722      1332.6206      1863.7678      199.70994      298.24322      0.23178583   
      4000   478.5825       1393.5226      1872.1051      294.90237      311.87323      0.23963171   
      5000   503.44942      1349.2846      1852.734       217.90988      301.97265      0.24268819   
      6000   503.68282      1346.0878      1849.7706      154.46235      301.25721      0.23949236   
      7000   500.08524      1350.9791      1851.0644      162.56877      302.3519       0.22994873   
      8000   506.01795      1339.9643      1845.9822      104.99109      299.88675      0.22350439   
      9000   475.747        1289.2068      1764.9538      103.06291      288.52713      0.21971179   
     10000   497.29371      1300.3891      1797.6828      93.263594      291.02974      0.22098559   
     11000   494.28945      1331.7656      1826.0551      121.48715      298.05187      0.22589414   
     12000   501.55742      1340.8843      1842.4417      188.75252      300.09266      0.22840369   
     13000   503.58959      1341.4177      1845.0073      226.69371      300.21204      0.22631915   
     14000   510.06182      1350.116       1860.1778      154.65631      302.15873      0.21653267   
     15000   552.5633       1358.3264      1910.8897      132.2353       303.99624      0.21161957   
     16000   507.56659      1351.9604      1859.527       139.292        302.57151      0.21458833   
     17000   517.77848      1354.8056      1872.5841      133.69599      303.20827      0.22317332   
     18000   487.06967      1384.9448      1872.0144      141.95615      309.95348      0.23200543   
     19000   516.32449      1334.6711      1850.9956      181.40822      298.70214      0.23282452   
     20000   490.99389      1316.4664      1807.4603      236.82784      294.62788      0.23064727   
     21000   484.02546      1319.1942      1803.2197      234.24735      295.23837      0.22909728   
     22000   509.51057      1354.7156      1864.2262      227.23741      303.18813      0.22704572   
     23000   495.13433      1388.0749      1883.2092      192.30494      310.654        0.22829171   
     24000   511.67374      1391.6196      1903.2933      220.75982      311.44732      0.23035085   
     25000   532.2981       1363.6864      1895.9845      171.70332      305.19582      0.23063604   
     26000   526.96636      1315.3761      1842.3425      120.10284      294.38387      0.22821478   
     27000   510.492        1326.6221      1837.1141      122.14955      296.90074      0.22136648   
     28000   507.84824      1327.4763      1835.3245      200.10116      297.09192      0.21733812   
     29000   512.24833      1331.8576      1844.1059      194.89419      298.07247      0.21477795   
     30000   515.17597      1299.0509      1814.2269      201.72799      290.73026      0.21487361   
     31000   478.04879      1321.4845      1799.5333      201.03774      295.75095      0.22122126   
     32000   508.08167      1279.3574      1787.4391      139.74186      286.32282      0.22689667   
     33000   492.53569      1288.3749      1780.9106      93.538854      288.34095      0.22843216   
     34000   497.76064      1321.1214      1818.8821      105.34385      295.66969      0.23177418   
     35000   475.38462      1313.525       1788.9096      223.99746      293.96958      0.24452124   
     36000   470.557        1311.1585      1781.7155      313.0943       293.43996      0.24880986   
     37000   457.81319      1326.6896      1784.5028      373.30039      296.91586      0.23981155   
     38000   472.48189      1354.6023      1827.0842      307.23721      303.16278      0.22958476   
     39000   496.78083      1330.976       1827.7569      272.3294       297.87517      0.22528793   
     40000   519.64269      1292.3323      1811.975       146.81987      289.22663      0.22462844   
     41000   512.73769      1344.0462      1856.7839      193.12767      300.80029      0.23058741   
     42000   484.22405      1353.2458      1837.4699      204.69312      302.8592       0.2337813    
     43000   489.56393      1369.5034      1859.0674      251.21925      306.49768      0.23546089   
     44000   493.36377      1367.5087      1860.8725      270.69844      306.05125      0.23550358   
     45000   494.83736      1350.388       1845.2254      170.47419      302.21961      0.22658878   
     46000   510.6894       1337.6336      1848.323       105.01037      299.36514      0.21758381   
     47000   507.80413      1305.2906      1813.0947      127.72733      292.12671      0.21631083   
     48000   498.90001      1332.8238      1831.7238      69.471149      298.2887       0.22093874   
     49000   490.4644       1349.4198      1839.8842      149.68976      302.00292      0.23156707   
     50000   479.42491      1285.8052      1765.2302      197.42995      287.76585      0.23511433   
     51000   471.16641      1316.4949      1787.6613      208.64398      294.63426      0.23754882   
     52000   507.96958      1333.8864      1841.856       254.136        298.52651      0.23554968   
     53000   512.57783      1334.6785      1847.2563      341.29976      298.70378      0.23040688   
     54000   525.18189      1338.2264      1863.4083      248.24404      299.49781      0.22462074   
     55000   516.23515      1294.5902      1810.8254      154.92947      289.73195      0.22555921   
     56000   498.28101      1316.1728      1814.4538      128.91109      294.56218      0.22862654   
     57000   481.18297      1345.9817      1827.1647      148.47299      301.23346      0.22937808   
     58000   486.44363      1333.9682      1820.4118      151.87284      298.54482      0.22874414   
     59000   531.54207      1301.8311      1833.3732      219.72548      291.35248      0.22551146   
     60000   535.40772      1317.7557      1853.1634      233.19973      294.91643      0.22223444   
     61000   497.77581      1380.9081      1878.6839      141.44253      309.05007      0.22311345   
     62000   510.80736      1342.945       1853.7524      150.74466      300.55385      0.22406759   
     63000   512.95662      1353.7661      1866.7227      228.81728      302.97564      0.22165147   
     64000   522.86819      1370.2316      1893.0998      266.3415       306.66065      0.2208254    
     65000   518.24312      1352.6743      1870.9175      260.92712      302.73129      0.22398803   
     66000   498.1405       1391.2762      1889.4167      237.81314      311.37046      0.227825     
     67000   481.33637      1327.802       1809.1384      272.25966      297.16481      0.23542418   
     68000   490.38434      1335.8596      1826.244       134.59383      298.96812      0.23744529   
     69000   515.10594      1317.6067      1832.7126      99.341575      294.88308      0.23663741   
     70000   497.02982      1315.182       1812.2118      45.481066      294.34042      0.22835935   
     71000   512.52402      1327.569       1840.093       104.66099      297.11267      0.21905374   
     72000   516.86734      1276.0895      1792.9568      119.11764      285.59144      0.20763941   
     73000   532.18018      1275.2488      1807.4289      181.23833      285.40329      0.20576336   
     74000   515.09664      1323.3659      1838.4625      269.11392      296.172        0.21040256   
     75000   526.82304      1327.5943      1854.4173      209.27195      297.11832      0.2161448    
     76000   484.15634      1329.5657      1813.722       250.13852      297.55953      0.22153364   
     77000   471.11988      1358.4824      1829.6023      224.18758      304.03115      0.22444684   
     78000   458.59491      1334.4433      1793.0382      217.49324      298.65115      0.22692563   
     79000   484.79121      1301.8051      1786.5964      158.59493      291.34666      0.22684319   
     80000   514.13418      1271.3611      1785.4953      135.06806      284.53322      0.22263943   
     81000   488.54927      1333.6188      1822.168       194.26425      298.46662      0.21819567   
     82000   490.56864      1365.3805      1855.9492      186.9916       305.57496      0.21661937   
     83000   481.52174      1384.6772      1866.1989      158.10296      309.89359      0.21816632   
     84000   499.39705      1354.348       1853.7451      166.69001      303.10587      0.23269422   
     85000   480.80294      1339.1906      1819.9935      258.18832      299.71361      0.23951062   
     86000   488.13909      1353.1875      1841.3266      258.51338      302.84615      0.23823402   
     87000   489.9593       1338.6538      1828.6131      258.11592      299.59347      0.23528235   
     88000   486.01619      1321.4972      1807.5134      195.51601      295.75378      0.229866     
     89000   497.0626       1348.2488      1845.3115      178.29708      301.74086      0.2236249    
     90000   532.55621      1362.6201      1895.1763      144.35262      304.95717      0.21837831   
     91000   552.21167      1341.8818      1894.0935      58.012823      300.31591      0.2195427    
     92000   517.92538      1351.2177      1869.1431      10.653206      302.4053       0.2235263    
     93000   517.03809      1338.5744      1855.6125     -31.166311      299.5757       0.22578816   
     94000   507.33362      1347.4153      1854.7489     -24.668986      301.55432      0.22835893   
     95000   495.72705      1352.7238      1848.4508      81.957433      302.74235      0.23055966   
     96000   517.7894       1330.1106      1847.9         201.80778      297.68148      0.23086041   
     97000   489.41673      1356.8651      1846.2818      280.80532      303.66918      0.22786524   
     98000   480.88934      1344.1095      1824.9989      265.35887      300.81448      0.22873707   
     99000   515.34233      1307.9294      1823.2717      226.85905      292.71729      0.23229332   
    100000   510.30729      1287.2773      1797.5846      177.56518      288.0953       0.23168133   
    101000   471.12658      1272.1685      1743.2951      98.828894      284.71393      0.22893639   
    102000   519.65173      1305.496       1825.1478      10.051138      292.17269      0.22631011   
    103000   492.64085      1319.1953      1811.8361     -36.469582      295.23861      0.22399823   
    104000   492.89792      1329.6116      1822.5095     -11.63469       297.56981      0.22456364   
    105000   517.39057      1310.31        1827.7005      14.189408      293.25006      0.22430185   
    106000   498.83272      1325.7644      1824.5971      128.85291      296.7088       0.22689578   
    107000   462.75253      1314.7949      1777.5474      213.35004      294.25379      0.2372925    
    108000   483.25877      1278.3654      1761.6242      308.74745      286.10081      0.24568275   
    109000   481.06662      1309.3363      1790.4029      410.44625      293.03214      0.24764361   
    110000   472.73873      1337.5623      1810.301       386.66911      299.34919      0.24317095   
    111000   458.00255      1340.2714      1798.2739      340.04042      299.95549      0.23449048   
    112000   501.78835      1306.3036      1808.0919      230.12886      292.35343      0.22884653   
    113000   513.49011      1307.9667      1821.4568      187.41804      292.72562      0.22847789   
    114000   499.92889      1306.2717      1806.2006      111.89063      292.34629      0.22525651   
    115000   522.71447      1325.0525      1847.767       107.03064      296.54948      0.22158657   
    116000   504.95493      1330.0807      1835.0357      204.29187      297.6748       0.22098975   
    117000   489.92002      1302.1327      1792.0527      205.49521      291.41998      0.2225315    
    118000   491.66589      1314.9152      1806.5811      240.99246      294.28073      0.22967496   
    119000   509.01587      1277.8093      1786.8252      294.89766      285.97635      0.24084565   
    120000   438.72071      1349.4494      1788.1701      222.16835      302.00955      0.24453164   
    121000   487.27698      1343.2311      1830.508       123.94118      300.61787      0.24263086   
    122000   497.81995      1328.264       1826.084       68.185946      297.26822      0.23375069   
    123000   491.66412      1336.6454      1828.3096      142.64936      299.14399      0.22568884   
    124000   502.34973      1292.2736      1794.6233      213.97849      289.21348      0.22034136   
    125000   502.09023      1299.3719      1801.4621      301.38784      290.8021       0.2200815    
    126000   514.68759      1310.5776      1825.2652      214.75911      293.30997      0.22183982   
    127000   464.23128      1357.8573      1822.0886      254.4363       303.89125      0.22741666   
    128000   464.82212      1332.243       1797.0651      147.16732      298.15872      0.23478478   
    129000   485.49821      1324.8757      1810.3739      134.48149      296.50991      0.23921432   
    130000   493.0236       1326.0781      1819.1017      160.4334       296.77901      0.24159662   
    131000   474.98823      1330.6392      1805.6275      167.62359      297.79979      0.24045581   
    132000   488.43834      1314.8249      1803.2633      89.483154      294.26052      0.23406739   
    133000   489.56514      1381.1109      1870.676       205.19497      309.09545      0.23024727   
    134000   509.48942      1399.606       1909.0954      192.16967      313.2347       0.22597483   
    135000   474.77219      1377.8621      1852.6343      255.24545      308.36837      0.22612887   
    136000   531.15613      1364.8856      1896.0418      202.83795      305.46421      0.2252968    
    137000   546.35464      1384.4604      1930.8151      252.19724      309.84509      0.22444415   
    138000   512.50624      1348.0544      1860.5607      200.68639      301.69735      0.21619691   
    139000   490.22208      1320.4135      1810.6356      233.85489      295.51124      0.21150624   
    140000   502.80735      1306.4478      1809.2551      168.98978      292.3857       0.21325812   
    141000   503.40678      1329.5352      1832.942       115.10641      297.55271      0.21977223   
    142000   511.14678      1319.5953      1830.7421      100.36831      295.32814      0.22521475   
    143000   479.08228      1303.1833      1782.2656      195.12586      291.65511      0.22754272   
    144000   495.09038      1330.0067      1825.0971      231.54043      297.65822      0.22619462   
    145000   480.57134      1342.8096      1823.3809      225.18462      300.52353      0.22720567   
    146000   514.94951      1301.3223      1816.2718      169.61368      291.23861      0.23312181   
    147000   462.753        1345.993       1808.746       135.25697      301.236        0.23673118   
    148000   479.49683      1312.394       1791.8909      104.97567      293.71648      0.23865097   
    149000   492.44305      1313.7336      1806.1766      143.59038      294.01627      0.23830909   
    150000   481.18739      1375.1427      1856.3301      201.48884      307.75976      0.23206529   
    151000   523.34573      1328.9598      1852.3056      270.72088      297.42394      0.22825643   
    152000   506.51539      1347.7047      1854.2201      330.03374      301.61908      0.22917763   
    153000   461.55302      1380.4203      1841.9733      335.34372      308.9409       0.23124175   
    154000   499.8837       1367.5466      1867.4303      346.17218      306.05973      0.23797625   
    155000   511.43802      1330.5794      1842.0174      233.07107      297.78639      0.24310875   
    156000   481.22331      1371.2243      1852.4476      158.52176      306.88281      0.24262034   
    157000   488.09567      1364.4705      1852.5662      120.65162      305.3713       0.23566155   
    158000   500.43638      1336.3008      1836.7372      77.768413      299.06686      0.22761347   
    159000   517.62692      1388.5069      1906.1338      72.873905      310.7507       0.22371199   
    160000   508.64458      1348.3864      1857.031       88.758737      301.77164      0.22132772   
    161000   495.19395      1371.0554      1866.2493      143.59783      306.84501      0.22229137   
    162000   484.58613      1361.5541      1846.1403      188.49584      304.71861      0.22571551   
    163000   517.38549      1370.4232      1887.8087      214.45825      306.70353      0.22980287   
    164000   528.67215      1330.4089      1859.0811      271.09008      297.74825      0.24268523   
    165000   471.91373      1362.2966      1834.2104      230.63279      304.88478      0.246565     
    166000   472.53365      1373.6542      1846.1878      195.44228      307.42663      0.23460728   
    167000   481.80132      1340.062       1821.8633      152.68809      299.90862      0.22687322   
    168000   513.10529      1291.2636      1804.3688      142.47898      288.98743      0.22518899   
    169000   482.96813      1309.8678      1792.8359      159.81594      293.1511       0.22813618   
    170000   498.61143      1274.3378      1772.9492      319.16241      285.19942      0.2382704    
    171000   466.71985      1328.4608      1795.1806      330.19694      297.31225      0.24139663   
    172000   498.00239      1311.8159      1809.8183      212.09073      293.58709      0.23713262   
    173000   468.15776      1331.9697      1800.1275      144.43186      298.09755      0.23165168   
    174000   481.04999      1349.9844      1831.0344      90.269827      302.12928      0.22475317   
    175000   491.40607      1303.3643      1794.7704      40.508728      291.6956       0.22122863   
    176000   515.83593      1303.1851      1819.021       20.83852       291.6555       0.22089113   
    177000   511.64559      1325.3228      1836.9684      86.178224      296.60996      0.21865474   
    178000   507.84287      1348.2705      1856.1133      173.25109      301.7457       0.21544024   
    179000   502.93241      1351.0633      1853.9957      277.71091      302.37074      0.21426159   
    180000   524.55518      1328.7982      1853.3534      317.02574      297.38776      0.21728872   
    181000   498.34536      1326.6954      1825.0407      350.35657      296.91715      0.22950177   
    182000   487.63086      1353.5643      1841.1951      343.55537      302.93046      0.24272992   
    183000   509.32384      1319.8565      1829.1803      193.11226      295.38659      0.23713562   
    184000   532.00935      1347.9334      1879.9427      72.615799      301.67026      0.22803848   
    185000   492.81915      1327.1625      1819.9817      115.35245      297.0217       0.2228631    
    186000   486.49716      1334.0543      1820.5515      196.78615      298.56409      0.22188702   
    187000   491.0771       1336.7163      1827.7934      176.1178       299.15984      0.22188725   
    188000   512.77539      1308.2553      1821.0306      161.47108      292.79021      0.22505693   
    189000   459.21674      1299.7753      1758.9921      144.27068      290.89239      0.22427716   
    190000   489.5605       1335.2377      1824.7982      135.19641      298.82894      0.2231363    
    191000   529.56738      1307.791       1837.3584      257.4105       292.68632      0.22279379   
    192000   497.87395      1346.4379      1844.3119      249.69651      301.33558      0.21611275   
    193000   490.76919      1320.8492      1811.6184      300.85829      295.60876      0.21362403   
    194000   495.32215      1299.7695      1795.0917      300.3461       290.89109      0.21888687   
    195000   475.81117      1277.3064      1753.1176      271.76259      285.8638       0.22754968   
    196000   476.87166      1327.245       1804.1167      270.93377      297.04015      0.23497775   
    197000   514.58808      1282.7718      1797.3598      141.60842      287.08695      0.2327018    
    198000   481.29424      1344.2022      1825.4964      169.18992      300.83521      0.2298534    
    199000   482.92102      1368.3897      1851.3107      183.99547      306.24841      0.22724569   
    200000   496.49301      1369.9433      1866.4364      238.11505      306.59613      0.22878386   
    201000   541.19361      1342.52        1883.7136      226.29598      300.45873      0.23094871   
    202000   494.54081      1387.1496      1881.6904      196.34058      310.44693      0.23120115   
    203000   507.081        1384.8575      1891.9385      184.25803      309.93396      0.22613395   
    204000   504.47875      1355.3049      1859.7836      172.23401      303.32001      0.21854108   
    205000   534.80565      1353.7362      1888.5418      157.70241      302.96893      0.21784502   
    206000   522.11109      1345.6747      1867.7858      247.40893      301.16477      0.22410824   
    207000   491.07056      1352.0942      1843.1647      268.05941      302.60145      0.22755619   
    208000   486.68277      1288.2808      1774.9635      273.73339      288.31988      0.22953188   
    209000   487.92399      1287.5282      1775.4522      196.94625      288.15146      0.22897328   
    210000   511.92048      1308.2444      1820.1649      98.234839      292.78778      0.22774667   
    211000   504.16041      1328.9499      1833.1103      109.39676      297.42171      0.22748877   
    212000   511.60566      1302.3508      1813.9564      96.616812      291.46877      0.22552346   
    213000   492.94269      1347.6931      1840.6358      47.784504      301.61649      0.21905901   
    214000   502.4026       1336.5049      1838.9075      140.59392      299.11254      0.21468951   
    215000   507.21941      1311.2637      1818.4831      193.04738      293.4635       0.21678252   
    216000   530.68717      1319.0048      1849.692       206.39399      295.19598      0.22813217   
    217000   485.92635      1353.7535      1839.6798      316.81264      302.9728       0.23793078   
    218000   485.76666      1397.1912      1882.9579      350.95422      312.69427      0.23792733   
    219000   507.72426      1339.6976      1847.4218      309.4566       299.82706      0.23218155   
    220000   491.20548      1342.115       1833.3204      237.28463      300.36808      0.22652101   
    221000   500.1575       1355.2732      1855.4307      156.76701      303.31292      0.22236878   
    222000   515.91741      1386.7422      1902.6596      59.426508      310.35574      0.21848429   
    223000   553.34215      1388.3944      1941.7366      40.226443      310.72552      0.22100487   
    224000   536.78969      1351.3075      1888.0972      84.487263      302.4254       0.22513381   
    225000   496.14856      1352.7225      1848.8711      203.75936      302.74208      0.23329236   
    226000   490.56403      1350.4823      1841.0463      346.1705       302.24071      0.24546487   
    227000   505.88814      1369.1141      1875.0023      325.92547      306.41055      0.24519073   
    228000   500.90834      1425.4534      1926.3617      357.93301      319.01939      0.23944547   
    229000   528.94783      1352.9569      1881.9047      195.45229      302.79454      0.2319189    
    230000   478.11545      1360.6458      1838.7612      114.34799      304.51532      0.22955198   
    231000   509.20003      1348.1442      1857.3442      85.916943      301.71744      0.23127587   
    232000   515.35194      1363.0905      1878.4424      115.91309      305.06244      0.23315421   
    233000   506.24423      1415.5123      1921.7565      185.74146      316.79456      0.22880287   
    234000   518.40553      1362.9106      1881.3161      242.51445      305.02218      0.22029519   
    235000   535.16892      1340.2189      1875.3878      300.51002      299.94373      0.21679917   
    236000   508.4896       1387.6363      1896.1259      277.17653      310.55585      0.21443173   
    237000   507.72144      1357.618       1865.3394      248.1147       303.83769      0.21535722   
    238000   489.50731      1382.9281      1872.4354      264.74742      309.50216      0.21875351   
    239000   520.51342      1402.8369      1923.3503      254.15783      313.95778      0.21995617   
    240000   551.84395      1371.2483      1923.0922      254.67411      306.88818      0.221437     
    241000   527.55084      1345.5184      1873.0692      206.93547      301.12978      0.22109879   
    242000   497.81574      1361.782       1859.5977      142.98663      304.76961      0.22324581   
    243000   514.08926      1339.0548      1853.1441      91.37126       299.68321      0.22846702   
    244000   477.31847      1314.7017      1792.0202      23.732364      294.23295      0.23008986   
    245000   479.66397      1287.7334      1767.3974      24.119737      288.19738      0.22906382   
    246000   496.35284      1323.3479      1819.7007      116.68683      296.16797      0.22925638   
    247000   510.81724      1305.6662      1816.4834      185.86532      292.21078      0.2345935    
    248000   434.12607      1287.3355      1721.4616      209.23504      288.10833      0.24154744   
    249000   479.29856      1296.9862      1776.2848      174.46705      290.26818      0.24804557   
    250000   505.10986      1289.2638      1794.3736      171.8395       288.53988      0.24426481   
    251000   505.51871      1339.3642      1844.8829      174.82407      299.75245      0.23348116   
    252000   502.27834      1353.8773      1856.1556      169.71719      303.00051      0.22912705   
    253000   514.07599      1357.7606      1871.8365      153.99819      303.8696       0.22830237   
    254000   510.8697       1387.6904      1898.5601      208.56832      310.56796      0.2329842    
    255000   494.40127      1337.1088      1831.5101      196.04121      299.2477       0.23405496   
    256000   507.9934       1325.7797      1833.7731      212.76229      296.71223      0.23319812   
    257000   519.04641      1326.0555      1845.1019      234.01846      296.77393      0.22936739   
    258000   488.91159      1325.092       1814.0036      154.16044      296.55831      0.22398034   
    259000   495.97828      1344.4256      1840.4038      166.17263      300.8852       0.22302643   
    260000   481.80592      1364.895       1846.7009      172.33268      305.46631      0.22548488   
    261000   501.24012      1323.5308      1824.7709      279.11856      296.20891      0.23125629   
    262000   512.48036      1299.8111      1812.2915      232.95256      290.90039      0.23245418   
    263000   463.58782      1297.4276      1761.0154      234.46823      290.36696      0.23363017   
    264000   484.45595      1291.6317      1776.0877      229.32412      289.06983      0.23877841   
    265000   461.89251      1320.4563      1782.3489      230.71918      295.52084      0.24037677   
    266000   477.51723      1346.3099      1823.8272      221.93422      301.30693      0.23792325   
    267000   481.3059       1309.4055      1790.7114      137.94134      293.04763      0.22660668   
    268000   512.91625      1334.9944      1847.9107      162.03135      298.7745       0.21877326   
    269000   516.26027      1341.2227      1857.4829      139.65379      300.16839      0.21602884   
    270000   493.08059      1343.2548      1836.3354      202.22068      300.62319      0.21704326   
    271000   496.48506      1324.2036      1820.6887      266.79615      296.35948      0.22157919   
    272000   509.70416      1333.3409      1843.0451      260.6431       298.40443      0.22897453   
    273000   485.76454      1353.5621      1839.3267      209.25045      302.92998      0.23535115   
    274000   491.96269      1345.2591      1837.2218      160.06072      301.07176      0.23934483   
    275000   450.75563      1296.22        1746.9756      65.46615       290.09669      0.24427566   
    276000   501.04007      1295.6111      1796.6511      32.661803      289.96042      0.2461642    
    277000   471.21508      1327.2998      1798.5149     -6.1910537      297.05243      0.23876651   
    278000   504.14516      1375.9777      1880.1229      1.1829025      307.94664      0.23164987   
    279000   488.60067      1366.2936      1854.8943      153.98663      305.77931      0.22993      
    280000   510.36845      1363.872       1874.2404      345.53925      305.23735      0.23120773   
    281000   523.81614      1367.5552      1891.3713      504.28504      306.06165      0.23188209   
    282000   537.96652      1328.5535      1866.52        364.67034      297.333        0.22900051   
    283000   507.58891      1369.9806      1877.5695      259.91055      306.60446      0.22265916   
    284000   511.68737      1394.9767      1906.6641      105.16787      312.19866      0.21568509   
    285000   530.70215      1341.107       1871.8091      28.63992       300.14249      0.21583642   
    286000   525.27914      1358.0127      1883.2918      29.5199        303.92602      0.22429829   
    287000   496.96137      1350.9027      1847.8641      112.58181      302.3348       0.23426666   
    288000   480.40008      1304.3196      1784.7197      116.07126      291.90941      0.23440104   
    289000   489.56882      1348.3131      1837.8819      249.69187      301.75524      0.23117959   
    290000   515.05917      1371.7728      1886.832       187.95771      307.00558      0.22629025   
    291000   518.38741      1356.3892      1874.7766      218.69845      303.56268      0.22274334   
    292000   553.5617       1372.1822      1925.7439      136.88369      307.0972       0.21820915   
    293000   541.87432      1355.7376      1897.6119      146.09444      303.41685      0.21254958   
    294000   499.88889      1366.779       1866.6679      145.41994      305.88794      0.21057103   
    295000   533.49365      1344.9752      1878.4688      185.40455      301.0082       0.21481292   
    296000   536.69078      1369.8218      1906.5126      307.89829      306.56893      0.22518827   
    297000   534.61705      1380.5424      1915.1594      265.99006      308.96822      0.23114388   
    298000   531.67463      1368.05        1899.7246      255.35195      306.17239      0.23007109   
    299000   526.24893      1356.8862      1883.1351      203.96594      303.67391      0.2270119    
    300000   513.23863      1341.3576      1854.5963      150.89171      300.19859      0.22496073   
    301000   513.58596      1380.3767      1893.9627      33.553883      308.93115      0.21969921   
    302000   555.81743      1378.4212      1934.2386      142.70793      308.49349      0.21890502   
    303000   529.44162      1389.5043      1918.9459      202.62402      310.97392      0.21730327   
    304000   531.55995      1383.2142      1914.7742      252.37291      309.56619      0.21604138   
    305000   535.5813       1363.3472      1898.9285      222.77909      305.11989      0.21630434   
    306000   513.80209      1370.178       1883.9801      119.16728      306.64865      0.22055572   
    307000   503.21159      1373.4527      1876.6643      133.20796      307.38154      0.22888554   
    308000   522.25588      1341.4653      1863.7212      147.59535      300.22269      0.23398494   
    309000   479.85612      1348.2133      1828.0695      181.86252      301.73291      0.23472719   
    310000   503.02162      1295.9857      1799.0073      220.71141      290.04427      0.23248191   
    311000   481.47435      1312.8779      1794.3523      238.22432      293.82477      0.22660724   
    312000   523.00354      1343.391       1866.3946      237.40603      300.65367      0.21929274   
    313000   519.64329      1326.3068      1845.9501      250.09064      296.83018      0.21533824   
    314000   558.46343      1315.1475      1873.6109      199.94897      294.33271      0.21583521   
    315000   512.94957      1317.3489      1830.2985      221.53347      294.8254       0.22045989   
    316000   468.68213      1320.04        1788.7221      179.43639      295.42765      0.2283712    
    317000   517.39203      1309.079       1826.471       171.02827      292.97456      0.23332154   
    318000   535.37282      1302.8225      1838.1953      45.93768       291.57435      0.23448394   
    319000   477.21342      1313.6287      1790.8421      119.26396      293.9928       0.2368869    
    320000   505.93045      1338.98        1844.9105      91.679665      299.66647      0.23532829   
    321000   527.16761      1332.2898      1859.4574      180.64279      298.16919      0.23116545   
    322000   504.96686      1321.9277      1826.8945      145.8578       295.85013      0.22540901   
    323000   494.26577      1344.6429      1838.9086      198.74959      300.93383      0.22122131   
    324000   486.34922      1324.3892      1810.7384      233.60265      296.40103      0.21339959   
    325000   535.12598      1308.3         1843.426       184.36642      292.80023      0.20696451   
    326000   538.2419       1322.5527      1860.7946      101.34336      295.99         0.20916992   
    327000   506.81663      1338.8391      1845.6557     -56.363454      299.63494      0.21691885   
    328000   486.92002      1288.2225      1775.1425     -77.792053      288.30683      0.22783682   
    329000   494.84381      1304.5717      1799.4155     -41.969592      291.96582      0.23227336   
    330000   472.10239      1322.1179      1794.2203      47.033322      295.8927       0.23635857   
    331000   461.89549      1356.8971      1818.7926      271.5283       303.67635      0.24258272   
    332000   486.21037      1380.9         1867.1104      348.45702      309.04826      0.24294218   
    333000   504.51346      1331.6225      1836.136       450.7365       298.01985      0.23995582   
    334000   499.38733      1333.7148      1833.1022      367.68025      298.48811      0.23381044   
    335000   510.02811      1359.7793      1869.8074      327.58584      304.32139      0.22782787   
    336000   513.87504      1364.7143      1878.5893      237.38715      305.42585      0.21957419   
    337000   543.57152      1346.074       1889.6455      179.46279      301.25413      0.2183451    
    338000   507.63228      1352.1653      1859.7976      116.66016      302.61737      0.22620962   
    339000   492.13131      1398.752       1890.8833      88.059212      313.04357      0.23417328   
    340000   494.27053      1397.8334      1892.1039      116.81136      312.83798      0.23585229   
    341000   483.02207      1390.978       1874           80.258015      311.30372      0.22999499   
    342000   504.87488      1362.5761      1867.4509      102.08951      304.94732      0.22645198   
    343000   505.91491      1352.6686      1858.5835      150.76166      302.73         0.22431541   
    344000   504.35505      1393.0918      1897.4468      150.27907      311.7768       0.22298323   
    345000   538.9853       1387.9525      1926.9378      204.51094      310.62661      0.22589938   
    346000   513.15952      1384.6474      1897.8069      286.23591      309.88693      0.23520262   
    347000   501.58789      1360.2404      1861.8283      248.04167      304.4246       0.24222419   
    348000   484.14768      1348.7745      1832.9222      226.26173      301.85851      0.24236865   
    349000   485.42597      1357.7027      1843.1286      208.92137      303.85664      0.23851329   
    350000   482.22682      1350.4886      1832.7154      217.73776      302.24211      0.23208854   
    351000   506.69822      1375.7649      1882.4632      280.154        307.89902      0.22547646   
    352000   499.59095      1345.831       1845.4219      214.88125      301.19974      0.21933357   
    353000   510.69017      1371.8935      1882.5836      137.15071      307.03257      0.21908678   
    354000   515.86921      1405.1713      1921.0405      115.69256      314.48022      0.22338598   
    355000   494.86804      1351.6826      1846.5506      121.53747      302.50934      0.22690392   
    356000   465.16547      1370.6283      1835.7938      134.55832      306.74943      0.22736902   
    357000   496.70372      1328.4984      1825.2021      141.60093      297.32067      0.22317154   
    358000   502.7582       1341.9601      1844.7183      201.52504      300.33342      0.21686331   
    359000   506.04619      1329.6733      1835.7195      231.64071      297.58362      0.20890433   
    360000   537.03651      1300.6588      1837.6953      212.651        291.09012      0.2053555    
    361000   491.34516      1306.9192      1798.2644      261.82871      292.4912       0.21154162   
    362000   530.8309       1323.4256      1854.2565      302.03872      296.18537      0.21815307   
    363000   519.14433      1332.3598      1851.5041      250.33841      298.18485      0.21889099   
    364000   485.65154      1363.0825      1848.7341      199.97569      305.06067      0.2183872    
    365000   535.27852      1369.7991      1905.0776      126.34379      306.56386      0.21944506   
    366000   515.41094      1369.8918      1885.3027      36.732955      306.5846       0.22855158   
    367000   472.49         1323.9554      1796.4454      125.75866      296.30394      0.24134416   
    368000   458.78682      1333.463       1792.2498      94.062135      298.43176      0.2401202    
    369000   498.79403      1322.583       1821.377       170.82226      295.99678      0.23266867   
    370000   495.99823      1338.0089      1834.0071      158.34244      299.44914      0.22219754   
    371000   464.58992      1325.7325      1790.3225      158.85721      296.70166      0.21814254   
    372000   531.0955       1309.6224      1840.7179      190.49921      293.09619      0.2185843    
    373000   537.75199      1296.2329      1833.9849      185.86273      290.09958      0.22160754   
    374000   484.19157      1290.4767      1774.6682      190.46471      288.81133      0.22436605   
    375000   502.50685      1313.6165      1816.1234      179.47758      293.99007      0.22431507   
    376000   503.88116      1329.5481      1833.4293      122.1665       297.55559      0.21498697   
    377000   532.28897      1309.1895      1841.4785      107.53275      292.99931      0.20948935   
    378000   500.7415       1356.8991      1857.6406      129.25301      303.67681      0.21158024   
    379000   516.45035      1369.1584      1885.6088      203.80295      306.42046      0.21473293   
    380000   555.36578      1367.5389      1922.9046      229.57158      306.05801      0.21893347   
    381000   505.19341      1366.3022      1871.4956      291.3827       305.78123      0.22411506   
    382000   497.17412      1378.0306      1875.2047      242.63533      308.40607      0.22795073   
    383000   500.92993      1336.1017      1837.0316      237.36406      299.02229      0.22941416   
    384000   506.64361      1295.278       1801.9216      146.49339      289.88588      0.22785544   
    385000   501.17372      1328.9072      1830.0809      148.92228      297.41215      0.22677839   
    386000   549.43074      1308.1996      1857.6304      210.29157      292.77776      0.2208636    
    387000   485.71363      1359.3391      1845.0527      196.96169      304.22287      0.2123588    
    388000   522.69279      1323.5763      1846.2691      167.15258      296.21909      0.21323672   
    389000   519.86885      1374.1111      1893.9799      157.44875      307.52888      0.21973335   
    390000   528.96882      1360.426       1889.3948      179.60766      304.46613      0.22574308   
    391000   492.81772      1361.1567      1853.9744      199.98319      304.62966      0.22695931   
    392000   523.41784      1361.1112      1884.5291      158.70624      304.61949      0.22489555   
    393000   489.73861      1361.1381      1850.8767      183.973        304.62551      0.22166502   
    394000   497.64465      1330.1476      1827.7923      180.86666      297.68976      0.21783504   
    395000   503.6514       1291.0767      1794.7281      208.19872      288.94563      0.21312553   
    396000   494.54746      1321.7807      1816.3282      241.91658      295.81723      0.21264859   
    397000   522.08926      1329.1418      1851.2311      296.41061      297.46467      0.22096763   
    398000   503.0255       1370.84        1873.8655      353.34316      306.79681      0.23308595   
    399000   487.25396      1353.3444      1840.5983      344.68573      302.88125      0.23577977   
    400000   517.46738      1367.9185      1885.3858      317.00206      306.14296      0.23223703   
    401000   496.63413      1346.387       1843.0211      266.59635      301.32417      0.22680549   
    402000   487.60182      1321.7387      1809.3405      279.22528      295.80784      0.22408732   
    403000   522.55435      1318.4526      1841.0069      214.71321      295.0724       0.21876567   
    404000   515.14531      1321.1468      1836.2921      86.284254      295.67536      0.2132013    
    405000   511.28729      1314.1913      1825.4786      90.985233      294.11871      0.21370209   
    406000   522.29294      1310.9891      1833.2821      31.376223      293.40206      0.21554478   
    407000   519.58293      1310.085       1829.6679      108.51429      293.19971      0.22023914   
    408000   496.51281      1324.6867      1821.1995      289.79144      296.46759      0.22192829   
    409000   523.92555      1333.4049      1857.3304      397.23417      298.41875      0.22211582   
    410000   535.13495      1331.4427      1866.5777      338.44538      297.97961      0.21747128   
    411000   524.30566      1341.8804      1866.1861      304.54164      300.3156       0.21368112   
    412000   503.58565      1343.9126      1847.4982      250.41988      300.7704       0.21351313   
    413000   514.07798      1342.3587      1856.4366      108.26606      300.42262      0.21558156   
    414000   527.25086      1344.0967      1871.3476      108.59701      300.81161      0.22301019   
    415000   486.00961      1355.2944      1841.3041      158.04796      303.31768      0.23461778   
    416000   497.54346      1380.7088      1878.2523      198.52989      309.00547      0.23952834   
    417000   472.66093      1373.567       1846.228       217.888        307.40712      0.23699484   
    418000   489.16187      1343.7526      1832.9145      268.71932      300.73459      0.23130869   
    419000   520.27555      1341.8162      1862.0918      238.60254      300.30122      0.22505332   
    420000   510.30639      1355.0082      1865.3146      103.73156      303.25361      0.22199595   
    421000   485.24526      1350.322       1835.5673      166.16055      302.20484      0.22388101   
    422000   489.49148      1329.1755      1818.667       85.612629      297.47221      0.22407671   
    423000   483.10728      1323.6176      1806.7249      99.091207      296.22834      0.22829704   
    424000   470.70202      1341.8466      1812.5486      186.10337      300.30802      0.2365724    
    425000   496.57055      1323.1954      1819.766       236.18987      296.13385      0.24267459   
    426000   490.34473      1306.0322      1796.377       238.47583      292.29269      0.24353126   
    427000   470.65908      1346.4318      1817.0908      223.91197      301.33419      0.24108432   
    428000   497.3674       1298.3308      1795.6982      149.87365      290.5691       0.22870357   
    429000   524.96091      1380.9182      1905.8791      89.926195      309.05233      0.22120269   
    430000   495.69974      1360.818       1856.5177      75.277655      304.55385      0.2211176    
    431000   489.02484      1370.0863      1859.1111      95.635952      306.62812      0.22489692   
    432000   508.26113      1332.4095      1840.6706      120.31849      298.19598      0.22614616   
    433000   501.14861      1323.1276      1824.2762      275.35104      296.11866      0.22603648   
    434000   502.76621      1323.7991      1826.5653      345.14563      296.26896      0.22609744   
    435000   485.3614       1340.6537      1826.0151      268.42495      300.04106      0.22615893   
    436000   454.55202      1352.4012      1806.9532      274.11378      302.67016      0.22809217   
    437000   519.81866      1317.9788      1837.7975      240.75798      294.96637      0.22825792   
    438000   498.43027      1333.7248      1832.1551      258.61227      298.49035      0.22121698   
    439000   509.34312      1305.3244      1814.6676      176.32889      292.13429      0.21313693   
    440000   516.10439      1319.1176      1835.222       169.55736      295.22122      0.21332925   
    441000   514.33573      1328.1805      1842.5162      140.63934      297.24951      0.21873504   
    442000   509.34508      1331.5319      1840.877       172.75315      297.99957      0.22296813   
    443000   486.98656      1296.6545      1783.6411      223.88712      290.19394      0.22356052   
    444000   508.6049       1299.0749      1807.6798      244.62486      290.73563      0.22133073   
    445000   500.31405      1328.7199      1829.034       248.6539       297.37025      0.21960909   
    446000   526.96871      1326.7334      1853.7021      217.30768      296.92566      0.21920971   
    447000   497.4052       1317.743       1815.1482      185.81722      294.9136       0.21965913   
    448000   506.15611      1335.0204      1841.1765      163.02357      298.78031      0.22139849   
    449000   502.3197       1304.5383      1806.858       155.46644      291.95836      0.2252512    
    450000   504.77745      1307.465       1812.2425      236.96131      292.61336      0.22740144   
    451000   477.45499      1357.1359      1834.5909      227.55572      303.72981      0.22598369   
    452000   491.4024       1313.6737      1805.0761      248.91119      294.00287      0.22151014   
    453000   492.38823      1339.5803      1831.9685      188.68656      299.80081      0.21470305   
    454000   504.8695       1306.487       1811.3565      252.09671      292.39447      0.21301131   
    455000   501.28607      1329.9201      1831.2062      325.16273      297.63886      0.21991628   
    456000   493.55332      1311.9587      1805.512       319.84614      293.61905      0.22934922   
    457000   501.86409      1331.3043      1833.1684      314.14163      297.94864      0.23474374   
    458000   514.69578      1278.2948      1792.9906      186.55592      286.08499      0.23028718   
    459000   506.15699      1348.9259      1855.0828      161.26672      301.89238      0.22695151   
    460000   519.89023      1341.7472      1861.6374      67.78245       300.28578      0.22098102   
    461000   529.22167      1315.1572      1844.3789      31.892228      294.33488      0.21836453   
    462000   500.54129      1337.5141      1838.0554      84.713866      299.3384       0.21920163   
    463000   557.18175      1356.7944      1913.9762      128.8955       303.65337      0.2215035    
    464000   521.7443       1392.031       1913.7753      217.99847      311.5394       0.22416345   
    465000   535.53824      1365.7825      1901.3207      287.0763       305.66492      0.22635689   
    466000   496.54555      1366.1342      1862.6798      316.27163      305.74364      0.22571637   
    467000   493.73231      1381.9715      1875.7038      314.24518      309.28805      0.22646922   
    468000   510.61529      1373.4273      1884.0426      306.11802      307.37586      0.23226658   
    469000   461.25417      1319.116       1780.3701      286.41381      295.22086      0.2391788    
    470000   481.00551      1333.2154      1814.221       182.10084      298.37635      0.24114072   
    471000   496.64071      1302.9904      1799.6312      105.55894      291.61194      0.23616379   
    472000   470.91608      1263.717       1734.6331      39.417575      282.82245      0.23008444   
    473000   513.35417      1295.3651      1808.7192      49.762906      289.90536      0.22898609   
    474000   503.97291      1319.0476      1823.0205      115.16461      295.20557      0.22701051   
    475000   493.79643      1313.0093      1806.8057      234.50323      293.85418      0.22878443   
    476000   467.35817      1338.3174      1805.6755      316.43026      299.51818      0.23693975   
    477000   486.86411      1291.5391      1778.4032      321.26622      289.04911      0.24763321   
    478000   491.82124      1321.8836      1813.7049      268.88501      295.84027      0.25221397   
    479000   461.27298      1378.5274      1839.8004      178.36035      308.51727      0.24785935   
    480000   496.8837       1338.4631      1835.3468      95.166472      299.55078      0.23936127   
    481000   484.70984      1337.9833      1822.6931      84.098742      299.44341      0.23450909   
    482000   484.69163      1266           1750.6917      142.63028      283.33341      0.2300567    
    483000   508.35999      1282.0885      1790.4485      183.90901      286.93403      0.22436683   
    484000   533.87085      1295.1802      1829.0511      201.68278      289.86399      0.22062124   
    485000   488.33015      1349.7089      1838.039       221.01479      302.06762      0.22021578   
    486000   493.95321      1323.42        1817.3732      195.56796      296.18411      0.2238029    
    487000   523.27616      1307.5806      1830.8568      147.30562      292.63923      0.23170695   
    488000   485.92064      1305.4251      1791.3458      108.87603      292.15682      0.23624289   
    489000   456.52109      1353.0996      1809.6207      168.95182      302.82647      0.2389841    
    490000   486.06546      1302.9135      1788.979       178.58527      291.59473      0.23974968   
    491000   470.53961      1336.7597      1807.2993      125.9093       299.16956      0.24177273   
    492000   481.10776      1330.4473      1811.5551      184.26855      297.75684      0.24996139   
    493000   444.20735      1364.3017      1808.509       219.11919      305.33352      0.25127241   
    494000   466.85688      1401.8304      1868.6873      244.83615      313.73252      0.24079054   
    495000   499.17168      1346.2739      1845.4456      252.25617      301.29887      0.2313019    
    496000   519.44588      1364.0666      1883.5125      256.85965      305.2809       0.22462844   
    497000   513.81738      1363.4838      1877.3012      337.81548      305.15047      0.21968724   
    498000   508.46048      1359.3099      1867.7704      319.70753      304.21635      0.2163009    
    499000   548.98425      1338.8963      1887.8805      286.82766      299.64774      0.21680125   
    500000   506.01052      1331.3395      1837.35        283.75239      297.95652      0.21958225   
    501000   520.74669      1314.3851      1835.1318      281.74041      294.16209      0.22458852   
    502000   479.62794      1302.1331      1781.761       230.40098      291.42005      0.23564725   
    503000   514.58933      1318.7495      1833.3388      221.97056      295.13884      0.23917702   
    504000   508.59509      1317.3531      1825.9482      120.89465      294.82634      0.23525501   
    505000   491.28629      1336.6145      1827.9007      69.806437      299.13706      0.23533031   
    506000   490.19196      1379.6734      1869.8654      81.943733      308.77374      0.2359083    
    507000   478.54814      1361.9775      1840.5256      97.28149       304.81336      0.23399199   
    508000   497.65349      1365.0526      1862.7061      218.02825      305.50157      0.23262357   
    509000   537.03057      1347.1993      1884.2298      314.18444      301.50596      0.23408738   
    510000   531.82914      1403.3277      1935.1569      340.39851      314.06763      0.23547664   
    511000   537.33015      1364.436       1901.7662      279.73466      305.36358      0.23367471   
    512000   505.50403      1376.8408      1882.3448      196.6915       308.13979      0.23382669   
    513000   453.35225      1381.9005      1835.2527      250.69451      309.27216      0.23927279   
    514000   492.80323      1323.1318      1815.935       216.47086      296.11962      0.24186167   
    515000   467.99155      1333.6249      1801.6164      123.38039      298.46799      0.23745244   
    516000   459.73499      1298.7762      1758.5112      128.57043      290.66877      0.23257639   
    517000   510.31684      1334.4317      1844.7485      187.18499      298.64855      0.22793091   
    518000   481.75798      1369.9766      1851.7346      216.80564      306.60358      0.22197749   
    519000   489.83513      1345.9674      1835.8025      244.67297      301.23027      0.21509469   
    520000   552.03268      1327.947       1879.9797      180.42297      297.19727      0.20791302   
    521000   523.10973      1345.2357      1868.3454      220.83133      301.06651      0.20347443   
    522000   538.94144      1337.1672      1876.1086      233.02563      299.26076      0.20273991   
    523000   534.36644      1345.411       1879.7774      240.57526      301.10574      0.21467412   
    524000   512.70777      1347.2198      1859.9276      276.45662      301.51057      0.22664199   
    525000   494.68774      1330.948       1825.6358      204.58964      297.8689       0.2289295    
    526000   522.9208       1282.8433      1805.7641      154.39352      287.10296      0.22884823   
    527000   498.98211      1322.191       1821.1731      162.18657      295.90906      0.22704666   
    528000   494.21223      1310.0351      1804.2473      105.86726      293.18854      0.22394689   
    529000   475.77031      1301.3722      1777.1425      193.99315      291.24977      0.22458635   
    530000   487.41355      1325.2418      1812.6554      164.53008      296.59184      0.22835766   
    531000   488.85603      1327.6264      1816.4825      227.75293      297.12552      0.23498795   
    532000   510.07128      1325.8053      1835.8765      244.13822      296.71794      0.23588066   
    533000   468.905        1305.9715      1774.8765      343.889        292.2791       0.23515194   
    534000   491.22885      1315.9689      1807.1978      352.78509      294.51655      0.23636544   
    535000   498.53088      1320.2776      1818.8085      323.2305       295.48084      0.23616802   
    536000   485.82712      1316.5566      1802.3838      294.90646      294.64808      0.229811     
    537000   481.74006      1289.8666      1771.6066      231.89114      288.67478      0.22106413   
    538000   511.77797      1287.7407      1799.5187      237.25378      288.19901      0.22284499   
    539000   473.97046      1342.0534      1816.0239      187.53568      300.3543       0.23050996   
    540000   477.30179      1314.3201      1791.6219      161.99176      294.14754      0.23723082   
    541000   460.48265      1343.0384      1803.521       52.380995      300.57474      0.23382693   
    542000   500.32921      1376.1995      1876.5287      83.941566      307.99628      0.22895714   
    543000   510.7655       1356.7325      1867.498       145.0866       303.63951      0.222965     
    544000   487.84498      1374.1895      1862.0345      214.79091      307.54643      0.21907976   
    545000   520.91668      1357.3839      1878.3006      283.67805      303.78531      0.22046027   
    546000   545.24336      1363.4525      1908.6958      341.17935      305.14346      0.22641344   
    547000   523.9156       1400.0832      1923.9988      330.70648      313.34149      0.22997908   
    548000   516.28424      1356.4619      1872.7461      328.70716      303.57895      0.22307045   
    549000   514.5105       1350.3362      1864.8467      302.88262      302.20801      0.21849678   
    550000   516.46191      1376.3387      1892.8006      261.75336      308.02744      0.22101086   
    551000   494.94702      1355.8899      1850.8369      234.50163      303.45095      0.22346129   
    552000   494.77132      1395.0062      1889.7776      246.70117      312.20526      0.22537984   
    553000   471.0899       1382.1676      1853.2575      297.3787       309.33195      0.2297079    
    554000   464.79096      1364.7438      1829.5348      305.33693      305.43247      0.23635339   
    555000   473.13412      1380.6759      1853.8101      220.12167      308.99811      0.24097844   
    556000   500.62481      1402.2386      1902.8634      125.95079      313.82387      0.23783838   
    557000   502.24202      1374.0396      1876.2817      86.390152      307.51289      0.23061589   
    558000   522.46521      1416.813       1939.2782      147.41111      317.08565      0.22675512   
    559000   557.18176      1336.3736      1893.5554      172.84931      299.08315      0.22375258   
    560000   497.65775      1352.3782      1850.036       244.07559      302.66502      0.22154587   
    561000   501.95454      1354.334       1856.2885      220.92592      303.10272      0.21871496   
    562000   492.31275      1364.8599      1857.1726      120.67857      305.45844      0.21464853   
    563000   496.09417      1352.5779      1848.6721      134.36303      302.70971      0.21249445   
    564000   541.63395      1354.4273      1896.0613      211.19482      303.12361      0.21518319   
    565000   532.56368      1352.2816      1884.8452      244.50838      302.64339      0.22188769   
    566000   515.78368      1374.3922      1890.1758      298.13614      307.59179      0.23076174   
    567000   474.13381      1341.2746      1815.4084      291.48888      300.18001      0.23237235   
    568000   494.05067      1308.9291      1802.9798      303.8243       292.94102      0.23350211   
    569000   480.81167      1299.4713      1780.2829      199.64992      290.82434      0.2342371    
    570000   485.66515      1326.2598      1811.925       145.4939       296.81967      0.23491802   
    571000   484.11529      1323.4632      1807.5785      77.319807      296.19377      0.23532554   
    572000   478.96414      1318.8893      1797.8535      105.75123      295.17014      0.2364866    
    573000   507.64628      1297.8166      1805.4629      106.9348       290.45402      0.23168063   
    574000   497.66383      1321.5646      1819.2285      159.83118      295.76888      0.22505651   
    575000   517.91012      1306.379       1824.2891      252.80632      292.37031      0.2190659    
    576000   495.78562      1303.3715      1799.1571      260.9811       291.69722      0.21718343   
    577000   501.76413      1334.4877      1836.2518      237.80924      298.66108      0.22256907   
    578000   480.77471      1346.7135      1827.4882      250.3733       301.39724      0.23331359   
    579000   518.63155      1316.9374      1835.569       128.86268      294.7333       0.23318365   
    580000   511.42455      1330.062       1841.4865      109.96629      297.6706       0.23173591   
    581000   526.44823      1368.3488      1894.797       137.42762      306.23927      0.23049925   
    582000   521.32573      1375.816       1897.1418      154.00478      307.91046      0.22754483   
    583000   559.76746      1341.0897      1900.8572      200.02268      300.13864      0.22489168   
    584000   507.59089      1360.0318      1867.6227      182.054        304.37791      0.22194923   
    585000   511.73672      1376.8127      1888.5494      78.858565      308.1335       0.22034377   
    586000   534.61448      1335.5021      1870.1166      60.335749      298.88811      0.22745953   
    587000   509.36233      1331.5707      1840.933       154.94181      298.00825      0.24218183   
    588000   505.07831      1306.0392      1811.1175      190.60679      292.29426      0.24397394   
    589000   445.53599      1288.3425      1733.8785      155.75858      288.33369      0.23718784   
    590000   490.48183      1313.242       1803.7238      193.62604      293.90625      0.23158484   
    591000   473.45075      1355.7124      1829.1632      286.07983      303.41122      0.22809703   
    592000   508.07314      1305.8152      1813.8884      263.28585      292.24413      0.22445277   
    593000   506.6781       1273.7639      1780.442       262.09189      285.07098      0.2238469    
    594000   489.82008      1315.1813      1805.0013      160.90682      294.34026      0.22648485   
    595000   487.88537      1331.8893      1819.7747      46.383669      298.07956      0.23279197   
    596000   516.01377      1292.4993      1808.5131     -17.743195      289.26399      0.23802192   
    597000   481.69769      1304.8034      1786.5011     -26.651941      292.01769      0.23781043   
    598000   504.29302      1297.4037      1801.6967      27.250065      290.36162      0.23547483   
    599000   508.8029       1306.1325      1814.9354      138.45378      292.31514      0.22948326   
    600000   495.67441      1312.3013      1807.9757      223.11622      293.69572      0.22271208   
    601000   492.43542      1308.7985      1801.2339      259.60026      292.91179      0.21865126   
    602000   499.66338      1339.25        1838.9134      299.77853      299.7269       0.22210594   
    603000   484.83179      1337.1487      1821.9805      224.62085      299.25662      0.23027793   
    604000   502.86858      1329.4092      1832.2778      185.06205      297.5245       0.23974681   
    605000   476.73156      1329.6657      1806.3972      127.97601      297.58191      0.23706681   
    606000   515.14965      1260.6077      1775.7574      46.823705      282.12659      0.23070899   
    607000   521.24028      1342.7043      1863.9446      52.466627      300.49999      0.22850989   
    608000   516.22956      1348.695       1864.9245      132.87817      301.8407       0.22721549   
    609000   526.76857      1346.9968      1873.7654      124.58764      301.46066      0.22375518   
    610000   526.15051      1327.4933      1853.6438      126.72228      297.09573      0.22057063   
    611000   530.66111      1306.0371      1836.6982      156.09466      292.29378      0.21705757   
    612000   498.22801      1290.0482      1788.2762      219.1176       288.71543      0.21648258   
    613000   481.81064      1336.2508      1818.0614      297.45575      299.05567      0.22133057   
    614000   524.70709      1327.266       1851.9731      259.00156      297.04486      0.22598182   
    615000   532.13173      1318.5204      1850.6521      190.61152      295.08756      0.22293538   
    616000   518.64016      1328.185       1846.8252      206.33735      297.25053      0.22075643   
    617000   538.92422      1330.6601      1869.5843      191.16886      297.80446      0.22101877   
    618000   491.32584      1380.1873      1871.5132      178.8793       308.88876      0.22244584   
    619000   493.20732      1346.1543      1839.3616      230.18027      301.27209      0.22770545   
    620000   514.28773      1316.2536      1830.5413      180.97409      294.58026      0.22873794   
    621000   494.92383      1350.3976      1845.3214      242.27358      302.22175      0.23305918   
    622000   483.36483      1357.2707      1840.6356      340.56506      303.75998      0.23789648   
    623000   489.30308      1349.3311      1838.6342      278.70101      301.98308      0.23986296   
    624000   518.09754      1337.0121      1855.1097      335.13814      299.22606      0.24087886   
    625000   498.66998      1324.9979      1823.6678      278.61448      296.53724      0.23534784   
    626000   513.08168      1326.1015      1839.1831      167.64795      296.78423      0.22523212   
    627000   489.17607      1345.2126      1834.3887      66.034862      301.06134      0.21860143   
    628000   506.67355      1337.5352      1844.2088      49.444747      299.34313      0.21978231   
    629000   509.91753      1325.1565      1835.074       109.66661      296.57274      0.22597314   
    630000   507.27627      1300.7748      1808.051       264.00382      291.11606      0.23404732   
    631000   490.14332      1314.0241      1804.1674      316.17528      294.08129      0.23729197   
    632000   509.93356      1344.6964      1854.63        418.68341      300.94582      0.23667166   
    633000   532.04924      1356.3539      1888.4031      291.97224      303.55479      0.22621315   
    634000   510.98128      1372.7419      1883.7232      211.11941      307.22245      0.21965572   
    635000   506.91289      1368.2566      1875.1695      181.67082      306.21864      0.21866126   
    636000   517.83628      1308.9686      1826.8049      114.99295      292.94986      0.21916196   
    637000   510.27912      1329.3521      1839.6312      146.0571       297.51173      0.22031971   
    638000   529.60718      1313.3055      1842.9127      77.051047      293.92047      0.22073209   
    639000   508.08826      1334.4364      1842.5247      119.7875       298.64961      0.22465557   
    640000   470.37538      1332.5608      1802.9362      150.23825      298.22984      0.2281737    
    641000   484.25832      1310.0966      1794.3549      68.725636      293.2023       0.2291076    
    642000   488.83659      1340.343       1829.1795      147.23313      299.97151      0.2294517    
    643000   518.19933      1302.4636      1820.663       240.56308      291.49404      0.22887309   
    644000   494.53469      1321.4851      1816.0198      268.49421      295.75107      0.22756052   
    645000   490.98809      1330.348       1821.3361      268.06303      297.73462      0.22845293   
    646000   510.72698      1381.9483      1892.6753      253.4016       309.28286      0.22969252   
    647000   507.52796      1362.6819      1870.2098      156.99359      304.971        0.22892909   
    648000   524.64899      1346.5092      1871.1582      58.254613      301.35153      0.22924649   
    649000   481.9843       1385.6143      1867.5986      35.808212      310.10333      0.23258934   
    650000   529.87088      1363.9452      1893.816       101.81388      305.25373      0.2371562    
    651000   502.50302      1352.2778      1854.7808      242.82041      302.64255      0.23975658   
    652000   493.40825      1337.2894      1830.6977      378.00418      299.28812      0.23759939   
    653000   519.07051      1319.0471      1838.1176      344.60054      295.20545      0.228421     
    654000   478.47204      1297.7981      1776.2702      263.29879      290.44989      0.21996971   
    655000   480.86222      1310.7573      1791.6195      174.24985      293.35017      0.21855415   
    656000   496.19362      1311.2107      1807.4043      118.59092      293.45165      0.22291784   
    657000   515.78278      1322.9639      1838.7467      76.36719       296.08205      0.23031448   
    658000   498.14124      1357.1134      1855.2546      106.87612      303.72476      0.23679084   
    659000   517.01601      1304.7222      1821.7382      110.63904      291.9995       0.23621822   
    660000   488.44375      1311.888       1800.3318      112.11701      293.60323      0.23102331   
    661000   481.85576      1276.9886      1758.8444      157.49565      285.79268      0.2280957    
    662000   499.30378      1320.0878      1819.3916      187.53446      295.43837      0.23029862   
    663000   494.2401       1320.029       1814.2691      268.32901      295.42519      0.23266309   
    664000   512.21266      1311.9749      1824.1876      238.35473      293.62268      0.23016903   
    665000   538.41956      1338.864       1877.2836      178.35889      299.64051      0.22274452   
    666000   524.85274      1372.0164      1896.8691      137.50341      307.06008      0.21731344   
    667000   518.2958       1408.0433      1926.3391      177.86257      315.12298      0.21776961   
    668000   502.92189      1353.5497      1856.4716      241.31253      302.92719      0.2215427    
    669000   530.39114      1340.1466      1870.5377      202.63134      299.92755      0.22813337   
    670000   481.22342      1296.2108      1777.4342      233.51942      290.09464      0.23619632   
    671000   487.45916      1301.035       1788.4942      128.79833      291.1743       0.24084269   
    672000   513.09898      1319.5889      1832.6879      61.18592       295.32671      0.24209694   
    673000   492.4272       1320.7408      1813.168       81.457599      295.58449      0.24264353   
    674000   493.93957      1322.5377      1816.4772      93.113795      295.98664      0.23895842   
    675000   466.55115      1362.1321      1828.6832      134.09791      304.84796      0.23444576   
    676000   480.54745      1368.7043      1849.2517      204.58568      306.31883      0.23224985   
    677000   493.03066      1361.4633      1854.4939      310.76186      304.69827      0.23187399   
    678000   497.33652      1345           1842.3365      326.3188       301.01376      0.23263545   
    679000   483.68649      1340.2717      1823.9582      337.13666      299.95555      0.23334686   
    680000   495.94209      1388.7567      1884.6987      276.08149      310.80659      0.23542116   
    681000   501.19372      1344.1521      1845.3458      200.00053      300.82399      0.23565644   
    682000   531.98354      1375.462       1907.4455      118.78742      307.83121      0.22881393   
    683000   542.86363      1332.5449      1875.4085      48.719472      298.22629      0.21882594   
    684000   533.19265      1337.452       1870.6447      163.74382      299.32451      0.21792891   
    685000   525.9309       1339.4091      1865.34        188.70529      299.7625       0.21935854   
    686000   508.57897      1321.8468      1830.4258      256.24435      295.83203      0.22344493   
    687000   511.48032      1328.7808      1840.2611      248.50057      297.38386      0.2298       
    688000   498.17993      1300.9949      1799.1748      231.96777      291.16532      0.23784971   
    689000   492.39991      1339.4233      1831.8233      166.20395      299.76569      0.23793096   
    690000   483.36262      1352.5275      1835.8901      160.81907      302.69843      0.23455189   
    691000   491.49065      1307.475       1798.9656      100.89272      292.61559      0.23031522   
    692000   494.93133      1334.1337      1829.065       163.43673      298.58186      0.22846065   
    693000   502.25496      1334.475       1836.73        208.7179       298.65825      0.22736366   
    694000   506.58158      1343.6309      1850.2125      250.71447      300.70736      0.22803866   
    695000   498.64917      1341.4878      1840.137       237.23724      300.22772      0.22675898   
    696000   510.86106      1315.3255      1826.1866      204.20428      294.37255      0.22364319   
    697000   499.491        1356.0496      1855.5406      215.16212      303.48669      0.22227886   
    698000   523.56621      1324.3036      1847.8698      269.15628      296.38187      0.22127654   
    699000   494.57881      1343.6879      1838.2667      256.44637      300.72011      0.22466076   
    700000   490.73247      1292.1685      1782.9009      219.72142      289.18996      0.23082253   
    701000   501.08788      1304.7406      1805.8285      248.95055      292.00363      0.23901241   
    702000   499.86349      1302.6756      1802.5391      227.86571      291.54148      0.24005634   
    703000   499.7523       1310.5056      1810.2579      183.00403      293.29383      0.23222481   
    704000   516.26631      1324.3531      1840.6194      97.038783      296.39294      0.2261744    
    705000   513.68046      1285.7371      1799.4176      156.47596      287.75061      0.22302895   
    706000   501.75066      1320.0182      1821.7688      193.10896      295.42278      0.22354445   
    707000   496.15003      1331.7325      1827.8825      270.21553      298.04446      0.23050317   
    708000   509.15798      1312.7769      1821.9349      299.9433       293.80217      0.23274685   
    709000   549.19921      1310.7076      1859.9068      249.85774      293.33906      0.22967945   
    710000   510.7685       1296.0548      1806.8233      264.00037      290.05973      0.22876282   
    711000   499.86032      1331.3035      1831.1638      224.07993      297.94845      0.2275524    
    712000   493.63743      1349.9627      1843.6001      207.96156      302.12442      0.22562698   
    713000   528.20301      1282.8324      1811.0354      123.49526      287.10052      0.22177444   
    714000   492.07302      1337.0183      1829.0913      116.57592      299.22744      0.22289368   
    715000   516.10595      1318.6122      1834.7181      87.285692      295.10811      0.22699875   
    716000   503.14059      1304.829       1807.9696      177.06175      292.0234       0.23519464   
    717000   498.83695      1323.99        1822.8269      247.09391      296.31167      0.23697483   
    718000   490.24246      1327.769       1818.0115      299.27696      297.15743      0.23371843   
    719000   464.77624      1313.8858      1778.662       220.44418      294.05033      0.22953838   
    720000   501.80809      1333.658       1835.4661      231.54603      298.47541      0.23048494   
    721000   512.8176       1340.8537      1853.6713      157.8544       300.0858       0.23244436   
    722000   485.17013      1345.2822      1830.4523      216.10846      301.07691      0.23276108   
    723000   525.14431      1240.0598      1765.2041      79.205074      277.52793      0.22831783   
    724000   503.48847      1314.1564      1817.6449      55.756836      294.11091      0.22607987   
    725000   509.3367       1307.9972      1817.3339      17.340256      292.73247      0.22413495   
    726000   440.07775      1319.2344      1759.3122      148.18362      295.24737      0.22805877   
    727000   489.04612      1321.463       1810.5091      223.39678      295.74613      0.23700942   
    728000   505.34461      1324.2949      1829.6395      292.24446      296.37992      0.24076965   
    729000   528.31435      1305.8543      1834.1686      237.50108      292.25287      0.23568148   
    730000   514.29219      1334.5895      1848.8817      231.69396      298.68388      0.22769291   
    731000   527.79966      1303.4491      1831.2487      118.22391      291.71458      0.22265054   
    732000   534.47294      1297.784       1832.2569      101.59609      290.44672      0.22408081   
    733000   523.86699      1323.7912      1847.6581      81.502847      296.26718      0.22584983   
    734000   500.33761      1292.3086      1792.6462      128.23482      289.22131      0.22706193   
    735000   506.19208      1316.0661      1822.2582      218.4896       294.53829      0.22712416   
    736000   508.03677      1329.6517      1837.6885      195.38012      297.57879      0.22435612   
    737000   523.33441      1304.8827      1828.2171      233.17188      292.03543      0.22129699   
    738000   498.53707      1300.1368      1798.6739      169.92932      290.97329      0.21604575   
    739000   510.58332      1290.6705      1801.2538      80.639326      288.85471      0.22042564   
    740000   504.1683       1325.1342      1829.3025      62.509357      296.56776      0.23052649   
    741000   488.3833       1316.6084      1804.9917      104.15193      294.65966      0.23543018   
    742000   488.47613      1301.4817      1789.9579      131.88462      291.27428      0.23239253   
    743000   496.98669      1267.2829      1764.2696      206.76367      283.62051      0.22823878   
    744000   503.31402      1314.7307      1818.0448      244.3549       294.23944      0.22711921   
    745000   499.6389       1295.1455      1794.7844      250.02451      289.85621      0.22814728   
    746000   498.71721      1269.6974      1768.4146      237.6665       284.16089      0.22867959   
    747000   502.16138      1331.9818      1834.1432      200.81191      298.10027      0.23452599   
    748000   509.72659      1331.4278      1841.1544      144.55339      297.97627      0.2391982    
    749000   482.50223      1317.0905      1799.5927      166.83907      294.76756      0.23773527   
    750000   498.49349      1317.6906      1816.1841      181.96927      294.90186      0.23265746   
    751000   519.30455      1302.9691      1822.2736      137.51705      291.60715      0.22252256   
    752000   531.08078      1311.2922      1842.373       124.99507      293.46989      0.21773973   
    753000   526.11908      1321.4161      1847.5351      137.87657      295.73562      0.21997889   
    754000   530.68086      1336.5006      1867.1815      91.313843      299.11158      0.22429521   
    755000   524.3473       1390.5463      1914.8936      155.8282       311.20712      0.22846106   
    756000   504.53095      1365.2887      1869.8197      221.79597      305.55442      0.23100819   
    757000   508.02978      1364.8143      1872.8441      304.59077      305.44825      0.23269489   
    758000   501.37835      1413.821       1915.1994      317.31681      316.41605      0.22917296   
    759000   522.97102      1365.52        1888.491       185.93668      305.60617      0.21657562   
    760000   517.97203      1359.6821      1877.6541      135.95631      304.29964      0.21328457   
    761000   543.33714      1370.4845      1913.8216      130.00071      306.71724      0.21679246   
    762000   513.9074       1430.9104      1944.8178      160.55496      320.24069      0.2215779    
    763000   499.57231      1374.227       1873.7993      159.86962      307.55481      0.22333361   
    764000   515.96802      1342.1828      1858.1508      234.88864      300.38326      0.22479897   
    765000   534.76875      1328.2179      1862.9866      228.0193       297.25789      0.22416704   
    766000   523.69396      1306.6032      1830.2972      237.74056      292.42048      0.22009002   
    767000   510.54529      1340.7946      1851.3399      233.3543       300.07259      0.21200054   
    768000   511.29009      1339.1463      1850.4364      163.85349      299.7037       0.20472      
    769000   528.03877      1326.444       1854.4828      157.28871      296.8609       0.2057014    
    770000   508.46129      1356.7028      1865.1641      135.80007      303.63288      0.21812449   
    771000   510.05922      1352.8433      1862.9026      146.82137      302.76912      0.22691145   
    772000   539.75755      1333.2918      1873.0494      204.24463      298.39345      0.22824902   
    773000   503.42604      1395.3622      1898.7882      201.54621      312.28492      0.22287294   
    774000   507.57504      1367.1674      1874.7424      316.05274      305.97486      0.2187932    
    775000   529.18615      1344.1443      1873.3305      277.85218      300.82226      0.21707811   
    776000   528.7753       1338.8595      1867.6348      318.40045      299.6395       0.21995361   
    777000   515.91949      1384.5499      1900.4694      254.89359      309.86512      0.22615799   
    778000   498.2702       1338.4161      1836.6863      151.04279      299.54026      0.23482078   
    779000   500.95083      1327.5904      1828.5413      127.90556      297.11746      0.24334887   
    780000   487.69315      1325.7951      1813.4883      136.93517      296.71567      0.24358429   
    781000   487.77936      1333.9459      1821.7252      177.01183      298.53982      0.23939428   
    782000   485.83969      1316.4259      1802.2656      276.29536      294.61881      0.23494171   
    783000   497.14788      1320.7155      1817.8634      377.06903      295.57884      0.23262414   
    784000   477.97946      1345.8543      1823.8337      404.43756      301.20495      0.23001469   
    785000   516.68956      1303.9921      1820.6816      272.25643      291.8361       0.22508348   
    786000   519.23107      1253.5437      1772.7748      147.23097      280.54566      0.21941667   
    787000   495.71761      1318.0874      1813.805       141.26728      294.99066      0.22146507   
    788000   500.874        1343.8213      1844.6953      111.3834       300.74998      0.23607223   
    789000   503.60232      1341.5488      1845.1512      19.402375      300.24138      0.24369071   
    790000   495.27675      1348.6454      1843.9221      165.75324      301.82961      0.24526217   
    791000   493.64222      1350.1796      1843.8219      211.80703      302.17298      0.23834244   
    792000   510.50124      1363.3371      1873.8383      241.11507      305.11764      0.23343085   
    793000   528.81872      1375.4778      1904.2965      217.91324      307.83475      0.22886843   
    794000   527.02376      1380.9958      1908.0195      179.35319      309.06969      0.22633541   
    795000   509.97521      1337.0162      1846.9914      134.93072      299.22697      0.22661061   
    796000   506.84165      1326.1982      1833.0398      119.43704      296.80587      0.22866581   
    797000   496.34456      1308.8363      1805.1808      128.08564      292.92024      0.23421456   
    798000   508.11997      1312.0479      1820.1678      240.28734      293.639        0.24461163   
    799000   479.66055      1326.5885      1806.249       276.48261      296.89323      0.24552981   
    800000   494.79947      1285.0647      1779.8642      176.82426      287.60011      0.23574046   
    801000   500.51425      1307.2461      1807.7604      160.21099      292.56436      0.22718943   
    802000   515.29691      1326.3527      1841.6496      160.1663       296.84046      0.22263462   
    803000   514.25894      1351.368       1865.627       130.83926      302.43894      0.22163702   
    804000   521.38879      1358.7179      1880.1067      118.2744       304.08386      0.22424235   
    805000   501.74772      1316.6938      1818.4416      188.67919      294.67878      0.22609864   
    806000   500.37129      1335.7558      1836.1271      151.66619      298.94488      0.22510536   
    807000   500.60749      1311.2366      1811.8441      165.67396      293.45745      0.2231168    
    808000   490.2376       1304.7176      1794.9552      173.39527      291.99847      0.22036975   
    809000   544.43297      1328.2073      1872.6403      149.30273      297.25552      0.21723076   
    810000   528.57165      1351.2106      1879.7823      150.84005      302.40372      0.21462222   
    811000   538.49265      1351.5378      1890.0305      181.20065      302.47694      0.21680985   
    812000   498.45429      1386.607       1885.0613      227.73752      310.3255       0.22429796   
    813000   526.43987      1359.7003      1886.1402      292.25288      304.30372      0.23193914   
    814000   512.28528      1387.1557      1899.441       318.87229      310.4483       0.23347631   
    815000   520.51089      1356.4168      1876.9277      230.98304      303.56886      0.23050008   
    816000   519.20463      1355.204       1874.4086      129.34299      303.29744      0.22826629   
    817000   511.07142      1337.0244      1848.0958      88.469051      299.2288       0.22602075   
    818000   503.08825      1309.8753      1812.9635      115.64675      293.15278      0.22230528   
    819000   523.6987       1351.7178      1875.4165      222.61339      302.51722      0.22029553   
    820000   519.95061      1350.8302      1870.7808      264.29407      302.31858      0.21974734   
    821000   494.33282      1353.1652      1847.498       303.96293      302.84114      0.21950649   
    822000   500.51809      1341.7449      1842.263       311.97682      300.28526      0.22185858   
    823000   494.00402      1340.6773      1834.6813      294.27411      300.04633      0.2286207    
    824000   502.93566      1339.6882      1842.6239      210.80921      299.82497      0.23663611   
    825000   560.20207      1323.7143      1883.9163      105.5839       296.24997      0.2361657    
    826000   528.10806      1342.2603      1870.3684      117.11634      300.40062      0.22768668   
    827000   518.34126      1330.4647      1848.806       141.81071      297.76073      0.22210032   
    828000   506.16468      1351.8719      1858.0365      241.44119      302.5517       0.22115982   
    829000   514.08135      1356.7292      1870.8106      322.61394      303.63878      0.22293655   
    830000   539.39248      1326.2125      1865.605       327.04967      296.80908      0.22178118   
    831000   501.60713      1294.6116      1796.2187      270.35292      289.73673      0.21730166   
    832000   512.05839      1327.3801      1839.4385      225.67447      297.0704       0.21471944   
    833000   497.05661      1356.4859      1853.5425      107.83559      303.58434      0.21562486   
    834000   532.46109      1370.9095      1903.3705      63.18307       306.81235      0.22737708   
    835000   488.87942      1339.4394      1828.3188      98.293054      299.76928      0.23883123   
    836000   493.15346      1348.4017      1841.5552      117.23965      301.77508      0.23815117   
    837000   498.26194      1315.1906      1813.4526      272.79065      294.34236      0.23264464   
    838000   491.49547      1328.5805      1820.076       246.93059      297.33904      0.2246494    
    839000   511.26371      1299.9169      1811.1806      245.95055      290.92407      0.22207156   
    840000   499.5949       1330.6242      1830.2191      219.6606       297.79644      0.22096099   
    841000   490.00075      1363.5386      1853.5394      166.2483       305.16275      0.2251253    
    842000   498.87983      1360.9856      1859.8654      261.62764      304.59138      0.23056099   
    843000   518.59483      1327.1225      1845.7173      181.52892      297.01273      0.23570847   
    844000   503.40412      1341.7602      1845.1643      206.1272       300.28869      0.23941582   
    845000   486.4914       1365.706       1852.1974      229.19773      305.64781      0.23904739   
    846000   487.76442      1354.1714      1841.9358      223.81771      303.06633      0.23140931   
    847000   526.64481      1292.3822      1819.027       179.05432      289.23778      0.22357832   
    848000   556.23912      1307.9834      1864.2226      134.37647      292.72938      0.21783878   
    849000   510.68237      1324.2964      1834.9788      138.86254      296.38026      0.21709411   
    850000   542.91796      1307.6836      1850.6015      30.055391      292.66226      0.22417757   
    851000   497.04636      1319.0435      1816.0899      79.499892      295.20465      0.23411319   
    852000   484.20886      1313.2792      1797.4881      147.19281      293.91458      0.23543371   
    853000   478.87906      1362.4398      1841.3188      193.45989      304.91682      0.23275478   
    854000   511.18681      1354.9775      1866.1643      210.02686      303.24674      0.22828466   
    855000   512.41403      1355.178       1867.5921      268.22825      303.29163      0.22517994   
    856000   504.58097      1351.5969      1856.1778      213.71885      302.49016      0.22372464   
    857000   506.20903      1417.1152      1923.3242      275.99931      317.15329      0.22613198   
    858000   524.98967      1343.056       1868.0457      213.13734      300.57869      0.22437903   
    859000   532.81208      1342.5791      1875.3912      182.57024      300.47196      0.21570152   
    860000   509.42895      1352.8537      1862.2827      194.52252      302.77144      0.21210294   
    861000   555.63695      1342.4111      1898.048       153.34423      300.43435      0.22194434   
    862000   508.20917      1352.9154      1861.1245      255.84417      302.78523      0.2301706    
    863000   508.81513      1354.8015      1863.6166      274.69349      303.20736      0.23199825   
    864000   516.18356      1356.938       1873.1216      343.66928      303.68552      0.23477939   
    865000   515.17983      1330.8071      1845.9869      240.61343      297.83736      0.23521774   
    866000   515.30012      1319.1527      1834.4528      123.70716      295.22908      0.23194795   
    867000   524.68176      1371.7468      1896.4286      90.879264      306.99975      0.22253575   
    868000   545.0848       1362.7951      1907.8799      113.51603      304.99633      0.21641786   
    869000   535.25825      1330.8005      1866.0588      157.06194      297.83589      0.21623058   
    870000   521.16003      1349.1757      1870.3357      260.70847      301.94828      0.22186568   
    871000   533.5436       1324.7148      1858.2584      278.14781      296.47389      0.22719961   
    872000   501.29717      1377.4437      1878.7409      338.99985      308.27474      0.23174427   
    873000   504.88307      1393.7433      1898.6264      291.22684      311.92261      0.23496228   
    874000   487.15648      1330.9673      1818.1238      225.6492       297.87321      0.23392345   
    875000   513.67772      1313.9861      1827.6638      162.79424      294.07278      0.22724413   
    876000   515.82555      1298.1836      1814.0091      105.46515      290.53615      0.22212018   
    877000   498.71656      1302.3248      1801.0413      115.26063      291.46296      0.22455146   
    878000   479.43419      1338.5073      1817.9415      218.60443      299.56069      0.2306103    
    879000   495.72723      1316.0234      1811.7506      242.67233      294.52873      0.23381756   
    880000   498.75028      1318.5479      1817.2982      237.02938      295.09372      0.23352332   
    881000   498.77178      1292.0861      1790.8579      174.7307       289.17152      0.23298649   
    882000   497.88206      1325.4968      1823.3789      208.24442      296.6489       0.23070648   
    883000   495.70565      1344.8757      1840.5814      180.10766      300.98595      0.22773876   
    884000   510.33377      1332.0837      1842.4174      180.63781      298.12306      0.22652657   
    885000   512.77929      1334.4686      1847.2479      105.87225      298.65682      0.22622043   
    886000   497.838        1401.9812      1899.8192      97.131712      313.76626      0.23315568   
    887000   529.34535      1374.0622      1903.4076      92.393282      307.51794      0.24021215   
    888000   539.11766      1354.2623      1893.38        26.919745      303.08668      0.23820563   
    889000   532.87638      1346.4325      1879.3088      62.499085      301.33435      0.23038618   
    890000   527.73314      1359.7689      1887.5021      139.31514      304.31907      0.22455411   
    891000   523.8494       1373.7579      1897.6073      213.90176      307.44983      0.22581288   
    892000   530.42584      1323.0894      1853.5152      267.97979      296.11012      0.23037932   
    893000   504.36138      1338.5648      1842.9262      303.77583      299.57355      0.23581041   
    894000   495.45684      1301.6805      1797.1373      275.40622      291.31876      0.23646976   
    895000   508.47043      1319.3913      1827.8617      160.19794      295.28247      0.23401795   
    896000   491.00197      1310.5742      1801.5762      179.19499      293.3092       0.23271786   
    897000   491.53578      1333.7223      1825.2581      235.6186       298.48979      0.23174072   
    898000   496.84471      1331.8676      1828.7123      208.9547       298.0747       0.22943558   
    899000   493.2063       1325.7878      1818.9941      192.75274      296.71402      0.22677324   
    900000   496.45609      1290.6398      1787.0959      133.61601      288.84783      0.22256836   
    901000   507.89552      1296.7152      1804.6107      80.142772      290.20752      0.22212605   
    902000   517.48267      1322.3394      1839.8221      95.582333      295.94228      0.23029696   
    903000   497.83425      1328.2805      1826.1148      186.2721       297.27191      0.23575494   
    904000   510.66089      1301.3132      1811.9741      222.79023      291.23656      0.23416186   
    905000   499.52289      1337.9345      1837.4574      247.8508       299.43248      0.22842012   
    906000   501.25818      1321.5824      1822.8406      253.97354      295.77285      0.21996355   
    907000   505.53555      1302.8412      1808.3767      237.36439      291.57852      0.2166194    
    908000   538.26686      1355.3432      1893.61        231.11838      303.32858      0.21594177   
    909000   534.83306      1347.6099      1882.443       145.25095      301.59787      0.2169729    
    910000   526.59194      1362.3949      1888.9869      97.427949      304.90678      0.22312172   
    911000   522.15932      1317.014       1839.1733      135.04596      294.75044      0.23062183   
    912000   512.23776      1327.2153      1839.453       154.8135       297.0335       0.23414708   
    913000   516.25563      1329.0391      1845.2947      305.42309      297.44167      0.23795879   
    914000   546.20232      1315.2493      1861.4516      277.8264       294.35549      0.23651701   
    915000   480.6766       1377.6775      1858.3541      322.0503       308.32706      0.23475787   
    916000   511.74078      1328.0733      1839.8141      289.27226      297.22554      0.2318174    
    917000   541.49546      1357.6791      1899.1745      191.20727      303.85136      0.22798986   
    918000   560.19889      1338.9027      1899.1016      78.882425      299.64917      0.22095842   
    919000   505.00539      1391.2308      1896.2362      122.40932      311.36032      0.21784076   
    920000   528.53365      1367.9088      1896.4425      174.18315      306.1408       0.2221079    
    921000   536.64902      1382.8087      1919.4578      137.31979      309.47544      0.22881014   
    922000   506.38998      1335.6638      1842.0538      185.77296      298.9243       0.23176908   
    923000   500.99155      1343.633       1844.6245      213.6725       300.70782      0.23131007   
    924000   512.00544      1364.5003      1876.5057      243.93962      305.37796      0.23108035   
    925000   526.94148      1358.6199      1885.5614      329.24261      304.06193      0.23325451   
    926000   539.00153      1360.2283      1899.2298      287.49774      304.42188      0.23428564   
    927000   531.65277      1381.4349      1913.0876      177.92363      309.16796      0.2262567    
    928000   540.99509      1353.3834      1894.3785      109.608        302.88999      0.21884542   
    929000   559.48094      1339.1839      1898.6648      38.853931      299.71211      0.22122227   
    930000   520.04862      1355.1774      1875.2261      86.655794      303.29149      0.22808462   
    931000   510.24962      1386.4675      1896.7171      169.68129      310.29427      0.23333811   
    932000   527.93192      1290.7049      1818.6368      153.94314      288.86241      0.23238241   
    933000   512.54288      1311.1953      1823.7381      148.01214      293.44819      0.22880279   
    934000   514.12181      1308.801       1822.9228      170.49801      292.91236      0.22483247   
    935000   503.1842       1344.155       1847.3392      183.48029      300.82464      0.22174639   
    936000   528.90405      1310.0021      1838.9062      226.42593      293.18117      0.22250509   
    937000   512.36438      1316.9175      1829.2819      237.73742      294.72885      0.22172499   
    938000   501.0334       1338.8132      1839.8466      245.2642       299.62913      0.22198599   
    939000   512.42746      1364.0429      1876.4704      205.76029      305.2756       0.22346696   
    940000   505.68602      1342.4249      1848.1109      108.27227      300.43745      0.2252226    
    941000   499.07107      1339.4201      1838.4912      49.09354       299.76497      0.22859833   
    942000   505.7353       1321.0723      1826.8076     -18.293792      295.65869      0.23311813   
    943000   501.48438      1322.6772      1824.1616     -14.062067      296.01788      0.23847771   
    944000   477.94515      1342.8781      1820.8232      87.199767      300.53887      0.24388524   
    945000   485.51488      1335.8205      1821.3354      280.98738      298.95938      0.24920818   
    946000   520.72607      1319.8787      1840.6048      287.33801      295.39157      0.24668806   
    947000   540.11464      1368.6605      1908.7751      264.47153      306.30902      0.23212575   
    948000   528.57016      1371.2892      1899.8593      221.12515      306.89733      0.22602153   
    949000   505.1067       1361.1246      1866.2313      235.57069      304.62247      0.22537688   
    950000   531.11486      1353.1366      1884.2515      134.63955      302.83475      0.22571949   
    951000   483.0821       1342.8557      1825.9378      182.01768      300.53387      0.22707596   
    952000   530.75365      1360.3924      1891.1461      235.12208      304.45861      0.22662994   
    953000   525.13815      1374.0488      1899.187       263.05187      307.51495      0.22155934   
    954000   528.67254      1363.0421      1891.7147      278.06199      305.05163      0.21637982   
    955000   510.65286      1364.7447      1875.3975      249.35156      305.43266      0.21670016   
    956000   544.98343      1317.4945      1862.478       197.84209      294.85798      0.22253413   
    957000   510.3722       1294.1001      1804.4723      157.47567      289.62226      0.23244199   
    958000   503.13824      1337.8067      1840.945       129.75431      299.40389      0.23836885   
    959000   523.09823      1351.386       1874.4842      17.689292      302.44295      0.23785499   
    960000   498.4097       1384.5614      1882.9711      20.192037      309.86767      0.23627812   
    961000   518.91504      1387.8963      1906.8114      50.161165      310.61405      0.2316124    
    962000   495.13308      1369.3923      1864.5254      134.33477      306.47281      0.22734498   
    963000   526.08021      1342.3698      1868.45        130.11746      300.42512      0.22372556   
    964000   529.63955      1337.0909      1866.7304      207.51842      299.24368      0.22393133   
    965000   497.20967      1357.949       1855.1586      301.31797      303.91177      0.23087625   
    966000   474.70945      1322.214       1796.9234      302.59251      295.91421      0.23910929   
    967000   510.50658      1314.9369      1825.4435      267.48684      294.28557      0.24861915   
    968000   459.3401       1326.9134      1786.2535      189.57287      296.96594      0.25434918   
    969000   485.06274      1332.9505      1818.0132      177.08796      298.31705      0.24873851   
    970000   498.20012      1337.0839      1835.2841      92.173791      299.24213      0.24351384   
    971000   512.82613      1329.4667      1842.2929      201.24573      297.53739      0.24451363   
    972000   490.21742      1320.7121      1810.9295      170.03572      295.57808      0.23797983   
    973000   494.84295      1343.2096      1838.0525      246            300.61305      0.23280777   
    974000   511.47765      1367.5589      1879.0365      212.59435      306.06248      0.22894073   
    975000   522.02794      1352.0701      1874.0981      183.25486      302.59607      0.22596003   
    976000   481.09824      1360.4706      1841.5688      130.94561      304.47611      0.22189185   
    977000   509.73196      1308.7898      1818.5217      161.91255      292.90984      0.22415719   
    978000   527.54562      1313.0343      1840.58        186.00288      293.85978      0.23372221   
    979000   493.71012      1343.3483      1837.0584      209.53167      300.6441       0.23755823   
    980000   477.17551      1366.186       1843.3615      236.12512      305.75523      0.23454767   
    981000   498.89853      1338.8223      1837.7209      140.9394       299.63119      0.23097655   
    982000   513.35311      1329.7028      1843.0559      170.15695      297.59021      0.22969637   
    983000   539.67012      1321.3517      1861.0218      132.97347      295.72122      0.22552148   
    984000   501.3617       1337.7241      1839.0858      106.89489      299.38541      0.22222568   
    985000   526.84451      1288.9394      1815.7839      162.81463      288.46728      0.22438744   
    986000   533.62366      1313.4426      1847.0663      112.05778      293.95116      0.22537479   
    987000   503.71149      1335.8192      1839.5307      223.61194      298.95908      0.22832769   
    988000   485.73914      1315.233       1800.9722      222.24037      294.35185      0.2312583    
    989000   511.35681      1316.4404      1827.7972      184.93892      294.62207      0.23355556   
    990000   494.28627      1324.3078      1818.5941      231.97419      296.38281      0.23431226   
    991000   473.57745      1325.643       1799.2205      220.49826      296.68162      0.23128651   
    992000   514.48161      1328.9104      1843.392       177.9581       297.41287      0.22265745   
    993000   539.09687      1283.771       1822.8678      160.06213      287.31058      0.21611332   
    994000   535.5149       1330.3127      1865.8277      198.19425      297.72672      0.21572995   
    995000   503.68198      1334.1263      1837.8083      248.74815      298.5802       0.21732319   
    996000   515.11613      1288.6727      1803.7888      211.01674      288.40759      0.2207217    
    997000   512.417        1265.741       1778.158       123.98687      283.27542      0.22478292   
    998000   522.19483      1338.1344      1860.3292      96.007866      299.47723      0.23002141   
    999000   525.04454      1337.4868      1862.5313      139.43718      299.33229      0.2306001    
   1000000   524.57553      1330.0346      1854.6102      121.64447      297.66448      0.2274623    
   1001000   527.32344      1335.5382      1862.8616      148.8467       298.89618      0.22207189   
   1002000   546.65153      1347.6457      1894.2972      202.21148      301.60587      0.21436912   
   1003000   534.61288      1351.553       1886.1659      193.60692      302.48034      0.20504426   
   1004000   567.4373       1349.8692      1917.3065      198.37307      302.1035       0.20559958   
   1005000   530.94555      1338.4647      1869.4103      249.64027      299.55115      0.21599095   
   1006000   521.19764      1375.6812      1896.8789      224.52475      307.88029      0.22372555   
   1007000   513.67909      1361.1646      1874.8437      211.13053      304.63143      0.22787023   
   1008000   510.70895      1380.4765      1891.1855      213.5261       308.95349      0.23103908   
   1009000   501.19716      1409.4062      1910.6033      208.52631      315.42799      0.22922061   
   1010000   542.77602      1358.5012      1901.2772      261.35662      304.03535      0.2271506    
   1011000   510.97818      1373.5103      1884.4885      209.6095       307.39442      0.22569166   
   1012000   534.83764      1332.9001      1867.7377      288.83403      298.30577      0.2332333    
   1013000   503.43351      1348.7633      1852.1968      244.12683      301.85599      0.2437818    
   1014000   492.43128      1387.6001      1880.0314      293.8009       310.54775      0.24934657   
   1015000   499.22068      1341.8724      1841.0931      247.39039      300.3138       0.24419935   
   1016000   508.16179      1344.8109      1852.9727      170.47872      300.97143      0.23773092   
   1017000   519.83553      1403.3817      1923.2172      198.13197      314.0797       0.2328568    
   1018000   540.25979      1379.8695      1920.1293      150.19896      308.81764      0.22869353   
   1019000   524.10983      1366.7831      1890.8929      77.357648      305.88885      0.22376105   
   1020000   532.50068      1336.7208      1869.2215      67.202538      299.16086      0.22278893   
   1021000   504.76981      1321.3883      1826.1581      56.81042       295.72941      0.22222576   
   1022000   529.9022       1302.1855      1832.0877      118.15011      291.43178      0.22532553   
   1023000   532.38759      1309.4384      1841.826       151.26178      293.05501      0.23200384   
   1024000   508.70504      1329.7707      1838.4758      194.81098      297.60542      0.24071031   
   1025000   486.38263      1338.6334      1825.016       239.1561       299.58889      0.24649875   
   1026000   516.91999      1379.7189      1896.6389      327.60961      308.78392      0.24545802   
   1027000   517.54788      1333.5331      1851.081       299.24787      298.44745      0.23390716   
   1028000   523.87601      1374.1417      1898.0177      259.31056      307.53573      0.22841372   
   1029000   510.76568      1351.573       1862.3387      171.31476      302.48482      0.22641328   
   1030000   541.28315      1329.1417      1870.4249      61.213711      297.46465      0.2274237    
   1031000   506.90954      1325.9123      1832.8218      62.547502      296.74189      0.22625892   
   1032000   502.2585       1342.2262      1844.4847      91.594711      300.39297      0.22572009   
   1033000   506.91169      1290.4101      1797.3217      187.22136      288.79642      0.2247382    
   1034000   521.80668      1320.9992      1842.8059      210.88996      295.64234      0.22485835   
   1035000   495.8701       1334.5569      1830.427       287.71607      298.67658      0.23170688   
   1036000   500.63031      1321.2777      1821.908       323.92462      295.70465      0.23844624   
   1037000   489.04643      1323.1661      1812.2125      223.91753      296.12729      0.23996455   
   1038000   473.75593      1304.2796      1778.0355      201.06318      291.90044      0.24199409   
   1039000   486.75479      1313.7566      1800.5114      229.41201      294.02142      0.23956199   
   1040000   498.64353      1306.4877      1805.1312      182.53396      292.39462      0.2315587    
   1041000   560.33534      1295.7713      1856.1067      175.2126       289.99628      0.22195937   
   1042000   533.59334      1335.4799      1869.0732      150.76363      298.88314      0.21691822   
   1043000   515.69732      1333.4334      1849.1307      97.370129      298.42512      0.21836891   
   1044000   498.11692      1364.0987      1862.2156      40.740039      305.28809      0.22612676   
   1045000   491.04147      1286.9769      1778.0184      94.783441      288.02807      0.23175144   
   1046000   503.7362       1320.0683      1823.8045      138.20086      295.43399      0.23661905   
   1047000   481.59063      1346.5462      1828.1369      216.44909      301.35981      0.23725823   
   1048000   509.62503      1348.4218      1858.0468      220.71427      301.77956      0.23692682   
   1049000   536.07399      1371.5528      1907.6268      236.20897      306.95633      0.23222651   
   1050000   521.5735       1359.352       1880.9255      174.6627       304.22577      0.22044014   
   1051000   518.59747      1383.0242      1901.6216      112.58882      309.52365      0.21632441   
   1052000   526.3201       1311.5491      1837.8692      87.951724      293.52738      0.21844643   
   1053000   498.00652      1342.4219      1840.4284      186.05305      300.43677      0.22249938   
   1054000   545.26111      1337.9889      1883.25        255.92215      299.44466      0.22592916   
   1055000   523.17424      1333.9351      1857.1093      285.61163      298.53741      0.23028857   
   1056000   488.5944       1360.5084      1849.1028      351.79351      304.48458      0.23452663   
   1057000   472.00665      1319.2353      1791.242       368.51827      295.24758      0.23469901   
   1058000   515.48626      1318.1422      1833.6285      340.65138      295.00294      0.23034098   
   1059000   508.5444       1325.1691      1833.7135      293.47871      296.57556      0.2212147    
   1060000   511.5975       1321.474       1833.0715      298.48007      295.74859      0.2146346    
   1061000   535.5584       1312.656       1848.2144      203.57818      293.77511      0.21209057   
   1062000   523.70528      1310.1916      1833.8969      93.023977      293.22357      0.21748881   
   1063000   501.38557      1341.3878      1842.7734      69.373216      300.20535      0.23122918   
   1064000   461.41005      1336.016       1797.426       153.37222      299.00312      0.23681365   
   1065000   491.88884      1323.5232      1815.412       161.84037      296.20721      0.23376163   
   1066000   521.84924      1354.7746      1876.6239      218.55956      303.20135      0.22628396   
   1067000   504.6196       1356.7822      1861.4018      211.33016      303.65064      0.21996918   
   1068000   495.46221      1346.4851      1841.9473      287.07402      301.34614      0.22093312   
   1069000   529.83025      1323.1101      1852.9403      311.27604      296.11475      0.22231826   
   1070000   507.15357      1265.9371      1773.0907      234.42912      283.31933      0.22340804   
   1071000   502.36146      1325.3815      1827.743       277.63162      296.62311      0.22989469   
   1072000   498.96382      1369.2252      1868.189       198.83419      306.43541      0.233888     
   1073000   508.71426      1349.3039      1858.0182      142.06342      301.97699      0.2336821    
   1074000   520.06817      1381.3092      1901.3774      83.753265      309.13984      0.23282355   
   1075000   533.19641      1337.3534      1870.5498      122.06738      299.30244      0.23635963   
   1076000   519.66209      1340.9303      1860.5924      128.0876       300.10295      0.23746105   
   1077000   505.96626      1336.6326      1842.5988      165.51269      299.14111      0.2327219    
   1078000   502.21501      1347.1432      1849.3582      266.65461      301.49341      0.22593379   
   1079000   517.59897      1402.1819      1919.7809      283.78083      313.81119      0.21759182   
   1080000   537.76198      1396.2963      1934.0583      226.31908      312.49399      0.21339807   
   1081000   519.36562      1357.2454      1876.611       240.98793      303.75431      0.21726961   
   1082000   512.31253      1345.3614      1857.674       169.29675      301.09465      0.22296081   
   1083000   513.6524       1379.5398      1893.1922      188.51343      308.74383      0.22966506   
   1084000   514.47129      1344.9773      1859.4486      227.48974      301.00868      0.23255862   
   1085000   513.36324      1354.4072      1867.7705      267.20061      303.11912      0.2352429    
   1086000   478.58413      1396.2812      1874.8654      282.5977       312.49061      0.23788265   
   1087000   514.64874      1401.066       1915.7148      264.61116      313.56145      0.23971305   
   1088000   494.62717      1392.6967      1887.3239      223.14071      311.68838      0.23499086   
   1089000   506.99489      1363.3838      1870.3787      147.84244      305.12809      0.22880568   
   1090000   522.18237      1344.6532      1866.8356      139.13954      300.93614      0.22529809   
   1091000   520.57274      1367.88        1888.4527      172.39783      306.13435      0.22487227   
   1092000   512.9365       1392.3892      1905.3257      192.15603      311.61955      0.22663845   
   1093000   526.53528      1386.2269      1912.7622      264.39067      310.24043      0.23146431   
   1094000   477.58654      1373.4941      1851.0806      341.05287      307.39079      0.23909642   
   1095000   487.69466      1353.0994      1840.794       366.1112       302.82642      0.24167138   
   1096000   472.98795      1363.6082      1836.5962      331.50564      305.17833      0.23768265   
   1097000   505.77028      1333.1384      1838.9087      242.78473      298.35911      0.23342154   
   1098000   508.83623      1305.4082      1814.2444      130.18802      292.15303      0.2323774    
   1099000   462.36609      1311.714       1774.0801      84.494604      293.56428      0.23299089   
   1100000   459.44872      1292.4081      1751.8568      39.793034      289.24358      0.23933666   
   1101000   473.54649      1295.1785      1768.725       59.887         289.86361      0.24722559   
   1102000   504.27009      1292.6144      1796.8845      171.99739      289.28975      0.24736479   
   1103000   498.14039      1324.7231      1822.8635      207.33161      296.47575      0.23686439   
   1104000   497.88112      1341.7131      1839.5943      329.86013      300.27815      0.22856042   
   1105000   494.56273      1337.9245      1832.4872      298.88659      299.43024      0.22311761   
   1106000   507.18117      1316.711       1823.8922      279.23979      294.68263      0.2215203    
   1107000   524.21436      1340.4668      1864.6811      178.66754      299.99922      0.22024911   
   1108000   521.55166      1340.0155      1861.5672      136.75746      299.89823      0.22447074   
   1109000   513.84268      1368.3191      1882.1618      121.6168       306.23262      0.23005579   
   1110000   485.89014      1361.6538      1847.5439      115.49668      304.74091      0.23026654   
   1111000   525.43356      1293.7693      1819.2029      175.30419      289.54823      0.22344431   
   1112000   521.09066      1323.5411      1844.6317      258.63805      296.21121      0.21303752   
   1113000   499.04068      1340.2684      1839.3091      305.66171      299.95482      0.21176068   
   1114000   524.94983      1324.7334      1849.6833      238.62281      296.47806      0.21634037   
   1115000   520.23258      1352.2754      1872.508       195.49702      302.64201      0.22268922   
   1116000   534.96232      1378.8536      1913.816       89.699078      308.59027      0.22670891   
   1117000   531.47846      1344.9862      1876.4646      167.96772      301.01066      0.23190898   
   1118000   486.55594      1366.079       1852.6349      214.43825      305.73128      0.23717692   
   1119000   510.99083      1356.3817      1867.3725      247.29013      303.561        0.23879578   
   1120000   509.14535      1351.5699      1860.7152      168.87231      302.48411      0.23706468   
   1121000   512.62211      1328.8246      1841.4467      214.44732      297.39368      0.23904403   
   1122000   495.54343      1304.2673      1799.8108      383.9669       291.89771      0.24310193   
   1123000   466.70063      1335.0949      1801.7955      350.21123      298.79698      0.24048369   
   1124000   494.03337      1286.6539      1780.6873      244.47089      287.95579      0.2271059    
   1125000   526.30604      1321.9219      1848.228       142.51382      295.84884      0.22298061   
   1126000   529.38074      1330.5802      1859.9609      153.63564      297.78658      0.2276638    
   1127000   486.08547      1318.2354      1804.3209      142.56759      295.0238       0.23325739   
   1128000   523.55026      1316.2068      1839.757       147.60195      294.56978      0.23646346   
   1129000   496.1988       1281.7125      1777.9113      233.48312      286.84989      0.2384667    
   1130000   482.82219      1324.0117      1806.8339      352.40942      296.31654      0.23784473   
   1131000   501.69053      1317.8084      1819.4989      353.72435      294.92822      0.23233267   
   1132000   508.97052      1356.5554      1865.526       248.69793      303.59989      0.2228964    
   1133000   539.89169      1331.9451      1871.8368      154.48486      298.09205      0.21520978   
   1134000   529.91983      1345.1575      1875.0774      64.815974      301.04901      0.21222568   
   1135000   526.16962      1359.6011      1885.7707      1.2879458      304.28152      0.21771491   
   1136000   511.32086      1338.1897      1849.5105     -16.551122      299.48959      0.22592072   
   1137000   537.67409      1299.2852      1836.9593      128.77455      290.78269      0.22947122   
   1138000   519.76947      1309.4668      1829.2362      247.78967      293.06135      0.23056643   
   1139000   510.16111      1344.8263      1854.9874      320.28973      300.97488      0.22980595   
   1140000   528.52228      1368.5152      1897.0374      277.88659      306.2765       0.22253604   
   1141000   522.5946       1361.2418      1883.8364      210.63175      304.64871      0.21828387   
   1142000   512.5569       1361.6896      1874.2465      311.61655      304.74892      0.2229255    
   1143000   494.24265      1382.1013      1876.344       370.44132      309.31711      0.22683819   
   1144000   484.0051       1353.8305      1837.8356      327.3814       302.99005      0.22670708   
   1145000   507.95214      1334.5152      1842.4674      301.14771      298.66725      0.22726239   
   1146000   517.59894      1318.1383      1835.7372      251.0992       295.00205      0.22824427   
   1147000   512.02681      1328.1465      1840.1733      172.6295       297.24191      0.22727087   
   1148000   494.98792      1294.7552      1789.7431      243.54841      289.76888      0.2282268    
   1149000   498.23513      1279.8846      1778.1197      239.02384      286.44079      0.22582656   
   1150000   521.21221      1311.1911      1832.4033      234.78204      293.44725      0.22466692   
   1151000   495.56853      1341.3803      1836.9488      258.97937      300.20367      0.22813914   
   1152000   484.86406      1359.069       1843.9331      244.36138      304.16243      0.23512347   
   1153000   521.6764       1324.8318      1846.5082      244.39934      296.50007      0.24143365   
   1154000   529.16742      1318.6177      1847.7851      200.13119      295.10934      0.23881039   
   1155000   505.01691      1337.8883      1842.9052      179.62137      299.42215      0.2287047    
   1156000   528.37966      1325.3916      1853.7712      198.22719      296.62535      0.22171568   
   1157000   502.71679      1332.8832      1835.6         200.89395      298.302        0.22115004   
   1158000   500.48539      1325.5233      1826.0087      256.61395      296.65483      0.22364067   
   1159000   479.91099      1319.417       1799.328       294.49276      295.28823      0.22771544   
   1160000   503.45957      1338.67        1842.1296      225.10067      299.5971       0.22920829   
   1161000   511.57754      1319.9474      1831.5249      95.790996      295.40693      0.22873507   
   1162000   520.53148      1329.0967      1849.6281      27.835603      297.45456      0.22737792   
   1163000   510.90083      1323.658       1834.5588     -0.57376699     296.23738      0.22285581   
   1164000   525.17914      1306.958       1832.1371      91.479158      292.49988      0.21933283   
   1165000   523.29418      1290.9534      1814.2475      162.0679       288.91801      0.21742586   
   1166000   534.05462      1326.8763      1860.9309      290.04666      296.95763      0.22046146   
   1167000   502.85524      1357.5665      1860.4218      209.51448      303.82617      0.22635766   
   1168000   487.20752      1367.692       1854.8995      176.72693      306.09227      0.23592012   
   1169000   486.73629      1378.0262      1864.7625      109.34696      308.4051       0.24500202   
   1170000   503.43229      1373.808       1877.2403      1.2802707      307.46105      0.24489963   
   1171000   480.27515      1376.2062      1856.4813      53.428994      307.99777      0.24289278   
   1172000   507.63042      1332.2064      1839.8368      164.57823      298.15052      0.23878294   
   1173000   534.9096       1302.493       1837.4026      243.54171      291.5006       0.23074392   
   1174000   502.72515      1377.4069      1880.1321      236.13096      308.2665       0.22634441   
   1175000   535.23381      1366.0914      1901.3252      352.02809      305.73407      0.22925437   
   1176000   533.69515      1406.987       1940.6821      316.9764       314.88657      0.23019333   
   1177000   506.95626      1345.6838      1852.6401      202.09945      301.1668       0.23223312   
   1178000   498.37873      1387.8429      1886.2216      158.25245      310.60209      0.23451236   
   1179000   531.07955      1339.0759      1870.1554      80.864119      299.68792      0.23555268   
   1180000   514.80894      1349.3317      1864.1407      134.76696      301.98321      0.24139911   
   1181000   502.31137      1366.1524      1868.4638      148.49551      305.74771      0.24494744   
   1182000   521.99797      1367.2243      1889.2222      179.38933      305.98759      0.2469522    
   1183000   497.41312      1412.2464      1909.6596      270.41915      316.06365      0.24624529   
   1184000   497.73489      1389.8671      1887.602       310.74712      311.0551       0.24138155   
   1185000   501.53094      1361.7777      1863.3087      356.03412      304.76865      0.23424541   
   1186000   507.2849       1351.5044      1858.7893      360.46739      302.46947      0.22623661   
   1187000   576.95233      1342.1604      1919.1127      350.60007      300.37824      0.22044278   
   1188000   526.86233      1365.2181      1892.0804      152.53734      305.53862      0.21638607   
   1189000   539.38929      1368.0031      1907.3924      111.22497      306.1619       0.21781773   
   1190000   524.06131      1412.5696      1936.6309     -28.986068      316.13597      0.22231897   
   1191000   528.38049      1356.1243      1884.5048     -43.000515      303.5034       0.228064     
   1192000   507.40766      1378.5423      1885.9499     -22.694672      308.52059      0.23334389   
   1193000   496.03804      1349.4543      1845.4923      45.882456      302.01064      0.23716188   
   1194000   510.93636      1351.3822      1862.3186      131.33381      302.44211      0.23465929   
   1195000   515.0782       1390.9763      1906.0545      277.95077      311.30335      0.23160594   
   1196000   525.7753       1345.3644      1871.1397      388.49337      301.09532      0.22888589   
   1197000   526.26166      1369.4154      1895.677       378.32847      306.47797      0.2221685    
   1198000   511.99194      1373.7941      1885.786       366.21614      307.45794      0.21766086   
   1199000   522.29828      1376.3085      1898.6068      287.49986      308.02068      0.21472409   
   1200000   540.11489      1319.1274      1859.2423      125.04028      295.22341      0.21613966   
   1201000   512.3038       1345.1526      1857.4564      82.234779      301.04792      0.22624108   
   1202000   521.01722      1354.1027      1875.1199      35.836095      303.05095      0.23268815   
   1203000   513.05643      1358.0581      1871.1145      99.708081      303.93618      0.23362897   
   1204000   523.06515      1289.8892      1812.9543      167.76905      288.67985      0.22965702   
   1205000   493.50914      1325.467       1818.9761      297.77083      296.64223      0.2270433    
   1206000   509.65389      1333.7021      1843.356       306.70354      298.48528      0.22376328   
   1207000   515.71336      1306.7163      1822.4297      227.42624      292.4458       0.21775289   
   1208000   549.65316      1326.1278      1875.7809      93.144186      296.79011      0.20909899   
   1209000   550.44321      1357.879       1908.3222      58.113454      303.89611      0.20548621   
   1210000   513.28905      1323.2291      1836.5182      27.150564      296.1414       0.21255489   
   1211000   510.1931       1317.8096      1828.0027      35.297104      294.9285       0.22534811   
   1212000   503.76712      1282.2498      1786.0169      176.26323      286.97013      0.22964998   
   1213000   499.04977      1338.3806      1837.4304      248.62         299.53233      0.22799064   
   1214000   482.4665       1338.9858      1821.4523      297.27415      299.66776      0.22418375   
   1215000   502.56347      1311.1775      1813.741       302.70312      293.44422      0.22095454   
   1216000   495.32071      1326.1387      1821.4594      293.19305      296.79257      0.22299292   
   1217000   496.80671      1343.7386      1840.5453      231.26181      300.73146      0.22920725   
   1218000   503.90702      1323.43        1827.337       294.91206      296.18635      0.24062196   
   1219000   498.60421      1342.3718      1840.976       249.16275      300.42556      0.2417057    
   1220000   512.40481      1352.7729      1865.1777      212.95999      302.75334      0.23468199   
   1221000   513.82255      1354.0528      1867.8753      273.36276      303.03979      0.23111863   
   1222000   507.67376      1366.227       1873.9008      331.7642       305.7644       0.23085049   
   1223000   513.56701      1404.5481      1918.1151      340.07795      314.34074      0.23315699   
   1224000   498.35945      1400.0765      1898.4359      287.58054      313.33999      0.23407933   
   1225000   543.70482      1354.1568      1897.8616      90.26178       303.06307      0.23045475   
   1226000   534.75929      1346.0048      1880.764       48.356918      301.23863      0.22689696   
   1227000   544.10895      1353.3628      1897.4718      78.969643      302.88538      0.22498795   
   1228000   512.00135      1338.0216      1850.0229      117.54559      299.45197      0.22324338   
   1229000   544.17618      1342.663       1886.8391      202.76252      300.49073      0.22848454   
   1230000   502.46334      1341.836       1844.2993      249.99421      300.30565      0.23098994   
   1231000   510.6731       1336.5772      1847.2503      291.19709      299.12872      0.23255686   
   1232000   518.1738       1337.8293      1856.0031      214.67497      299.40895      0.2339806    
   1233000   494.61954      1362.8912      1857.5107      187.99674      305.01784      0.23835616   
   1234000   481.22273      1344.0176      1825.2403      116.82697      300.79389      0.24308745   
   1235000   465.75022      1358.1386      1823.8888      169.50082      303.95421      0.2528826    
   1236000   474.60015      1323.2525      1797.8526      249.12135      296.14661      0.25905226   
   1237000   466.84122      1324.308       1791.1492      270.80946      296.38284      0.25213893   
   1238000   464.64434      1326.4611      1791.1054      382.37278      296.86471      0.24308871   
   1239000   487.20825      1302.0476      1789.2558      340.06178      291.40091      0.23979285   
   1240000   496.96202      1336.2334      1833.1954      277.43177      299.05178      0.23791179   
   1241000   514.10326      1337.4583      1851.5615      160.8929       299.3259       0.23826072   
   1242000   482.03354      1348.9881      1831.0216      108.22195      301.90631      0.23899861   
   1243000   522.40705      1324.2085      1846.6156      84.181136      296.36059      0.24048559   
   1244000   501.46594      1354.2758      1855.7417      148.19459      303.0897       0.23955432   
   1245000   541.82068      1336.0248      1877.8454      151.49343      299.00509      0.23591822   
   1246000   507.25693      1357.1039      1864.3608      304.69737      303.72264      0.2329264    
   1247000   516.25051      1377.8295      1894.08        300.4628       308.36106      0.23151669   
   1248000   497.44849      1359.0336      1856.4821      316.43122      304.1545       0.23417524   
   1249000   510.0675       1345.2278      1855.2953      179.49221      301.06474      0.23729691   
   1250000   504.32582      1410.4275      1914.7533      139.58927      315.65658      0.24377975   
   1251000   505.62582      1350.3106      1855.9364      143.14683      302.20228      0.25074721   
   1252000   466.787        1371.2536      1838.0406      85.716263      306.88937      0.24713647   
   1253000   479.10505      1360.0108      1839.1159      150.5361       304.37322      0.23841818   
   1254000   492.26697      1360.2251      1852.492       229.88795      304.42116      0.22971736   
   1255000   527.41522      1406.2319      1933.6472      335.61573      314.71759      0.22775004   
   1256000   560.07319      1337.5371      1897.6103      299.0257       299.34355      0.22879959   
   1257000   496.76985      1366.756       1863.5258      278.3846       305.88279      0.23004857   
   1258000   497.34937      1331.8796      1829.2289      228.18367      298.07738      0.23072836   
   1259000   491.24994      1326.1137      1817.3636      218.11341      296.78697      0.23312427   
   1260000   502.79033      1324.8229      1827.6132      163.036        296.49807      0.23429614   
   1261000   506.92713      1316.1677      1823.0949      149.07387      294.56104      0.2307726    
   1262000   498.63858      1333.2232      1831.8618      247.83434      298.37809      0.22722173   
   1263000   510.48607      1326.31        1836.796       257.86087      296.83089      0.22445011   
   1264000   482.97656      1312.8617      1795.8383      348.35156      293.82115      0.22386703   
   1265000   514.10524      1335.8833      1849.9886      253.04127      298.97343      0.22188514   
   1266000   507.09342      1362.8591      1869.9525      181.30671      305.01066      0.22348265   
   1267000   540.31615      1357.9871      1898.3032      129.83562      303.9203       0.22898952   
   1268000   508.47943      1338.964       1847.4434      139.41822      299.66289      0.23753769   
   1269000   513.32095      1342.6932      1856.0141      157.48484      300.49748      0.24244505   
   1270000   500.28691      1318.5679      1818.8548      268.01172      295.0982       0.24489426   
   1271000   488.91263      1327.2605      1816.1731      276.41987      297.04362      0.24551194   
   1272000   460.34413      1336.9446      1797.2888      269.65704      299.21095      0.24858799   
   1273000   498.66154      1318.0583      1816.7198      274.02558      294.98414      0.25829796   
   1274000   480.21238      1304.3002      1784.5125      273.16711      291.90505      0.26832258   
   1275000   510.61984      1306.3411      1816.9609      249.83545      292.36181      0.26124329   
   1276000   492.06287      1379.9939      1872.0567      154.82839      308.84546      0.24281368   
   1277000   502.80276      1361.0583      1863.861       187.38379      304.60763      0.23712985   
   1278000   520.53741      1392.8477      1913.3851      141.15701      311.72218      0.23223868   
   1279000   529.61883      1367.1215      1896.7403      111.81168      305.9646       0.2286137    
   1280000   512.4069       1356.6423      1869.0492      68.301413      303.61934      0.22784507   
   1281000   553.01197      1334.765       1887.777       15.361898      298.72315      0.22920109   
   1282000   520.97863      1381.7175      1902.6961      50.497062      309.23121      0.23221213   
   1283000   479.63303      1312.9903      1792.6233      121.01518      293.84991      0.23624697   
   1284000   487.73898      1323.0016      1810.7406      311.07719      296.09047      0.23983317   
   1285000   513.32494      1324.6113      1837.9362      339.73767      296.45072      0.2306831    
   1286000   511.26391      1313.9354      1825.1993      330.03497      294.06144      0.22012098   
   1287000   532.53152      1305.4101      1837.9417      281.3387       292.15347      0.21917204   
   1288000   525.98314      1344.4694      1870.4525      205.56895      300.89501      0.21916305   
   1289000   513.97513      1354.0722      1868.0474      186.77746      303.04415      0.22072206   
   1290000   532.82611      1365.3165      1898.1426      207.25772      305.56064      0.22323435   
   1291000   517.12829      1355.5544      1872.6826      280.08888      303.37585      0.22964306   
   1292000   521.31515      1356.3348      1877.6499      316.2851       303.5505       0.23865377   
   1293000   490.51813      1319.0958      1809.6139      268.31494      295.21635      0.24200518   
   1294000   470.19262      1318.468       1788.6607      201.67929      295.07585      0.24169771   
   1295000   504.2425       1339.5084      1843.7509      184.13176      299.78474      0.24153361   
   1296000   512.30872      1353.6694      1865.9781      199.96525      302.95399      0.23823459   
   1297000   541.16076      1365.5283      1906.689       183.58667      305.60803      0.23454123   
   1298000   511.316        1404.6938      1916.0098      95.935911      314.37336      0.23144229   
   1299000   523.8763       1394.1188      1917.9951      41.144313      312.00665      0.22997142   
   1300000   539.03411      1347.4744      1886.5085      67.383717      301.56754      0.22852956   
   1301000   540.35303      1343.1243      1883.4773      14.038833      300.59397      0.22610259   
   1302000   523.30034      1350.1574      1873.4577      112.28126      302.16799      0.23078363   
   1303000   502.77677      1315.2635      1818.0403      154.14466      294.35867      0.24218894   
   1304000   482.83761      1328.4319      1811.2695      267.00501      297.30579      0.25080139   
   1305000   489.49845      1337.4019      1826.9003      270.34456      299.31328      0.24716897   
   1306000   509.76603      1339.1941      1848.9601      245.03748      299.71439      0.23592845   
   1307000   514.76036      1313.1387      1827.8991      179.2552       293.88314      0.22793524   
   1308000   485.36242      1313.2305      1798.5929      215.31113      293.90367      0.22798622   
   1309000   489.52884      1327.7517      1817.2805      175.80333      297.15355      0.23058807   
   1310000   523.70769      1315.8162      1839.5239      254.6693       294.48236      0.23620738   
   1311000   494.12322      1329.416       1823.5393      333.73267      297.52604      0.24014205   
   1312000   512.88638      1371.6667      1884.5531      259.82034      306.98182      0.23620606   
   1313000   524.45445      1405.4887      1929.9432      292.14104      314.55127      0.23012008   
   1314000   544.28968      1369.6377      1913.9274      271.76517      306.52773      0.22777817   
   1315000   523.93563      1367.3094      1891.245       310.09379      306.00665      0.22881375   
   1316000   529.80515      1341.2445      1871.0496      302.38032      300.17326      0.22951042   
   1317000   502.91051      1383.1615      1886.072       293.30988      309.55437      0.22861167   
   1318000   496.07935      1413.7446      1909.8239      220.32064      316.39893      0.22883367   
   1319000   543.42902      1401.4518      1944.8808      241.43065      313.64778      0.2360885    
   1320000   513.61445      1364.5661      1878.1806      188.58608      305.3927       0.23902351   
   1321000   487.35857      1365.2975      1852.6561      187.5591       305.55639      0.23551047   
   1322000   549.81533      1340.5551      1890.3704      207.85906      300.01897      0.23099841   
   1323000   548.88247      1346.2581      1895.1406      172.5868       301.29534      0.22306545   
   1324000   515.89563      1350.9945      1866.8902      224.78165      302.35535      0.21868672   
   1325000   507.19066      1336.2096      1843.4003      278.31296      299.04646      0.22118981   
   1326000   498.22768      1334.5491      1832.7768      219.57228      298.67483      0.23352142   
   1327000   525.67999      1308.6473      1834.3273      145.50236      292.87794      0.2445371    
   1328000   479.72523      1357.4628      1837.1881      146.12712      303.80297      0.24808177   
   1329000   495.768        1346.0766      1841.8446      116.11283      301.25471      0.2448052    
   1330000   535.29409      1357.875       1893.169       129.45786      303.8952       0.23741063   
   1331000   500.60141      1369.2248      1869.8262      171.27753      306.43533      0.23199227   
   1332000   526.21983      1348.6335      1874.8534      227.49221      301.82695      0.23306905   
   1333000   503.22632      1365.1607      1868.387       308.16307      305.52576      0.23523808   
   1334000   516.94069      1376.583       1893.5237      243.42919      308.08209      0.23421704   
   1335000   555.22342      1369.5543      1924.7777      166.53186      306.50906      0.23282739   
   1336000   515.45394      1353.4332      1868.8872      88.469621      302.90114      0.2317644    
   1337000   509.62251      1366.5045      1876.127       64.579779      305.82651      0.23210886   
   1338000   512.52527      1347.2965      1859.8218      106.84316      301.52773      0.23271165   
   1339000   522.93002      1325.9836      1848.9136      184.24466      296.75785      0.23461493   
   1340000   527.66826      1304.4167      1832.085       201.92522      291.93113      0.23666005   
   1341000   515.68954      1334.2434      1849.933       197.80506      298.60642      0.24056421   
   1342000   475.44038      1349.0856      1824.526       184.10124      301.92813      0.24645682   
   1343000   481.99776      1325.3558      1807.3535      26.918252      296.61734      0.24872318   
   1344000   487.51813      1332.8971      1820.4153      40.879311      298.30511      0.24313878   
   1345000   515.31643      1301.5413      1816.8577      120.00811      291.28761      0.23860132   
   1346000   500.57098      1325.7375      1826.3085      273.17973      296.70278      0.24085832   
   1347000   488.66378      1326.4106      1815.0744      320.39503      296.85342      0.24701775   
   1348000   474.46083      1304.6743      1779.1352      338.15363      291.98879      0.24831601   
   1349000   483.91636      1307.7203      1791.6367      286.59029      292.6705       0.24069666   
   1350000   540.2661       1337.6634      1877.9295      222.94425      299.37181      0.23100267   
   1351000   536.45316      1364.6913      1901.1445      219.99319      305.42072      0.22594686   
   1352000   541.96774      1346.9748      1888.9426      162.95184      301.45574      0.2249285    
   1353000   531.27913      1362.4791      1893.7582      144.91309      304.92562      0.23072128   
   1354000   503.32132      1374.6951      1878.0165      158.32672      307.65959      0.23677661   
   1355000   492.29323      1365.1256      1857.4189      173.3997       305.51792      0.24158126   
   1356000   498.25497      1370.4912      1868.7461      215.31019      306.71874      0.24191895   
   1357000   531.56163      1368.6438      1900.2054      191.05995      306.30529      0.23754055   
   1358000   528.19905      1352.1443      1880.3434      191.06487      302.61268      0.22886405   
   1359000   553.75254      1349.8546      1903.6072      121.5861       302.10024      0.22230365   
   1360000   529.79377      1348.0632      1877.857       81.702964      301.69931      0.22275293   
   1361000   507.39761      1339.0557      1846.4533      75.762964      299.68341      0.22821856   
   1362000   498.90507      1313.2252      1812.1303      120.41376      293.9025       0.23621798   
   1363000   513.78957      1322.5421      1836.3316      172.99294      295.98763      0.23842233   
   1364000   499.90691      1305.0206      1804.9275      286.48681      292.06629      0.23801746   
   1365000   500.58631      1329.6657      1830.252       367.66355      297.5819       0.23815847   
   1366000   499.03707      1353.883       1852.9201      337.55339      303.00179      0.23517172   
   1367000   513.68275      1379.8158      1893.4985      293.98575      308.8056       0.23203468   
   1368000   525.53343      1349.6086      1875.142       283.33142      302.04518      0.23117897   
   1369000   531.06728      1335.7731      1866.8404      288.63212      298.94876      0.23179636   
   1370000   484.03897      1364.619       1848.658       366.20717      305.40453      0.23297272   
   1371000   517.77067      1389.0758      1906.8464      368.51734      310.87801      0.232139     
   1372000   517.59874      1399.1586      1916.7574      330.54987      313.13458      0.23208734   
   1373000   521.40167      1339.8344      1861.236       328.72707      299.85768      0.23628607   
   1374000   491.79587      1355.5142      1847.3101      216.57445      303.36687      0.23902795   
   1375000   518.88577      1370.232       1889.1177      180.57452      306.66073      0.24201868   
   1376000   488.68045      1351.3152      1839.9957      155.76149      302.42712      0.23751362   
   1377000   513.47805      1316.1797      1829.6578      172.79368      294.56373      0.22492965   
   1378000   490.98085      1276.5719      1767.5527      214.53985      285.6994       0.22069714   
   1379000   485.33824      1329.6301      1814.9683      227.74536      297.57394      0.22432969   
   1380000   501.23225      1324.6903      1825.9225      154.64707      296.4684       0.23080712   
   1381000   492.90276      1325.5638      1818.4666      140.60387      296.6639       0.2385202    
   1382000   488.05184      1339.653       1827.7049      144.73195      299.8171       0.2420372    
   1383000   498.99468      1292.0096      1791.0043      77.531459      289.1544       0.24001824   
   1384000   501.26105      1294.1281      1795.3892      34.656206      289.62853      0.23386597   
   1385000   496.67328      1320.6868      1817.36        80.460039      295.57241      0.22904389   
   1386000   511.43504      1315.994       1827.429       180.53906      294.52216      0.22864222   
   1387000   491.51224      1309.789       1801.3013      266.6198       293.13347      0.23022266   
   1388000   486.41194      1294.0103      1780.4222      264.91023      289.60216      0.23322949   
   1389000   501.08338      1350.3413      1851.4247      259.6036       302.20916      0.24066981   
   1390000   491.77014      1306.5545      1798.3246      149.356        292.40957      0.24206208   
   1391000   500.55254      1307.3092      1807.8618      206.35126      292.57849      0.23948759   
   1392000   527.26481      1356.4666      1883.7314      179.10563      303.58002      0.23168236   
   1393000   519.99193      1356.0448      1876.0367      215.09297      303.48561      0.22631226   
   1394000   499.7261       1344.8441      1844.5702      240.05061      300.97887      0.23209218   
   1395000   508.3494       1391.3229      1899.6723      176.4726       311.38091      0.24465678   
   1396000   522.17878      1351.2063      1873.385       146.00519      302.40273      0.24826234   
   1397000   488.43512      1369.3607      1857.7958      144.08086      306.46574      0.24324465   
   1398000   514.38565      1363.7691      1878.1548      144.57081      305.21433      0.23795032   
   1399000   519.62734      1339.9889      1859.6163      236.20589      299.89227      0.23626946   
   1400000   519.82819      1343.805       1863.6332      250.12388      300.74631      0.24062255   
   1401000   512.04167      1394.8982      1906.9399      282.198        312.18109      0.24374089   
   1402000   499.31468      1370.5475      1869.8622      334.84083      306.73134      0.24058109   
   1403000   517.23001      1354.1876      1871.4176      250.9623       303.06996      0.23525068   
   1404000   537.25323      1350.7567      1888.01        210.88688      302.30213      0.22784188   
   1405000   539.17556      1372.8311      1912.0066      108.94268      307.24241      0.22095128   
   1406000   529.99842      1346.0282      1876.0266      113.02423      301.24387      0.22014084   
   1407000   512.01878      1372.3864      1884.4052      107.50294      307.1429       0.22725822   
   1408000   511.18819      1358.0861      1869.2743      187.16398      303.94246      0.23535654   
   1409000   523.18312      1333.1469      1856.3301      271.42341      298.36102      0.23667103   
   1410000   533.11542      1362.0097      1895.1251      275.48945      304.82056      0.23457891   
   1411000   507.66497      1385.9188      1893.5838      318.08159      310.17147      0.23112536   
   1412000   554.57105      1392.1526      1946.7237      294.46498      311.56661      0.22680079   
   1413000   567.50807      1350.4352      1917.9433      179.41378      302.23018      0.22506405   
   1414000   531.99118      1365.3566      1897.3478      152.84866      305.56961      0.23048075   
   1415000   497.24964      1358.7594      1856.009       165.30351      304.09314      0.24118483   
   1416000   488.11893      1361.4182      1849.5371      109.94121      304.68819      0.24721688   
   1417000   501.19701      1370.0992      1871.2963      132.55313      306.63102      0.24651019   
   1418000   500.32621      1346.5341      1846.8603      130.6127       301.3571       0.24126321   
   1419000   530.44146      1306.7544      1837.1959      168.40333      292.45432      0.24290828   
   1420000   497.82142      1296.1177      1793.9391      254.32892      290.0738       0.24791859   
   1421000   494.37104      1314.972       1809.343       292.14424      294.29343      0.24866679   
   1422000   521.99146      1308.5464      1830.5378      252.74445      292.85536      0.24519654   
   1423000   524.68329      1294.4813      1819.1646      247.20346      289.70757      0.23416222   
   1424000   510.80273      1284.486       1795.2887      227.29469      287.4706       0.22775822   
   1425000   529.97888      1285.4595      1815.4384      268.79441      287.68848      0.23079523   
   1426000   486.20415      1326.4299      1812.6341      316.35017      296.85774      0.2341187    
   1427000   491.60864      1333.8761      1825.4848      170.37154      298.52421      0.23262577   
   1428000   517.50503      1314.4397      1831.9448      33.869536      294.17431      0.22899377   
   1429000   500.48346      1316.2395      1816.7229     -13.185385      294.5771       0.22422282   
   1430000   493.42422      1328.5456      1821.9698     -35.609253      297.33123      0.2231112    
   1431000   512.79563      1336.0343      1848.8299      46.228757      299.00722      0.23082864   
   1432000   482.73069      1342.9311      1825.6618      160.59321      300.55075      0.23902012   
   1433000   521.8771       1320.5336      1842.4107      340.3901       295.53812      0.2439391    
   1434000   511.15297      1303.7861      1814.9391      305.86434      291.79001      0.24147412   
   1435000   494.93881      1310.6429      1805.5817      310.56785      293.32456      0.23716819   
   1436000   511.01725      1395.8408      1906.858       276.2073       312.39203      0.2320644    
   1437000   529.78333      1333.9696      1863.7529      215.20415      298.54514      0.22820687   
   1438000   548.33035      1283.4353      1831.7657      102.49115      287.23546      0.22458872   
   1439000   518.24121      1337.1378      1855.379       201.64743      299.25419      0.22474282   
   1440000   494.58855      1343.0346      1837.6231      203.30989      300.5739       0.22762051   
   1441000   500.02629      1309.1499      1809.1762      161.85005      292.99043      0.23287954   
   1442000   486.30189      1286.7305      1773.0324      187.03625      287.97292      0.2456183    
   1443000   507.95125      1287.6413      1795.5926      150.09364      288.17677      0.25363826   
   1444000   498.99648      1335.0046      1834.0011      108.80098      298.77676      0.24848667   
   1445000   516.35709      1328.0122      1844.3693      121.18029      297.21186      0.2382591    
   1446000   528.39513      1318.2926      1846.6878      88.847645      295.0366       0.22862283   
   1447000   503.6549       1266.259       1769.9139      129.94935      283.39135      0.22460747   
   1448000   513.63956      1296.7674      1810.407       145.63704      290.21921      0.22437909   
   1449000   530.56259      1318.4157      1848.9782      119.40124      295.06413      0.22895309   
   1450000   530.65911      1334.7939      1865.453       212.9329       298.72961      0.23797684   
   1451000   508.23538      1363.9403      1872.1757      331.37778      305.25264      0.24167667   
   1452000   488.34217      1415.4378      1903.7799      474.582        316.77788      0.24355056   
   1453000   515.70497      1400.3604      1916.0654      394.75317      313.40353      0.23837828   
   1454000   514.72609      1377.0316      1891.7577      317.85839      308.18249      0.23429337   
   1455000   503.7999       1361.9991      1865.799       124.33403      304.8182       0.23185903   
   1456000   505.00812      1379.382       1884.3901     -55.024778      308.70851      0.23309259   
   1457000   524.54526      1353.6603      1878.2056      17.026599      302.95196      0.23638732   
   1458000   524.98463      1387.6667      1912.6513      140.74304      310.56266      0.23469092   
   1459000   514.98789      1383.8716      1898.8595      314.31767      309.7133       0.23326626   
   1460000   541.69348      1401.3502      1943.0436      373.56476      313.62504      0.23011379   
   1461000   528.5619       1370.2263      1898.7882      336.6007       306.65945      0.22671981   
   1462000   524.68048      1345.126       1869.8065      311.25881      301.04196      0.22857749   
   1463000   520.62091      1368.7552      1889.3761      246.40528      306.33023      0.23219897   
   1464000   501.75689      1366.2181      1867.975       145.05332      305.76241      0.23440541   
   1465000   557.49362      1326.0533      1883.5469      93.565094      296.77345      0.23424981   
   1466000   543.01877      1379.7072      1922.726       90.438558      308.7813       0.22834576   
   1467000   541.80308      1363.32        1905.1231      70.326114      305.11381      0.21782632   
   1468000   540.98826      1349.3924      1890.3807      116.44552      301.99679      0.21702952   
   1469000   530.43182      1373.956       1904.3878      148.47936      307.49417      0.22297312   
   1470000   522.63062      1428.9481      1951.5788      183.19713      319.80153      0.23028705   
   1471000   498.82983      1382.9749      1881.8047      184.04995      309.51262      0.23383321   
   1472000   546.30032      1337.7304      1884.0307      118.27624      299.38681      0.23699393   
   1473000   523.10881      1360.9853      1884.0941      75.049815      304.5913       0.2346729    
   1474000   542.57639      1377.5441      1920.1205      212.40068      308.29719      0.23539816   
   1475000   496.84311      1356.2859      1853.129       268.41101      303.53958      0.23425176   
   1476000   523.06024      1319.1428      1842.2031      389.36343      295.22688      0.23457618   
   1477000   487.73557      1340.5095      1828.245       246.55082      300.00877      0.23339875   
   1478000   507.35775      1330.1282      1837.486       236.04476      297.68543      0.23563275   
   1479000   488.7231       1308.053       1796.7761      251.00553      292.74494      0.23396481   
   1480000   509.82938      1329.9384      1839.7678      147.52016      297.64295      0.22769223   
   1481000   509.00513      1351.0272      1860.0323      185.52397      302.36265      0.22439938   
   1482000   538.96962      1358.3673      1897.3369      118.9382       304.00538      0.2173505    
   1483000   560.67282      1382.6292      1943.302       116.01706      309.43526      0.21489028   
   1484000   532.99108      1340.6505      1873.6416      124.82561      300.04033      0.21711301   
   1485000   519.54961      1351.2509      1870.8006      300.01588      302.41273      0.22817152   
   1486000   532.15267      1348.3343      1880.4869      279.79428      301.75997      0.23315333   
   1487000   508.47571      1361.9699      1870.4457      314.72387      304.81167      0.23394551   
   1488000   497.35703      1367.2354      1864.5924      310.73167      305.99008      0.23407933   
   1489000   512.90388      1345.6163      1858.5201      248.66587      301.15168      0.23419059   
   1490000   516.65311      1339.2835      1855.9366      186.21675      299.73439      0.2292369    
   1491000   501.58481      1358.1438      1859.7286      179.31164      303.95536      0.22408786   
   1492000   539.12926      1379.3748      1918.5041      195.9053       308.70692      0.2266799    
   1493000   518.07542      1404.9469      1923.0223      217.19321      314.43         0.23409027   
   1494000   508.00883      1364.8264      1872.8352      195.52356      305.45094      0.24030799   
   1495000   506.56617      1344.4898      1851.056       138.60131      300.89958      0.23846132   
   1496000   540.06053      1349.2155      1889.276       207.61004      301.95719      0.23286347   
   1497000   509.77419      1363.0477      1872.8219      232.52873      305.05287      0.22683177   
   1498000   535.69181      1357.4154      1893.1072      296.16811      303.79235      0.22411275   
   1499000   507.13025      1386.2578      1893.3881      333.2666       310.24735      0.22598809   
   1500000   499.17235      1340.6582      1839.8305      289.33732      300.04205      0.23299043   
   1501000   529.01845      1319.4015      1848.4199      218.5459       295.28476      0.23934604   
   1502000   486.1879       1356.2677      1842.4556      195.41635      303.53551      0.24080181   
   1503000   473.43608      1340.4901      1813.9262      164.2557       300.00443      0.23955184   
   1504000   523.42383      1292.2316      1815.6554      198.46707      289.20409      0.23357022   
   1505000   519.75331      1325.1681      1844.9214      243.98172      296.57533      0.229486     
   1506000   500.61216      1332.6099      1833.2221      310.40471      298.24083      0.22932918   
   1507000   527.94758      1320.1881      1848.1356      264.40071      295.4608       0.23017694   
   1508000   532.82664      1303.3965      1836.2232      198.90169      291.70282      0.23224013   
   1509000   485.37684      1294.6668      1780.0436      128.913        289.74909      0.23654727   
   1510000   497.27215      1288.4899      1785.762      -12.956577      288.36668      0.2385644    
   1511000   512.16833      1315.9939      1828.1622     -39.340271      294.52213      0.24820686   
   1512000   477.76404      1332.0182      1809.7823      30.988818      298.10842      0.25691686   
   1513000   485.06045      1318.7827      1803.8432      132.60129      295.14629      0.24923144   
   1514000   496.32022      1289.0559      1785.3761      248.29737      288.49336      0.2396816    
   1515000   510.16719      1324.3509      1834.5181      256.54022      296.39246      0.23693037   
   1516000   503.63302      1352.6727      1856.3057      245.45471      302.73092      0.23485856   
   1517000   543.58863      1333.7025      1877.2911      206.62511      298.48535      0.23289599   
   1518000   506.11579      1376.2022      1882.318       234.11757      307.99687      0.23212836   
   1519000   552.00284      1366.696       1918.6988      240.86511      305.86937      0.23276705   
   1520000   531.61128      1361.1503      1892.7616      206.64006      304.62823      0.23254091   
   1521000   509.48838      1359.5903      1869.0787      215.08814      304.27911      0.24102156   
   1522000   506.10928      1361.3737      1867.483       127.45828      304.67823      0.24466251   
   1523000   479.27847      1374.509       1853.7874      78.648212      307.61793      0.2415561    
   1524000   527.34852      1360.7502      1888.0987      83.85691       304.53869      0.23578238   
   1525000   538.36982      1374.4486      1912.8184      115.68366      307.60441      0.23118105   
   1526000   532.85099      1425.8331      1958.6841      220.00945      319.10437      0.22857954   
   1527000   523.42962      1364.7072      1888.1369      237.08773      305.42428      0.22842546   
   1528000   533.56068      1342.3238      1875.8844      210.33526      300.41481      0.23707906   
   1529000   485.79175      1344.4314      1830.2231      268.33796      300.8865       0.24675645   
   1530000   520.41307      1311.8478      1832.2608      191.36975      293.59423      0.24689682   
   1531000   502.6193       1342.3806      1844.9999      128.10002      300.42753      0.24482294   
   1532000   479.85987      1349.1457      1829.0056      133.16745      301.94158      0.23910552   
   1533000   489.1064       1296.7693      1785.8757      151.87654      290.21964      0.23440594   
   1534000   518.12821      1285.4177      1803.5459      195.27997      287.67911      0.23350105   
   1535000   513.39957      1308.668       1822.0676      277.18738      292.88258      0.24010915   
   1536000   497.98145      1321.1245      1819.106       324.12128      295.67038      0.25078775   
   1537000   496.66971      1335.0182      1831.6879      292.03354      298.77982      0.25518271   
   1538000   518.8575       1365.4443      1884.3018      271.38674      305.58924      0.25373323   
   1539000   489.59999      1347.1881      1836.7881      227.34886      301.50347      0.24843352   
   1540000   502.20076      1367.0168      1869.2176      126.25591      305.94117      0.24079974   
   1541000   513.99663      1356.6378      1870.6345      105.10497      303.61833      0.23534754   
   1542000   538.32877      1373.095       1911.4238      79.353083      307.30148      0.23042366   
   1543000   524.63108      1373.3323      1897.9633      114.21077      307.35458      0.23188301   
   1544000   498.6327       1372.5787      1871.2114      217.07445      307.18594      0.23819214   
   1545000   519.33462      1339.0215      1858.3561      232.98987      299.67575      0.24286001   
   1546000   502.99363      1369.5241      1872.5177      267.74138      306.5023       0.24337236   
   1547000   506.5508       1361.9933      1868.5441      302.1801       304.8169       0.24110057   
   1548000   517.8963       1347.1227      1865.019       288.20005      301.48883      0.23873567   
   1549000   502.96395      1343.0237      1845.9876      207.86134      300.57146      0.2379551    
   1550000   526.06244      1331.786       1857.8485      121.04749      298.05645      0.24109765   
   1551000   524.38188      1331.285       1855.6669      133.40992      297.94432      0.24313062   
   1552000   520.26356      1368.5044      1888.768       178.24459      306.2741       0.24186513   
   1553000   521.74504      1340.6012      1862.3462      195.206        300.0293       0.23434684   
   1554000   532.26991      1304.8537      1837.1236      217.70675      292.02893      0.22617125   
   1555000   524.9285       1323.5142      1848.4427      144.5654       296.2052       0.22534995   
   1556000   515.00151      1321.4339      1836.4354      127.74588      295.73962      0.2341491    
   1557000   479.11743      1313.8685      1792.986       71.119608      294.04648      0.23947504   
   1558000   476.24661      1346.0511      1822.2977      138.13224      301.24899      0.24104393   
   1559000   493.50018      1330.8116      1824.3118      162.75753      297.83838      0.23746348   
   1560000   503.68023      1309.7257      1813.4059      164.97519      293.1193       0.22962328   
   1561000   520.57357      1333.1935      1853.7671      193.56066      298.37144      0.22317186   
   1562000   496.62482      1331.3043      1827.9291      212.00274      297.94864      0.2213155    
   1563000   534.71874      1307.0303      1841.749       195.49256      292.51606      0.22313798   
   1564000   492.78366      1306.7417      1799.5254      231.65672      292.45147      0.22947404   
   1565000   519.47314      1351.472       1870.9451      186.12998      302.4622       0.23482441   
   1566000   518.64653      1360.4277      1879.0742      188.07866      304.4665       0.23682082   
   1567000   541.93175      1332.5122      1874.4439      155.8293       298.21895      0.23320876   
   1568000   530.24938      1284.112       1814.3613      133.02548      287.38689      0.22826213   
   1569000   490.1513       1311.2305      1801.3818      176.9337       293.45607      0.22589345   
   1570000   536.75106      1299.8102      1836.5612      192.23717      290.90019      0.22804185   
   1571000   526.66264      1317.3471      1844.0097      153.26642      294.82498      0.2412489    
   1572000   483.24035      1360.6025      1843.8428      138.57192      304.50563      0.25140249   
   1573000   511.61459      1365.292       1876.9066      92.869754      305.55516      0.25007364   
   1574000   541.08941      1408.8718      1949.9612      149.67302      315.30839      0.24171911   
   1575000   514.54289      1349.3395      1863.8824      262.52579      301.98494      0.23385821   
   1576000   517.54624      1332.2523      1849.7985      262.53783      298.16079      0.22761197   
   1577000   526.66725      1374.1956      1900.8629      247.67408      307.54781      0.22755285   
   1578000   518.88022      1342.4484      1861.3286      193.64691      300.44271      0.22764247   
   1579000   496.45918      1303.135       1799.5942      32.878282      291.64429      0.230178     
   1580000   478.43284      1307.5581      1785.991       6.8784716      292.63419      0.24090529   
   1581000   503.80637      1317.2464      1821.0528      80.480427      294.80245      0.24773979   
   1582000   480.69643      1326.8233      1807.5197      180.91026      296.94578      0.24822278   
   1583000   483.22089      1334.037       1817.2578      295.35832      298.56021      0.24542206   
   1584000   489.97552      1284.7986      1774.7741      220.57456      287.54057      0.2371606    
   1585000   494.08943      1337.1668      1831.2563      242.62541      299.26069      0.23276073   
   1586000   515.19004      1326.802       1841.9921      101.16406      296.94102      0.23026876   
   1587000   480.14962      1372.6534      1852.8031      157.91601      307.20266      0.23352931   
   1588000   511.71184      1343.2216      1854.9335      132.81111      300.61576      0.23791459   
   1589000   506.95261      1322.1644      1829.117       89.631806      295.90311      0.23979485   
   1590000   501.04862      1295.1456      1796.1942      115.64862      289.85624      0.23885951   
   1591000   502.23071      1319.6304      1821.8611      178.72351      295.33598      0.23666001   
   1592000   505.24555      1317.9053      1823.1508      170.29718      294.94991      0.23038194   
   1593000   524.55184      1268.0607      1792.6125      112.62605      283.79458      0.22483251   
   1594000   521.67133      1314.7027      1836.374       136.51444      294.23315      0.22390483   
   1595000   502.7292       1336.3702      1839.0994      160.66376      299.08239      0.22846786   
   1596000   520.50546      1320.5025      1841.0079      203.06914      295.53116      0.23635987   
   1597000   509.50045      1308.0368      1817.5373      130.82645      292.74133      0.23862591   
   1598000   503.44358      1309.8868      1813.3304      161.89394      293.15536      0.23371556   
   1599000   505.98317      1348.1093      1854.0925      89.471327      301.70964      0.22498546   
   1600000   568.0092       1325.6893      1893.6985      103.24676      296.69199      0.22239616   
   1601000   535.30594      1339.8818      1875.1877      132.8021       299.86829      0.22479288   
   1602000   539.55383      1353.7227      1893.2766      202.28041      302.96593      0.23016124   
   1603000   513.83578      1337.2974      1851.1332      282.96383      299.28991      0.23382993   
   1604000   493.00323      1313.6719      1806.6751      261.11028      294.00246      0.23337562   
   1605000   517.42101      1341.8136      1859.2346      251.96062      300.30064      0.23173666   
   1606000   532.04462      1317.1331      1849.1778      165.45723      294.7771       0.23280543   
   1607000   515.39111      1320.6851      1836.0762      225.38753      295.57204      0.23870996   
   1608000   470.77181      1344.2903      1815.0621      304.85796      300.85492      0.24566147   
   1609000   475.47322      1312.4658      1787.939       346.51037      293.73254      0.24752484   
   1610000   518.12034      1297.2498      1815.3702      307.08587      290.32718      0.24149763   
   1611000   506.2401       1301.9142      1808.1543      253.08223      291.37108      0.22894729   
   1612000   490.12062      1341.1205      1831.2411      234.52931      300.14553      0.22805596   
   1613000   528.60778      1325.2612      1853.869       198.1856       296.59618      0.23356599   
   1614000   519.28629      1305.3705      1824.6568      132.3437       292.14461      0.24062737   
   1615000   524.38797      1288.0957      1812.4837      121.58614      288.27847      0.2427227    
   1616000   490.33986      1285.7933      1776.1332      95.280508      287.76318      0.23626432   
   1617000   490.34128      1311.5214      1801.8626      149.24295      293.52117      0.23216834   
   1618000   519.04841      1306.2498      1825.2982      162.96076      292.34138      0.23180906   
   1619000   511.95966      1322.082       1834.0416      230.30503      295.88466      0.23333079   
   1620000   501.81627      1294.0131      1795.8294      194.65006      289.6028       0.2309882    
   1621000   491.00785      1283.1316      1774.1394      192.31974      287.16749      0.23395166   
   1622000   499.32432      1307.0953      1806.4196      201.99751      292.53061      0.24102115   
   1623000   502.04962      1322.8093      1824.8589      180.24394      296.04744      0.24561165   
   1624000   502.23691      1309.3957      1811.6326      113.62152      293.04544      0.24200571   
   1625000   499.45598      1314.7575      1814.2134      142.30736      294.24542      0.23325351   
   1626000   522.75121      1306.0632      1828.8144      150.33172      292.29963      0.22684535   
   1627000   525.33067      1304.4357      1829.7663      164.80656      291.93538      0.22613195   
   1628000   554.02365      1367.5397      1921.5633      205.27813      306.05819      0.2234909    
   1629000   521.28949      1381.5043      1902.7938      159.09316      309.18349      0.21911413   
   1630000   528.02482      1376.9302      1904.955       143.78881      308.1598       0.21929165   
   1631000   539.51753      1315.4541      1854.9716      156.5924       294.40133      0.22383354   
   1632000   525.94777      1315.3633      1841.311       246.05776      294.381        0.23188827   
   1633000   479.23976      1337.804       1817.0438      271.66935      299.40329      0.23576317   
   1634000   532.62023      1308.697       1841.3172      212.74308      292.88907      0.23253481   
   1635000   530.99519      1309.5568      1840.552       168.26218      293.0815       0.22902546   
   1636000   534.74936      1273.9161      1808.6654      85.676376      285.10503      0.22601501   
   1637000   478.79314      1308.8708      1787.664       65.285246      292.92797      0.22628579   
   1638000   513.86979      1303.889       1817.7588      106.10516      291.81304      0.2292778    
   1639000   524.96355      1314.7277      1839.6912      160.5754       294.23876      0.22859348   
   1640000   546.46495      1347.2953      1893.7602      171.59455      301.52745      0.22315547   
   1641000   526.72727      1365.2928      1892.0201      179.46943      305.55534      0.21959695   
   1642000   559.84434      1347.3647      1907.209       217.53322      301.54297      0.22287692   
   1643000   518.53133      1407.5668      1926.0982      290.62987      315.01635      0.23383022   
   1644000   520.51642      1371.8081      1892.3245      318.26886      307.01346      0.24021612   
   1645000   490.24565      1373.7654      1864.011       344.42951      307.45151      0.23992294   
   1646000   523.33563      1341.0582      1864.3939      261.80552      300.13159      0.23383682   
   1647000   517.42919      1320.9943      1838.4235      218.54046      295.64123      0.22680396   
   1648000   514.53565      1336.7505      1851.2862      197.24518      299.16751      0.22568737   
   1649000   502.01347      1333.4812      1835.4947      153.1967       298.43584      0.22590375   
   1650000   526.77848      1292.2689      1819.0474      152.96053      289.21244      0.22926084   
   1651000   493.16389      1269.5082      1762.6721      134.40907      284.11855      0.23490328   
   1652000   512.26154      1291.4919      1803.7535      92.066735      289.03855      0.23748604   
   1653000   521.81715      1315.9377      1837.7549      39.511152      294.50956      0.23779652   
   1654000   467.45904      1354.0172      1821.4762      44.561063      303.03182      0.2369182    
   1655000   524.18433      1320.6052      1844.7896      109.51937      295.55416      0.23653906   
   1656000   535.64632      1307.8998      1843.5461      141.70231      292.71065      0.23333403   
   1657000   531.31099      1320.2531      1851.5641      236.88581      295.47536      0.22768377   
   1658000   515.59256      1333.087       1848.6796      289.10907      298.34762      0.2209281    
   1659000   521.81967      1329.3385      1851.1581      281.0984       297.50868      0.21935852   
   1660000   532.97121      1286.8027      1819.7739      151.7376       287.98908      0.22258947   
   1661000   505.00376      1336.6189      1841.6227      176.05733      299.13806      0.23215395   
   1662000   501.99328      1331.821       1833.8143      144.59503      298.06428      0.23688557   
   1663000   506.86424      1302.9294      1809.7936      116.72351      291.59827      0.23379459   
   1664000   505.75542      1342.6542      1848.4097      161.94226      300.48877      0.23201667   
   1665000   495.32045      1331.0964      1826.4168      150.17478      297.9021       0.2300552    
   1666000   529.13883      1358.5596      1887.6984      147.00296      304.04842      0.22964374   
   1667000   522.54371      1330.2921      1852.8358      140.89009      297.72209      0.23161974   
   1668000   523.7663       1342.9295      1866.6958      143.21512      300.55039      0.23135554   
   1669000   514.00535      1347.4767      1861.482       107.97712      301.56805      0.22349373   
   1670000   543.59082      1314.5174      1858.1082      128.28305      294.19169      0.21228978   
   1671000   541.09911      1324.58        1865.6791      268.27859      296.44371      0.21157971   
   1672000   502.02085      1311.7372      1813.7581      338.50949      293.56948      0.21178774   
   1673000   556.44765      1305.8116      1862.2592      298.00119      292.24331      0.21707697   
   1674000   554.38005      1300.2698      1854.6499      297.70344      291.00306      0.22471526   
   1675000   487.80229      1327.7287      1815.531       160.28413      297.14841      0.22611482   
   1676000   521.9328       1339.6971      1861.6299      22.352302      299.82696      0.22706413   
   1677000   551.87949      1350.6852      1902.5647      1.6668078      302.28611      0.22995438   
   1678000   507.93976      1357.4691      1865.4089      36.816463      303.80438      0.2294935    
   1679000   569.20556      1339.1151      1908.3207      125.03631      299.69671      0.22988915   
   1680000   548.53297      1376.8088      1925.3417      332.79195      308.13263      0.22940783   
   1681000   524.52537      1367.2137      1891.7391      296.06933      305.98523      0.22545603   
   1682000   510.96454      1352.0106      1862.9752      390.64411      302.58276      0.22451067   
   1683000   516.68404      1376.9504      1893.6344      368.88734      308.16432      0.22567634   
   1684000   530.133        1369.5025      1899.6355      294.89152      306.49747      0.22992355   
   1685000   502.75654      1352.7092      1855.4657      292.58897      302.73909      0.24193267   
   1686000   523.32463      1363.9701      1887.2947      274.43403      305.2593       0.24859553   
   1687000   531.37772      1357.5525      1888.9303      237.93257      303.82305      0.24644149   
   1688000   522.60911      1335.3427      1857.9518      254.83651      298.85244      0.24044554   
   1689000   518.71835      1327.6368      1846.3551      306.25161      297.12784      0.23612992   
   1690000   515.43492      1334.7787      1850.2136      218.46265      298.7262       0.2321277    
   1691000   534.31276      1314.0895      1848.4022      183.1404       294.09592      0.23065394   
   1692000   506.74061      1347.8244      1854.565       206.96031      301.64588      0.23026298   
   1693000   504.58764      1335.6637      1840.2513      202.81996      298.92428      0.23253617   
   1694000   529.16665      1326.1299      1855.2965      232.42067      296.79059      0.23424522   
   1695000   508.71257      1319.4085      1828.1211      213.51209      295.28633      0.23006566   
   1696000   480.30192      1332.8687      1813.1706      296.67512      298.29874      0.22744569   
   1697000   523.65072      1331.7555      1855.4062      261.30365      298.04961      0.22743137   
   1698000   566.83446      1306.1939      1873.0284      275.10627      292.32887      0.23409252   
   1699000   546.07556      1350.8302      1896.9057      262.38544      302.31857      0.23751929   
   1700000   521.6051       1352.853       1874.4581      138.67506      302.77128      0.23511362   
   1701000   511.21085      1356.6149      1867.8257      161.09276      303.61319      0.23317506   
   1702000   535.6792       1362.0738      1897.753       187.10363      304.83491      0.23654152   
   1703000   536.29038      1433.1021      1969.3925      246.47556      320.73119      0.24132909   
   1704000   495.34327      1389.0869      1884.4302      222.89141      310.8805       0.23785942   
   1705000   498.69327      1363.4543      1862.1476      210.86707      305.14387      0.23254895   
   1706000   508.80488      1371.155       1879.9599      208.50162      306.86731      0.2295605    
   1707000   538.5567       1374.8311      1913.3878      186.36769      307.69003      0.22963312   
   1708000   542.45625      1346.3257      1888.7819      152.16194      301.31045      0.2339351    
   1709000   510.57387      1333.7005      1844.2743      140.52254      298.4849       0.2418433    
   1710000   463.89967      1356.1098      1820.0095      258.09858      303.50016      0.25048347   
   1711000   488.07234      1338.6684      1826.7408      192.29931      299.59674      0.25327272   
   1712000   492.46896      1338.1966      1830.6655      177.31758      299.49114      0.24837993   
   1713000   474.73613      1328.2805      1803.0166      114.22938      297.2719       0.23931909   
   1714000   545.46008      1325.5886      1871.0486      94.802351      296.66944      0.23611591   
   1715000   515.73984      1363.7938      1879.5337      113.00401      305.21986      0.23300252   
   1716000   547.31757      1373.0847      1920.4023      111.59054      307.29918      0.232302     
   1717000   496.19339      1351.2782      1847.4716      104.1032       302.41884      0.23433569   
   1718000   522.13409      1372.9565      1895.0905      160.37828      307.27047      0.23823477   
   1719000   530.46546      1339.6064      1870.0719      196.23888      299.80667      0.24080258   
   1720000   515.47149      1365.6334      1881.1049      245.25592      305.63156      0.23839251   
   1721000   512.35504      1360.0726      1872.4277      256.90152      304.38705      0.22873412   
   1722000   486.3859       1379.1973      1865.5832      274.35608      308.66718      0.21941091   
   1723000   506.55478      1334.458       1841.0127      288.81559      298.65443      0.21607375   
   1724000   534.07853      1315.3182      1849.3968      273.10291      294.37092      0.22038846   
   1725000   532.53528      1310.836       1843.3713      240.77717      293.3678       0.22823276   
   1726000   498.69457      1344.1708      1842.8653      169.74855      300.82818      0.23217577   
   1727000   495.83245      1324.5649      1820.3974      84.46355       296.44035      0.23197073   
   1728000   542.54946      1310.2722      1852.8217      124.01286      293.24161      0.23343744   
   1729000   538.63541      1353.3992      1892.0346      159.28826      302.89351      0.23660429   
   1730000   528.32355      1374.5069      1902.8305      215.41846      307.61747      0.23585276   
   1731000   489.61643      1422.3801      1911.9965      193.8285       318.33158      0.22737167   
   1732000   555.27975      1370.3026      1925.5823      151.11809      306.67653      0.22076198   
   1733000   551.95559      1344.7826      1896.7382      134.53073      300.9651       0.21874286   
   1734000   536.61445      1361.3825      1897.997       121.80883      304.68021      0.22237409   
   1735000   528.68859      1353.0427      1881.7313      171.59961      302.81373      0.22979745   
   1736000   544.30958      1349.8351      1894.1447      114.60145      302.09588      0.2316381    
   1737000   521.50248      1389.128       1910.6305      114.46546      310.88969      0.23040181   
   1738000   517.81513      1366.1669      1883.982       168.21257      305.75095      0.22630949   
   1739000   527.301        1402.0351      1929.3361      230.56972      313.77834      0.22059913   
   1740000   525.09884      1368.4889      1893.5878      244.20642      306.27063      0.21785489   
   1741000   549.7231       1348.4123      1898.1354      186.33236      301.77745      0.21875913   
   1742000   550.41983      1345.0431      1895.4629      177.62162      301.02341      0.22580672   
   1743000   529.06845      1384.3726      1913.441       189.82583      309.82542      0.23433499   
   1744000   528.20495      1353.4375      1881.6425      205.73086      302.9021       0.2381975    
   1745000   499.66754      1382.3429      1882.0104      167.79022      309.37117      0.237582     
   1746000   550.35884      1394.3132      1944.672       160.96355      312.05015      0.2306232    
   1747000   537.07118      1374.0296      1911.1008      180.94851      307.51064      0.22166896   
   1748000   542.34516      1343.9354      1886.2806      191.79424      300.7755       0.21795102   
   1749000   524.17247      1355.901       1880.0734      242.46898      303.45342      0.21943776   
   1750000   540.28444      1399.8723      1940.1567      286.18474      313.29429      0.2211889    
   1751000   519.05086      1386.6635      1905.7144      285.55803      310.33814      0.22210212   
   1752000   533.13441      1346.5359      1879.6703      236.41744      301.3575       0.22444506   
   1753000   509.85577      1351.6826      1861.5384      274.55543      302.50934      0.22931611   
   1754000   505.2237       1363.4909      1868.7146      254.72687      305.15206      0.23367237   
   1755000   522.7069       1324.4643      1847.1712      261.84284      296.41782      0.2333403    
   1756000   516.5593       1336.3904      1852.9497      171.71579      299.08692      0.22872344   
   1757000   532.88216      1312.3894      1845.2716      79.455796      293.71544      0.22263571   
   1758000   505.55456      1339.3853      1844.9399      141.17328      299.75719      0.22118439   
   1759000   543.62688      1278.2593      1821.8861      121.1613       286.07704      0.22026503   
   1760000   507.12776      1287.3773      1794.5051      159.37077      288.11769      0.21957838   
   1761000   538.99858      1310.971       1849.9696      243.74652      293.398        0.2234854    
   1762000   513.01203      1337.4546      1850.4666      222.86459      299.32508      0.22668059   
   1763000   518.67029      1325.9924      1844.6627      262.60296      296.75983      0.22616592   
   1764000   514.07237      1354.292       1868.3644      216.64287      303.09333      0.22201646   
   1765000   541.00414      1322.5818      1863.586       242.63767      295.99653      0.22222307   
   1766000   523.85088      1333.9977      1857.8486      262.86767      298.55143      0.22647096   
   1767000   511.85238      1336.2036      1848.056       172.37428      299.04511      0.2321502    
   1768000   516.88309      1314.4256      1831.3087      65.373958      294.17116      0.23624728   
   1769000   507.65896      1288.9314      1796.5904      45.354799      288.4655       0.23669211   
   1770000   480.50427      1278.1063      1758.6105      19.857617      286.0428       0.23024539   
   1771000   517.0554       1333.6248      1850.6802      82.517334      298.46797      0.22505707   
   1772000   562.08805      1323.4171      1885.5052      217.77389      296.18347      0.22923529   
   1773000   508.20034      1349.2606      1857.4609      440.5969       301.96729      0.2395161    
   1774000   520.76147      1384.8735      1905.6349      452.73413      309.93753      0.24276676   
   1775000   560.03028      1359.2404      1919.2707      335.79359      304.2008       0.23604761   
   1776000   533.25056      1356.3219      1889.5725      91.737909      303.54763      0.22718339   
   1777000   517.01767      1386.3304      1903.3481      54.659965      310.2636       0.22559407   
   1778000   515.53828      1388.002       1903.5403      35.622565      310.6377       0.22688934   
   1779000   546.7081       1354.1621      1900.8702      146.37298      303.06425      0.22863757   
   1780000   506.9925       1363.9911      1870.9836      247.8311       305.26401      0.22732477   
   1781000   528.24548      1377.5096      1905.7551      346.33228      308.28949      0.22828496   
   1782000   561.3408       1401.4055      1962.7463      405.40035      313.63744      0.23670551   
   1783000   544.38751      1337.0525      1881.44        342.08635      299.2351       0.24191871   
   1784000   476.83158      1387.3821      1864.2137      199.36365      310.49897      0.23958992   
   1785000   483.5033       1364.1277      1847.631       181.51135      305.29458      0.23628874   
   1786000   539.8062       1342.7347      1882.5409      125.58251      300.50678      0.22586547   
   1787000   556.91757      1378.3758      1935.2934      223.41503      308.48334      0.22108824   
   1788000   516.6518       1354.6353      1871.2871      278.37856      303.17016      0.22291007   
   1789000   532.67548      1360.5001      1893.1756      250.10671      304.48272      0.22912916   
   1790000   519.52563      1361.8698      1881.3954      191.81323      304.78925      0.23669865   
   1791000   498.76039      1354.4934      1853.2538      211.97554      303.13841      0.24355614   
   1792000   551.13557      1332.941       1884.0766      129.86064      298.31494      0.24099587   
   1793000   521.5474       1381.69        1903.2374      191.84327      309.22506      0.23676432   
   1794000   517.55885      1373.7869      1891.3458      268.96412      307.45633      0.23223723   
   1795000   541.60008      1339.6502      1881.2503      305.63851      299.81646      0.22729189   
   1796000   521.0761       1317.3132      1838.3893      330.09592      294.8174       0.22477968   
   1797000   543.50729      1327.5698      1871.0771      244.60982      297.11285      0.22377137   
   1798000   523.6983       1312.2724      1835.9707      175.39668      293.68925      0.22396509   
   1799000   536.82547      1330.6804      1867.5058      72.759892      297.809        0.22629754   
   1800000   558.2213       1312.5972      1870.8185      96.121654      293.76195      0.22743971   
   1801000   510.00519      1312.3537      1822.3589      111.43083      293.70745      0.22816308   
   1802000   525.51107      1322.0968      1847.6078      123.79615      295.88797      0.22841884   
   1803000   503.95502      1331.2876      1835.2427      144.73071      297.9449       0.2296237    
   1804000   493.52373      1313.516       1807.0397      108.8316       293.96757      0.23063628   
   1805000   511.74674      1340.0274      1851.7742      183.4052       299.90089      0.23587291   
   1806000   510.13529      1377.7754      1887.9107      225.9126       308.34896      0.24103114   
   1807000   486.90332      1353.2655      1840.1688      273.15882      302.86359      0.24594376   
   1808000   498.40035      1303.9787      1802.3791      200.80598      291.83311      0.24401614   
   1809000   498.15308      1334.885       1833.038       41.834564      298.75         0.23197691   
   1810000   493.21385      1339.7447      1832.9586      61.561346      299.83762      0.22671137   
   1811000   524.28483      1289.9448      1814.2296      115.53859      288.69229      0.22539251   
   1812000   505.83766      1317.6856      1823.5233      183.74584      294.90074      0.2257074    
   1813000   490.93802      1343.7579      1834.6959      319.5409       300.73578      0.23007826   
   1814000   522.8465       1329.9385      1852.785       340.65313      297.64296      0.23797018   
   1815000   499.82173      1383.8133      1883.635       364.94544      309.70025      0.24622595   
   1816000   480.43405      1368.4198      1848.8538      321.37365      306.25516      0.24852889   
   1817000   478.38187      1358.7342      1837.1161      303.78721      304.08751      0.25159141   
   1818000   500.56579      1364.1704      1864.7361      249.50609      305.30413      0.25586993   
   1819000   528.85538      1379.3917      1908.2471      193.75596      308.7107       0.25140765   
   1820000   532.60741      1343.9742      1876.5816      205.92669      300.78419      0.23693878   
   1821000   501.27634      1389.7114      1890.9878      307.28197      311.02027      0.23174074   
   1822000   500.84549      1355.5915      1856.437       300.16218      303.38416      0.23334933   
   1823000   518.03859      1375.7359      1893.7745      247.30347      307.89251      0.23957548   
   1824000   508.67679      1355.1243      1863.8011      176.938        303.27959      0.24797535   
   1825000   495.49543      1355.9285      1851.4239      140.14606      303.45957      0.25107726   
   1826000   501.92084      1367.1919      1869.1127      113.67502      305.98035      0.24781388   
   1827000   507.61138      1404.9372      1912.5486      248.89994      314.42784      0.24739788   
   1828000   504.81795      1381.5185      1886.3364      380.57138      309.18667      0.24389957   
   1829000   508.34138      1355.5142      1863.8556      442.81787      303.36686      0.24089704   
   1830000   529.68207      1322.8219      1852.504       334.01907      296.05026      0.23355652   
   1831000   532.8394       1280.3225      1813.1619      285.89892      286.5388       0.22086946   
   1832000   500.78554      1326.2704      1827.056       222.6102       296.82205      0.21669493   
   1833000   517.26212      1318.4696      1835.7317      121.99779      295.07621      0.22310808   
   1834000   529.16061      1320.4258      1849.5864      119.10317      295.51401      0.23198068   
   1835000   481.12557      1330.838       1811.9636      203.70256      297.84427      0.23551872   
   1836000   485.59029      1303.7983      1789.3886      245.80799      291.79273      0.237616     
   1837000   478.37761      1353.1351      1831.5127      370.10438      302.83441      0.23973731   
   1838000   541.67371      1381.337       1923.0107      426.93328      309.14605      0.24093557   
   1839000   515.71822      1354.9852      1870.7034      298.17326      303.24847      0.23189921   
   1840000   530.68525      1383.5803      1914.2656      185.49253      309.64812      0.22402713   
   1841000   542.92342      1377.7873      1920.7107      103.20832      308.35162      0.22323192   
   1842000   533.95827      1354.7002      1888.6584      134.11142      303.18468      0.22914354   
   1843000   500.75125      1363.9631      1864.7144      129.65263      305.25775      0.23277565   
   1844000   496.82904      1347.1184      1843.9474      245.41256      301.48786      0.23559277   
   1845000   506.70227      1300.3054      1807.0076      337.3278       291.01101      0.23250818   
   1846000   539.86878      1286.899       1826.7677      297.12598      288.01063      0.22769781   
   1847000   536.89298      1315.6843      1852.5773      214.39009      294.45285      0.22320027   
   1848000   501.22318      1304.1881      1805.4113      149.31086      291.87997      0.22004799   
   1849000   504.33942      1326.5177      1830.8572      126.85137      296.87739      0.22095117   
   1850000   522.74501      1333.4594      1856.2044      121.40667      298.43094      0.22535984   
   1851000   519.85405      1355.965       1875.8191      140.78218      303.46775      0.23138978   
   1852000   539.61097      1368.352       1907.963       98.295229      306.24         0.23828317   
   1853000   500.42816      1370.8696      1871.2978      96.975968      306.80344      0.24289171   
   1854000   479.0536       1368.9205      1847.9741     -14.866872      306.36721      0.24432785   
   1855000   521.03457      1358.8608      1879.8954      80.551994      304.11584      0.24623135   
   1856000   505.2266       1380.6387      1885.8653      187.205        308.98977      0.24198856   
   1857000   510.49633      1378.4564      1888.9527      272.48531      308.50136      0.23487116   
   1858000   527.9805       1357.2119      1885.1924      369.89853      303.7468       0.22926713   
   1859000   555.60357      1337.2987      1892.9023      365.64862      299.2902       0.2233066    
   1860000   528.87205      1354.0574      1882.9294      284.35335      303.04082      0.22188467   
   1861000   516.67167      1361.0198      1877.6915      310.02082      304.59903      0.22800542   
   1862000   527.82198      1351.8985      1879.7205      213.63921      302.55765      0.23386501   
   1863000   529.37238      1386.6692      1916.0416      264.52598      310.33942      0.23669644   
   1864000   501.05977      1382.7469      1883.8067      240.85115      309.46161      0.23466094   
   1865000   501.56609      1358.0869      1859.6529      218.60414      303.94263      0.23345722   
   1866000   491.7293       1348.7978      1840.5271      214.87187      301.86373      0.23246154   
   1867000   540.51091      1326.5695      1867.0804      167.40339      296.88898      0.23050957   
   1868000   520.12293      1309.0442      1829.1671      228.45319      292.96677      0.22688784   
   1869000   510.15247      1286.8424      1796.9949      115.57017      287.99798      0.22362058   
   1870000   508.74942      1289.2734      1798.0228      101.91684      288.54202      0.22471475   
   1871000   488.13659      1323.679       1811.8156      87.484977      296.24207      0.22622492   
   1872000   505.93846      1332.2064      1838.1449      68.52916       298.15053      0.22727935   
   1873000   506.34516      1336.1246      1842.4697      100.6086       299.02742      0.22765938   
   1874000   529.81902      1298.1686      1827.9876      103.57767      290.53279      0.22583606   
   1875000   528.05419      1345.9091      1873.9633      197.67695      301.21722      0.22774451   
   1876000   505.81773      1379.309       1885.1268      328.08586      308.6922       0.23682228   
   1877000   512.33828      1351.8391      1864.1774      315.91713      302.54437      0.2482743    
   1878000   520.01775      1384.1069      1904.1247      264.48589      309.76598      0.24943118   
   1879000   522.92692      1346.6004      1869.5274      108.24082      301.37194      0.24333247   
   1880000   516.47929      1338.0906      1854.5699      77.78795       299.46743      0.23784335   
   1881000   508.25963      1410.6858      1918.9455      74.478257      315.71439      0.23661927   
   1882000   525.7658       1369.8781      1895.6439      110.98181      306.58152      0.24329323   
   1883000   495.10704      1368.757       1863.8641      158.84391      306.33063      0.24863443   
   1884000   519.6988       1352.9908      1872.6896      185.97753      302.80212      0.24751227   
   1885000   527.48223      1375.4258      1902.908       213.3281       307.82312      0.24535086   
   1886000   521.40744      1355.2067      1876.6141      256.43401      303.29804      0.24641818   
   1887000   511.18477      1345.5158      1856.7006      286.80425      301.1292       0.24379087   
   1888000   514.11733      1338.6538      1852.7711      288.19597      299.59347      0.23758742   
   1889000   505.4156       1343.4468      1848.8624      288.90241      300.66614      0.23450846   
   1890000   493.86053      1324.2157      1818.0762      244.76446      296.36219      0.23450097   
   1891000   479.61439      1333.4505      1813.0649      207.40411      298.42896      0.23753991   
   1892000   478.01866      1304.1488      1782.1674      259.94789      291.87117      0.24454635   
   1893000   505.6884       1335.9076      1841.596       279.86336      298.97887      0.24741188   
   1894000   474.2894       1363.021       1837.3104      310.26764      305.0469       0.24312141   
   1895000   505.71189      1333.1076      1838.8195      161.474        298.35222      0.2359885    
   1896000   528.21683      1291.9092      1820.126       54.442886      289.13193      0.23065243   
   1897000   513.43948      1341.7707      1855.2102     -0.25890249     300.29103      0.23019273   
   1898000   525.53785      1365.1575      1890.6954      87.204603      305.52506      0.23415407   
   1899000   516.50809      1333.8519      1850.36        143.81339      298.5188       0.24274293   
   1900000   504.63664      1323.4816      1828.1183      287.72113      296.1979       0.25135776   
   1901000   502.32486      1305.8991      1808.2239      315.56706      292.26289      0.24893669   
   1902000   523.34481      1331.8197      1855.1645      252.98949      298.06398      0.24280776   
   1903000   499.38156      1316.1522      1815.5337      269.96857      294.55756      0.23986951   
   1904000   521.83469      1327.3459      1849.1806      308.41621      297.06273      0.23591161   
   1905000   511.84221      1313.084       1824.9262      259.6557       293.8709       0.22968994   
   1906000   483.68842      1284.7647      1768.4532      213.51209      287.53299      0.22735235   
   1907000   533.14675      1287.6149      1820.7616      193.42661      288.17085      0.2280258    
   1908000   502.8236       1331.1527      1833.9763      264.77864      297.91471      0.22961604   
   1909000   501.75857      1333.6992      1835.4578      232.73212      298.48463      0.22986585   
   1910000   494.03784      1350.0039      1844.0418      349.96384      302.13365      0.2340697    
   1911000   488.72645      1327.1033      1815.8297      397.96356      297.00844      0.24002185   
   1912000   515.12299      1359.2558      1874.3788      372.24803      304.20423      0.24195587   
   1913000   517.48899      1351.3964      1868.8854      230.42775      302.44529      0.23630733   
   1914000   525.47598      1373.1016      1898.5775      110.76244      307.30295      0.22807769   
   1915000   514.34434      1349.8606      1864.205       132.60768      302.10158      0.22400829   
   1916000   509.6665       1376.7645      1886.431       111.04228      308.12272      0.2211925    
   1917000   510.34172      1361.1681      1871.5098      184.6051       304.6322       0.22168888   
   1918000   528.21313      1346.6189      1874.832       239.79538      301.37608      0.22740686   
   1919000   506.69667      1411.8485      1918.5451      242.37529      315.97459      0.23425287   
   1920000   517.40737      1365.4113      1882.8187      305.66522      305.58186      0.23327806   
   1921000   516.15796      1344.681       1860.8389      272.16682      300.94236      0.22429749   
   1922000   544.78789      1309.8984      1854.6863      253.41046      293.15795      0.21816982   
   1923000   513.22653      1330.7856      1844.0121      173.76243      297.83255      0.21878102   
   1924000   510.06492      1343.4334      1853.4984      120.74949      300.66316      0.22946549   
   1925000   526.54262      1317.9919      1844.5345      83.681927      294.96928      0.23524706   
   1926000   524.96692      1316.6735      1841.6404      28.615554      294.67423      0.23647256   
   1927000   502.36215      1329.3896      1831.7517      72.501482      297.52011      0.23591178   
   1928000   527.44855      1327.6611      1855.1096      147.99219      297.13327      0.23212201   
   1929000   526.80773      1338.5175      1865.3253      162.43258      299.56297      0.22785629   
   1930000   510.07176      1335.1663      1845.2381      253.56321      298.81297      0.22886513   
   1931000   511.68443      1319.5713      1831.2557      252.69035      295.32276      0.23545646   
   1932000   468.00032      1307.4458      1775.4461      290.39465      292.60905      0.24670462   
   1933000   502.61509      1335.7568      1838.3719      169.16549      298.94512      0.25080325   
   1934000   512.60539      1283.4592      1796.0646      86.724671      287.24081      0.24684832   
   1935000   502.0994       1319.6276      1821.727       122.27558      295.33537      0.24157342   
   1936000   517.02718      1335.5098      1852.537       118.61968      298.88983      0.23493353   
   1937000   549.41707      1319.4577      1868.8748      119.3052       295.29734      0.22610751   
   1938000   509.8068       1329.0202      1838.827       213.77524      297.43744      0.22149895   
   1939000   519.34216      1264.7146      1784.0567      234.23123      283.04572      0.21960274   
   1940000   498.86974      1306.644       1805.5137      289.85468      292.4296       0.22393227   
   1941000   512.32063      1324.9782      1837.2989      308.12409      296.53285      0.23022973   
   1942000   490.61823      1309.4832      1800.1014      207.87343      293.06502      0.23151706   
   1943000   483.14305      1332.8503      1815.9934      71.072925      298.29464      0.23564648   
   1944000   490.58831      1290.9179      1781.5062      86.392909      288.91008      0.2422148    
   1945000   520.04079      1314.3168      1834.3576      39.837211      294.1468       0.24391712   
   1946000   474.05468      1318.0955      1792.1502      132.54694      294.99247      0.24283211   
   1947000   517.61616      1303.6405      1821.2566      191.77452      291.75741      0.23543161   
   1948000   517.78146      1332.2937      1850.0752      248.31436      298.17007      0.22549331   
   1949000   543.58066      1315.0001      1858.5808      183.91969      294.29972      0.21760295   
   1950000   509.0746       1304.339       1813.4136      206.2539       291.91375      0.21814133   
   1951000   531.51505      1338.6123      1870.1274      150.87574      299.58418      0.2234561    
   1952000   496.52683      1348.7185      1845.2453      272.62466      301.84597      0.23286736   
   1953000   533.53506      1397.5165      1931.0515      268.58605      312.76705      0.2363252    
   1954000   522.92408      1384.5287      1907.4528      217.5957       309.86036      0.23577253   
   1955000   503.33628      1366.1819      1869.5182      189.10119      305.75431      0.23799004   
   1956000   505.66232      1374.5656      1880.228       152.60574      307.63061      0.24227281   
   1957000   502.7521       1349.3825      1852.1346      221.70681      301.99457      0.24374431   
   1958000   494.88491      1373.0967      1867.9816      248.22018      307.30186      0.2408247    
   1959000   491.73456      1399.1976      1890.9322      208.11619      313.14329      0.23259334   
   1960000   538.22556      1341.3592      1879.5847      240.11922      300.19894      0.22111788   
   1961000   554.751        1339.3777      1894.1287      126.2776       299.75548      0.21633101   
   1962000   536.93085      1327.4837      1864.4146      110.25991      297.09358      0.2232643    
   1963000   489.27576      1327.1133      1816.3891      108.12985      297.01068      0.23157937   
   1964000   505.32757      1313.475       1818.8026      102.89267      293.95841      0.23725384   
   1965000   544.90078      1272.7592      1817.66        94.53775       284.84613      0.24155875   
   1966000   523.4512       1301.2386      1824.6898      94.199963      291.21988      0.24365406   
   1967000   507.49315      1311.2049      1818.6981      188.08483      293.45036      0.24167461   
   1968000   529.43158      1327.0774      1856.509       196.14004      297.00265      0.23276254   
   1969000   514.62896      1336.7448      1851.3737      178.54463      299.16623      0.22387745   
   1970000   516.68541      1331.9516      1848.637       240.69349      298.0935       0.22599611   
   1971000   538.8058       1346.094       1884.8998      247.42507      301.2586       0.22961109   
   1972000   527.0225       1375.3174      1902.3399      229.28399      307.79885      0.23217387   
   1973000   487.22359      1390.3292      1877.5528      263.1607       311.15852      0.23405443   
   1974000   506.00641      1364.4051      1870.4115      179.30658      305.35667      0.23400742   
   1975000   531.62056      1357.6918      1889.3124      111.9675       303.85422      0.23331281   
   1976000   527.50531      1363.8646      1891.3699      112.95471      305.23569      0.23226307   
   1977000   529.16876      1404.2419      1933.4106      56.773617      314.27221      0.22858765   
   1978000   523.40281      1371.3336      1894.7364      49.808869      306.90727      0.22419355   
   1979000   514.51307      1373.7163      1888.2294      206.60424      307.44053      0.22021278   
   1980000   538.62679      1345.0621      1883.6889      263.84829      301.02767      0.21675111   
   1981000   511.67932      1388.6977      1900.377       412.95231      310.7934       0.22191109   
   1982000   540.93968      1354.5086      1895.4483      416.70149      303.14181      0.22978608   
   1983000   508.52174      1359.2808      1867.8025      296.86288      304.20983      0.23508646   
   1984000   514.45738      1326.953       1841.4103      193.20687      296.9748       0.23987711   
   1985000   490.79491      1338.2371      1829.032       95.621954      299.50021      0.24117495   
   1986000   511.3229       1317.9878      1829.3107      31.275301      294.96838      0.24069081   
   1987000   551.35814      1323.6602      1875.0183      48.620508      296.23786      0.23967641   
   1988000   503.511        1360.0803      1863.5913      65.188381      304.38877      0.23623261   
   1989000   532.50447      1323.6941      1856.1986      159.89523      296.24545      0.23330583   
   1990000   529.82885      1316.239       1846.0678      217.61219      294.57698      0.22717092   
   1991000   521.91253      1355.5394      1877.4519      339.12175      303.3725       0.22463489   
   1992000   517.11378      1349.3069      1866.4206      319.66357      301.97764      0.23018916   
   1993000   483.05823      1277.5265      1760.5847      364.99172      285.91304      0.24514006   
   1994000   499.69862      1316.9726      1816.6712      240.25376      294.74117      0.2523714    
   1995000   489.6138       1319.3652      1808.979       141.73978      295.27665      0.24973088   
   1996000   478.28         1329.7203      1808.0003      118.54925      297.59413      0.2496136    
   1997000   517.71236      1291.5647      1809.2771      61.851645      289.05484      0.24907205   
   1998000   473.10631      1359.457       1832.5633      231.72123      304.24926      0.24482501   
   1999000   502.5146       1347.8111      1850.3257      192.52174      301.64288      0.23445636   
   2000000   494.66419      1360.319       1854.9832      209.42136      304.44219      0.22826955   
Loop time of 9357.74 on 8 procs for 2000000 steps with 1500 atoms

Performance: 9.233 ns/day, 2.599 hours/ns, 213.727 timesteps/s, 320.590 katom-step/s
99.4% CPU use with 8 MPI tasks x 1 OpenMP threads

MPI task timing breakdown:
Section |  min time  |  avg time  |  max time  |%varavg| %total
---------------------------------------------------------------
Pair    | 449.73     | 511.21     | 535.93     | 118.7 |  5.46
Bond    | 25.843     | 26.505     | 27.958     |  12.0 |  0.28
Kspace  | 4547.7     | 4575.8     | 4642.8     |  41.2 | 48.90
Neigh   | 7.3456     | 7.4903     | 7.6927     |   5.0 |  0.08
Comm    | 258.34     | 272.91     | 283.76     |  53.5 |  2.92
Output  | 0.30216    | 0.49896    | 1.8742     |  73.6 |  0.01
Modify  | 3405.3     | 3616.2     | 3944.2     | 281.5 | 38.64
Other   |            | 347.1      |            |       |  3.71

Nlocal:          187.5 ave         206 max         167 min
Histogram: 2 0 0 2 0 1 0 0 1 2
Nghost:        2075.12 ave        2136 max        2034 min
Histogram: 2 1 0 0 3 0 0 1 0 1
Neighs:          19516 ave       22096 max       16903 min
Histogram: 1 0 2 0 1 1 0 2 0 1

Total # of neighbors = 156128
Ave neighs/atom = 104.08533
Ave special neighs/atom = 2
Neighbor list builds = 12138
Dangerous builds = 0
System init for write_data ...
PPPM initialization ...
  using 12-bit tables for long-range coulomb (src/kspace.cpp:342)
  G vector (1/distance) = 0.27092712
  grid = 45 45 45
  stencil order = 5
  estimated absolute RMS force accuracy = 0.00039026968
  estimated relative force accuracy = 1.1752856e-06
  using single precision FFTW3
  3d grid and FFT values/proc = 27000 12420
Generated 1 of 1 mixed pair_coeff terms from arithmetic mixing rule
Last active /omp style is kspace_style pppm/omp
