LAMMPS (19 Nov 2024)
OMP_NUM_THREADS environment is not set. Defaulting to 1 thread. (src/comm.cpp:99)
  using 1 OpenMP thread(s) per MPI task
using multi-threaded neighbor list subroutines
Reading data file ...
  orthogonal box = (0 0 0) to (54.965023 54.965023 54.965023)
  2 by 2 by 2 MPI processor grid
  reading atoms ...
  1500 atoms
  scanning bonds ...
  1 = max bonds/atom
  scanning angles ...
  1 = max angles/atom
  orthogonal box = (0 0 0) to (54.965023 54.965023 54.965023)
  2 by 2 by 2 MPI processor grid
  reading bonds ...
  1000 bonds
  reading angles ...
  500 angles
Finding 1-2 1-3 1-4 neighbors ...
  special bond factors lj:    0        0        0       
  special bond factors coul:  0        0        0       
     2 = max # of 1-2 neighbors
     1 = max # of 1-3 neighbors
     1 = max # of 1-4 neighbors
     2 = max # of special neighbors
  special bonds CPU = 0.000 seconds
  read_data CPU = 0.031 seconds
Setting atom values ...
  1000 settings made for charge
Setting atom values ...
  500 settings made for charge
1000 atoms in group oxy
500 atoms in group carb
PPPM initialization ...
  using 12-bit tables for long-range coulomb (src/kspace.cpp:342)
  G vector (1/distance) = 0.2675861
  grid = 50 50 50
  stencil order = 5
  estimated absolute RMS force accuracy = 0.00039584402
  estimated relative force accuracy = 1.1920725e-06
  using single precision FFTW3
  3d grid and FFT values/proc = 32768 16250
Generated 1 of 1 mixed pair_coeff terms from arithmetic mixing rule
Last active /omp style is kspace_style pppm/omp
Neighbor list info ...
  update: every = 1 steps, delay = 0 steps, check = yes
  max neighbors/atom: 2000, page size: 100000
  master list distance cutoff = 15
  ghost atom cutoff = 15
  binsize = 7.5, bins = 8 8 8
  1 neighbor lists, perpetual/occasional/extra = 1 0 0
  (1) pair lj/cut/coul/long/omp, perpetual
      attributes: half, newton on, omp
      pair build: half/bin/newton/omp
      stencil: half/bin/3d
      bin: standard
Setting up cg style minimization ...
  Unit style    : real
  Current step  : 0
Per MPI rank memory allocation (min/avg/max) = 9.757 | 9.787 | 9.817 Mbytes
   Step          Temp          E_pair         E_mol          TotEng         Press     
         0   0              12.721715      1.4941382e-05  12.72173       247.996      
      4502   0             -433.1298       0.27465943    -432.85514     -20.126401    
Loop time of 26.274 on 8 procs for 4502 steps with 1500 atoms

99.4% CPU use with 8 MPI tasks x 1 OpenMP threads

Minimization stats:
  Stopping criterion = energy tolerance
  Energy initial, next-to-last, final = 
      12.7217296754327   -432.85490454627  -432.855139869723
  Force two-norm initial, final = 96.937021 1.9281309
  Force max component initial, final = 12.09215 0.36353957
  Final line search alpha, max atom move = 0.90330039 0.32838544
  Iterations, force evaluations = 4502 9005

MPI task timing breakdown:
Section |  min time  |  avg time  |  max time  |%varavg| %total
---------------------------------------------------------------
Pair    | 1.7308     | 2.7327     | 3.6483     |  40.7 | 10.40
Bond    | 0.06474    | 0.080329   | 0.095327   |   3.7 |  0.31
Kspace  | 21.551     | 22.482     | 23.504     |  14.4 | 85.57
Neigh   | 0.010373   | 0.010445   | 0.010556   |   0.1 |  0.04
Comm    | 0.72024    | 0.74476    | 0.76934    |   1.8 |  2.83
Output  | 0          | 0          | 0          |   0.0 |  0.00
Modify  | 0.019823   | 0.021739   | 0.024569   |   1.0 |  0.08
Other   |            | 0.2019     |            |       |  0.77

Nlocal:          187.5 ave         257 max         127 min
Histogram: 2 0 1 1 1 0 0 1 0 2
Nghost:        1600.38 ave        1671 max        1506 min
Histogram: 1 0 0 2 0 0 1 3 0 1
Neighs:          15038 ave       21869 max        7174 min
Histogram: 2 0 1 0 0 1 0 2 1 1

Total # of neighbors = 120304
Ave neighs/atom = 80.202667
Ave special neighs/atom = 2
Neighbor list builds = 22
Dangerous builds = 0
PPPM initialization ...
  using 12-bit tables for long-range coulomb (src/kspace.cpp:342)
  G vector (1/distance) = 0.2675861
  grid = 50 50 50
  stencil order = 5
  estimated absolute RMS force accuracy = 0.00039584402
  estimated relative force accuracy = 1.1920725e-06
  using single precision FFTW3
  3d grid and FFT values/proc = 32768 16250
Generated 1 of 1 mixed pair_coeff terms from arithmetic mixing rule
Last active /omp style is kspace_style pppm/omp
Setting up Verlet run ...
  Unit style    : real
  Current step  : 4502
  Time step     : 0.1
Per MPI rank memory allocation (min/avg/max) = 8.649 | 8.671 | 8.693 Mbytes
   Step         PotEng         KinEng         TotEng         Press           Temp        v_Density   
      4502  -432.85514      1340.4703      907.61514      348.87737      300            0.13956373   
      5000   35.490591      1365.93        1401.4206      276.41425      305.69793      0.13637207   
      6000   268.71553      1263.4979      1532.2134      145.93769      282.77342      0.10828597   
      7000   158.77769      1435.5632      1594.3409      169.25023      321.28199      0.10297025   
      8000   341.28184      1228.4921      1569.7739      82.614864      274.93904      0.10578183   
      9000   189.52026      1417.4028      1606.9231      166.9266       317.21767      0.10895052   
     10000   310.0421       1282.9735      1593.0156      101.95811      287.1321       0.11641822   
     11000   232.72621      1366.1842      1598.9104      141.21205      305.75483      0.12260773   
     12000   270.99739      1341.353       1612.3504      131.18664      300.19756      0.12576601   
     13000   326.03086      1317.114       1643.1449      122.92566      294.77282      0.126299     
     14000   268.27631      1346.8628      1615.1391      161.69035      301.43067      0.13115856   
     15000   305.08959      1289.5685      1594.6581      113.09103      288.60808      0.13624358   
     16000   265.2445       1369.5792      1634.8237      137.81462      306.51464      0.13387487   
     17000   327.50693      1309.6712      1637.1781      141.94559      293.1071       0.13586826   
     18000   276.20196      1355.9132      1632.1152      179.54154      303.45616      0.14217614   
     19000   313.26737      1304.0346      1617.302       115.96809      291.84563      0.13948566   
     20000   318.14485      1304.8264      1622.9712      111.26029      292.02282      0.13078808   
     21000   326.95015      1319.2491      1646.1993      157.84776      295.25067      0.13726715   
     22000   303.83727      1284.4766      1588.3139      137.80401      287.4685       0.14005845   
     23000   312.94892      1309.505       1622.4539      136.95503      293.06991      0.139796     
     24000   310.01146      1324.9321      1634.9435      148.6324       296.52252      0.13303248   
     25000   346.17827      1315.8575      1662.0358      124.63299      294.49162      0.1245041    
     26000   356.57725      1284.7564      1641.3337      109.59353      287.53113      0.12283935   
     27000   316.04299      1305.1548      1621.1978      144.45854      292.09633      0.13134375   
     28000   341.20981      1302.0032      1643.213       142.14847      291.39098      0.13339698   
     29000   335.84871      1342.1578      1678.0065      124.53042      300.37767      0.12914192   
     30000   344.36461      1347.8598      1692.2244      133.15565      301.65379      0.12895202   
     31000   340.31303      1358.583       1698.8961      143.54999      304.05367      0.12553303   
     32000   385.016        1334.6897      1719.7057      136.90651      298.7063       0.1309344    
     33000   374.81368      1367.3749      1742.1886      106.53757      306.02131      0.12757092   
     34000   364.56967      1343.3688      1707.9385      125.38347      300.64869      0.12205392   
     35000   363.75584      1354.3848      1718.1407      183.01991      303.1141       0.12860538   
     36000   341.60704      1376.8217      1718.4288      153.03184      308.13553      0.13334164   
     37000   375.5113       1362.0634      1737.5747      65.835807      304.83258      0.12603765   
     38000   361.77166      1346.2561      1708.0278      146.7244       301.29488      0.12485478   
     39000   336.41303      1357.206       1693.619       195.83342      303.74549      0.13039702   
     40000   342.60361      1336.5633      1679.1669      141.3342       299.12561      0.13180758   
     41000   366.95703      1310.306       1677.2631      80.27456       293.24918      0.12673392   
     42000   337.51249      1318.4873      1655.9998      142.03202      295.08016      0.11936411   
     43000   368.02913      1329.1242      1697.1533      189.64449      297.46072      0.12239679   
     44000   356.13192      1331.1462      1687.2781      109.84666      297.91324      0.12649578   
     45000   349.83183      1293.5872      1643.419       91.660805      289.50746      0.13000586   
     46000   354.82543      1309.5715      1664.397       151.63444      293.0848       0.12774999   
     47000   336.45224      1303.9779      1640.4302      202.05562      291.83293      0.13058669   
     48000   349.64393      1319.6596      1669.3035      107.38483      295.34252      0.12878429   
     49000   346.86796      1401.4602      1748.3282      81.459985      313.64967      0.12314787   
     50000   377.37019      1367.1316      1744.5017      182.74755      305.96685      0.12272602   
     51000   362.10103      1337.013       1699.114       221.43637      299.22625      0.12904321   
     52000   362.42688      1334.7679      1697.1948      69.138173      298.72379      0.1303748    
     53000   366.55175      1344.9518      1711.5035      65.405135      301.00297      0.12663074   
     54000   356.09963      1328.7196      1684.8193      253.55224      297.37018      0.12507337   
     54502   365.66005      1344.4066      1710.0666      15.673408      300.88095      0.1214591    
Loop time of 277.022 on 8 procs for 50000 steps with 1500 atoms

Performance: 1.559 ns/day, 15.390 hours/ns, 180.491 timesteps/s, 270.736 katom-step/s
99.4% CPU use with 8 MPI tasks x 1 OpenMP threads

MPI task timing breakdown:
Section |  min time  |  avg time  |  max time  |%varavg| %total
---------------------------------------------------------------
Pair    | 5.5431     | 8.5128     | 10.645     |  55.0 |  3.07
Bond    | 0.44392    | 0.52714    | 0.59914    |   7.6 |  0.19
Kspace  | 132.11     | 134.26     | 137.3      |  14.4 | 48.47
Neigh   | 0.045054   | 0.045195   | 0.045377   |   0.0 |  0.02
Comm    | 4.1644     | 4.3142     | 4.447      |   4.3 |  1.56
Output  | 0.0027313  | 0.0029035  | 0.003947   |   0.7 |  0.00
Modify  | 114.93     | 121.72     | 128.26     |  48.3 | 43.94
Other   |            | 7.635      |            |       |  2.76

Nlocal:          187.5 ave         231 max         138 min
Histogram: 1 1 0 0 2 1 0 1 0 2
Nghost:           1425 ave        1474 max        1374 min
Histogram: 1 1 0 1 1 1 1 0 0 2
Neighs:        11016.1 ave       14484 max        6552 min
Histogram: 1 1 0 0 1 1 2 0 0 2

Total # of neighbors = 88129
Ave neighs/atom = 58.752667
Ave special neighs/atom = 2
Neighbor list builds = 95
Dangerous builds = 0
PPPM initialization ...
  using 12-bit tables for long-range coulomb (src/kspace.cpp:342)
  G vector (1/distance) = 0.2694729
  grid = 54 54 54
  stencil order = 5
  estimated absolute RMS force accuracy = 0.00032111171
  estimated relative force accuracy = 9.6701836e-07
  using single precision FFTW3
  3d grid and FFT values/proc = 39304 20412
Generated 1 of 1 mixed pair_coeff terms from arithmetic mixing rule
Last active /omp style is kspace_style pppm/omp
Setting up Verlet run ...
  Unit style    : real
  Current step  : 54502
  Time step     : 0.25
Per MPI rank memory allocation (min/avg/max) = 9.055 | 9.081 | 9.106 Mbytes
   Step         PotEng         KinEng         TotEng         Press           Temp        v_Density   
     54502   365.65947      1344.4066      1710.066       15.672696      300.88095      0.1214591    
     55000   392.50167      1314.2091      1706.7108      13.778748      294.1227       0.12806171   
     56000   391.65976      1273.9791      1665.6389      124.12305      285.11914      0.12789497   
     57000   404.11439      1331.2944      1735.4088      202.05225      297.94643      0.11935799   
     58000   378.0234       1316.0159      1694.0393      225.1632       294.52707      0.12433508   
     59000   380.43623      1329.4963      1709.9325      167.31914      297.544        0.13003651   
     60000   378.34015      1315.1757      1693.5158      127.0273       294.33901      0.12722158   
     61000   371.54302      1367.8846      1739.4277      80.402299      306.13539      0.12995463   
     62000   369.33593      1364.521       1733.857       95.958511      305.38261      0.12471839   
     63000   381.18751      1341.6554      1722.8429      152.49402      300.26524      0.12233053   
     64000   384.87234      1311.9623      1696.8347      195.87708      293.61986      0.13149002   
     65000   386.19166      1310.888       1697.0796      190.43389      293.37942      0.12687315   
     66000   387.26912      1369.6804      1756.9495      136.32344      306.53729      0.13084319   
     67000   408.85315      1360.5581      1769.4112      68.613024      304.49569      0.12223694   
     68000   412.46314      1343.4934      1755.9565      8.7181562      300.67657      0.12764606   
     69000   403.60002      1349.1645      1752.7645      105.51661      301.94577      0.12343068   
     70000   398.68547      1365.0428      1763.7283      207.72456      305.49939      0.13294608   
     71000   370.29352      1348.7664      1719.0599      215.26577      301.85668      0.13052004   
     72000   377.98421      1308.4649      1686.4491      165.26401      292.83713      0.12541346   
     73000   389.17092      1326.6981      1715.8691      122.24266      296.91777      0.12137506   
     74000   378.62113      1340.7168      1719.338       73.998902      300.05518      0.13183334   
     75000   375.80979      1366.4266      1742.2363      78.0417        305.80907      0.1227884    
     76000   382.00684      1370.6155      1752.6223      179.85302      306.74656      0.12708212   
     77000   376.16645      1390.164       1766.3305      231.58075      311.12156      0.11777838   
     78000   403.57651      1341.6502      1745.2267      199.23615      300.26408      0.12039125   
     79000   384.5729       1328.2383      1712.8112      132.03007      297.26246      0.12813719   
     80000   356.32504      1307.6958      1664.0209      72.161328      292.66501      0.13223566   
     81000   400.12617      1398.3949      1798.5211      69.584622      312.96366      0.1203952    
     82000   373.40772      1375.1309      1748.5386      136.83276      307.75712      0.12835199   
     83000   393.43299      1311.9556      1705.3886      205.03452      293.61835      0.13600437   
     84000   388.39824      1330.9133      1719.3115      218.19793      297.86113      0.12538368   
     85000   372.43554      1293.8849      1666.3204      154.83842      289.57409      0.13033453   
     86000   407.64073      1347.2171      1754.8578      76.309888      301.50995      0.1292997    
     87000   386.39078      1358.9188      1745.3096      49.969654      304.12881      0.13234526   
     88000   395.21577      1380.6625      1775.8782      92.696195      308.99509      0.13612458   
     89000   410.19271      1310.8755      1721.0682      140.47113      293.37662      0.12337435   
     90000   371.93898      1298.4463      1670.3853      229.34358      290.59495      0.13563554   
     91000   372.124        1361.6103      1733.7343      211.44736      304.73117      0.12793525   
     92000   401.71125      1409.7574      1811.4687      140.76862      315.50661      0.12288997   
     93000   380.66159      1345.793       1726.4546      81.243674      301.19123      0.13007905   
     94000   377.2672       1335.0432      1712.3104      44.061186      298.78542      0.12535239   
     95000   381.54645      1293.2939      1674.8404      90.27692       289.44183      0.12973646   
     96000   390.76818      1382.7512      1773.5194      199.6223       309.46256      0.12689426   
     97000   389.86636      1354.8981      1744.7645      222.95555      303.22898      0.12354262   
     98000   373.99919      1372.7296      1746.7288      188.07025      307.21971      0.124101     
     99000   358.08124      1347.5299      1705.6111      138.50801      301.57995      0.14056691   
    100000   384.43909      1356.0184      1740.4575      107.10368      303.4797       0.12939058   
    101000   396.05366      1339.9122      1735.9659      76.098348      299.8751       0.1272347    
    102000   409.57487      1352.0504      1761.6253      122.94715      302.59165      0.12833761   
    103000   411.52013      1336.1088      1747.6289      123.4521       299.02388      0.11870461   
    104000   405.02676      1349.4682      1754.495       157.30317      302.01376      0.12307542   
    104502   389.12498      1338.3701      1727.4951      153.20961      299.52997      0.12513987   
Loop time of 346.226 on 8 procs for 50000 steps with 1500 atoms

Performance: 3.119 ns/day, 7.694 hours/ns, 144.414 timesteps/s, 216.622 katom-step/s
99.5% CPU use with 8 MPI tasks x 1 OpenMP threads

MPI task timing breakdown:
Section |  min time  |  avg time  |  max time  |%varavg| %total
---------------------------------------------------------------
Pair    | 7.0023     | 7.8856     | 8.6997     |  23.2 |  2.28
Bond    | 0.50662    | 0.54355    | 0.56845    |   2.7 |  0.16
Kspace  | 169.25     | 170.05     | 170.96     |   5.0 | 49.12
Neigh   | 0.093565   | 0.093917   | 0.094214   |   0.1 |  0.03
Comm    | 4.4383     | 4.4971     | 4.5419     |   1.4 |  1.30
Output  | 0.0023328  | 0.002484   | 0.0034618  |   0.7 |  0.00
Modify  | 146.33     | 154.54     | 161.71     |  49.8 | 44.64
Other   |            | 8.615      |            |       |  2.49

Nlocal:          187.5 ave         209 max         166 min
Histogram: 1 0 1 0 2 1 1 1 0 1
Nghost:        1424.75 ave        1458 max        1385 min
Histogram: 1 0 1 1 1 1 0 1 0 2
Neighs:        10695.2 ave       12883 max        9142 min
Histogram: 1 1 1 1 2 0 1 0 0 1

Total # of neighbors = 85562
Ave neighs/atom = 57.041333
Ave special neighs/atom = 2
Neighbor list builds = 208
Dangerous builds = 0
PPPM initialization ...
  using 12-bit tables for long-range coulomb (src/kspace.cpp:342)
  G vector (1/distance) = 0.27003948
  grid = 54 54 54
  stencil order = 5
  estimated absolute RMS force accuracy = 0.00031185591
  estimated relative force accuracy = 9.3914482e-07
  using single precision FFTW3
  3d grid and FFT values/proc = 39304 20412
Generated 1 of 1 mixed pair_coeff terms from arithmetic mixing rule
Last active /omp style is kspace_style pppm/omp
Setting up Verlet run ...
  Unit style    : real
  Current step  : 104502
  Time step     : 0.5
Per MPI rank memory allocation (min/avg/max) = 9.055 | 9.081 | 9.106 Mbytes
   Step         PotEng         KinEng         TotEng         Press           Temp        v_Density   
    104502   389.12479      1338.3701      1727.4949      153.20961      299.52997      0.12513987   
    105000   455.38439      1345.2295      1800.6139      153.34548      301.06513      0.15090104   
    106000   474.75772      1314.9637      1789.7214      139.47368      294.29158      0.15154068   
    107000   454.71933      1322.576       1777.2953      158.62035      295.99522      0.15420289   
    108000   496.09265      1348.9304      1845.023       137.99231      301.89339      0.14800657   
    109000   456.59853      1329.0984      1785.6969      172.33668      297.45494      0.1494816    
    110000   475.0531       1296.5854      1771.6385      144.85494      290.17847      0.15523642   
    111000   466.2965       1356.4038      1822.7003      98.879189      303.56596      0.15145838   
    112000   470.78701      1316.8563      1787.6433      169.28029      294.71515      0.15001935   
    113000   509.32465      1391.6942      1901.0189      185.00715      311.46402      0.14764797   
    114000   474.90006      1339.7219      1814.622       93.287082      299.83252      0.15488701   
    115000   462.67958      1314.5192      1777.1987      150.63718      294.19209      0.1532403    
    116000   437.82864      1356.7382      1794.5668      277.87775      303.64079      0.16575242   
    117000   451.19226      1307.7434      1758.9356      75.586414      292.67565      0.16606291   
    118000   482.65757      1365.339       1847.9965      133.35467      305.56566      0.15630567   
    119000   449.8151       1321.667       1771.4821      188.07596      295.7918       0.157358     
    120000   452.15391      1319.6855      1771.8394      116.82945      295.34832      0.16185012   
    121000   482.10822      1394.9953      1877.1035      87.890517      312.20282      0.1506308    
    122000   501.57271      1338.2749      1839.8476      185.65245      299.50867      0.15102701   
    123000   472.13095      1318.1708      1790.3018      121.30142      295.00934      0.15481076   
    124000   464.19986      1315.0033      1779.2031      65.369718      294.30043      0.14699745   
    125000   466.97271      1314.5484      1781.5211      184.18674      294.19864      0.14739853   
    126000   436.29505      1367.4115      1803.7065      138.8587       306.0295       0.15654246   
    127000   484.12225      1346.8057      1830.928       79.503044      301.41788      0.15604195   
    128000   464.65876      1304.649       1769.3078      154.15831      291.98313      0.14683448   
    129000   473.91378      1308.5438      1782.4576      196.21248      292.85479      0.15644079   
    130000   469.45268      1347.434       1816.8866      62.396668      301.55849      0.1502875    
    131000   481.61226      1336.2283      1817.8406      131.57548      299.05064      0.15013598   
    132000   468.31517      1289.5549      1757.8701      194.20329      288.60504      0.15584178   
    133000   511.38475      1333.3776      1844.7623      84.918061      298.41264      0.14054839   
    134000   487.9296       1346.1506      1834.0802      111.32311      301.27126      0.15410753   
    135000   494.20222      1344.6897      1838.892       135.52345      300.94432      0.14754839   
    136000   467.47057      1344.4168      1811.8874      173.45122      300.88324      0.15291772   
    137000   465.62411      1367.1305      1832.7546      91.482339      305.96661      0.15158723   
    138000   454.29012      1318.5         1772.7901      140.92156      295.083        0.15177926   
    139000   459.48554      1319.7265      1779.2121      197.0824       295.3575       0.15833092   
    140000   470.42494      1298.0601      1768.485       81.544625      290.50851      0.1521867    
    141000   452.44725      1368.2407      1820.688       134.1494       306.21509      0.16181571   
    142000   479.99978      1384.4662      1864.466       192.92883      309.84637      0.14441243   
    143000   455.78233      1370.7946      1826.577       140.3794       306.78665      0.15656975   
    144000   458.60166      1308.5227      1767.1244      90.83898       292.85007      0.153265     
    145000   479.91955      1379.038       1858.9576      152.84833      308.63154      0.15378763   
    146000   471.55728      1314.0373      1785.5946      162.64245      294.08425      0.15211618   
    147000   484.93021      1362.4639      1847.3941      13.540384      304.92222      0.14145277   
    148000   449.48384      1346.5845      1796.0683      175.39418      301.36837      0.14973291   
    149000   455.05334      1329.0784      1784.1318      215.22309      297.45048      0.14456813   
    150000   467.16697      1361.9236      1829.0905      81.844814      304.80129      0.15487413   
    151000   479.19803      1346.1823      1825.3803      157.12957      301.27835      0.14824136   
    152000   476.89162      1359.8937      1836.7853      233.27003      304.34699      0.14940871   
    153000   438.23101      1364.9674      1803.1984      100.49185      305.4825       0.1575982    
    154000   472.31528      1326.4408      1798.7561      139.98621      296.86018      0.15482019   
    154502   456.68043      1363.602       1820.2824      215.86301      305.17692      0.15206846   
Loop time of 348.289 on 8 procs for 50000 steps with 1500 atoms

Performance: 6.202 ns/day, 3.870 hours/ns, 143.559 timesteps/s, 215.338 katom-step/s
99.5% CPU use with 8 MPI tasks x 1 OpenMP threads

MPI task timing breakdown:
Section |  min time  |  avg time  |  max time  |%varavg| %total
---------------------------------------------------------------
Pair    | 8.4969     | 9.1409     | 9.478      |  11.0 |  2.62
Bond    | 0.51853    | 0.54982    | 0.57713    |   2.2 |  0.16
Kspace  | 169.81     | 170.17     | 170.81     |   2.6 | 48.86
Neigh   | 0.19635    | 0.19709    | 0.19766    |   0.1 |  0.06
Comm    | 4.7979     | 4.8433     | 4.8774     |   1.1 |  1.39
Output  | 0.0024445  | 0.0026638  | 0.0039909  |   1.0 |  0.00
Modify  | 146.73     | 154.81     | 161.84     |  49.8 | 44.45
Other   |            | 8.571      |            |       |  2.46

Nlocal:          187.5 ave         241 max         161 min
Histogram: 3 1 0 1 1 0 1 0 0 1
Nghost:        1597.62 ave        1652 max        1532 min
Histogram: 2 0 0 0 1 1 1 0 1 2
Neighs:        12955.5 ave       18452 max       10348 min
Histogram: 3 0 2 0 1 1 0 0 0 1

Total # of neighbors = 103644
Ave neighs/atom = 69.096
Ave special neighs/atom = 2
Neighbor list builds = 408
Dangerous builds = 0
PPPM initialization ...
  using 12-bit tables for long-range coulomb (src/kspace.cpp:342)
  G vector (1/distance) = 0.2690745
  grid = 50 50 50
  stencil order = 5
  estimated absolute RMS force accuracy = 0.00036543355
  estimated relative force accuracy = 1.1004923e-06
  using single precision FFTW3
  3d grid and FFT values/proc = 32768 16250
Generated 1 of 1 mixed pair_coeff terms from arithmetic mixing rule
Last active /omp style is kspace_style pppm/omp
Setting up Verlet run ...
  Unit style    : real
  Current step  : 0
  Time step     : 0.5
Per MPI rank memory allocation (min/avg/max) = 8.649 | 8.672 | 8.694 Mbytes
   Step         PotEng         KinEng         TotEng         Press           Temp        v_Density   
         0   456.68102      1363.602       1820.283       215.86507      305.17692      0.15206846   
      1000   457.19731      1371.0556      1828.253       213.55736      306.84507      0.15000599   
      2000   480.69102      1365.9234      1846.6144      163.96195      305.69646      0.1483573    
      3000   504.63565      1384.1311      1888.7667      139.1709       309.77138      0.15094188   
      4000   465.55552      1360.7048      1826.2603      126.48871      304.52852      0.15857826   
      5000   455.61734      1322.0861      1777.7034      177.55534      295.88558      0.16506736   
      6000   468.12143      1301.2567      1769.3782      172.97072      291.22393      0.16425888   
      7000   439.38126      1289.7505      1729.1318      190.48549      288.64882      0.16083004   
      8000   453.80923      1282.1724      1735.9817      187.51542      286.95283      0.15662964   
      9000   449.2956       1315.5859      1764.8815      160.19098      294.43082      0.15205909   
     10000   461.96295      1335.5798      1797.5428      112.44159      298.90551      0.1481842    
     11000   477.25513      1312.0543      1789.3094      46.546055      293.64045      0.14524156   
     12000   452.24962      1313.7774      1766.027       55.479469      294.02608      0.14495923   
     13000   471.75882      1277.1281      1748.8869      74.845843      285.82389      0.14409878   
     14000   467.51495      1299.0685      1766.5835      133.15284      290.7342       0.14668424   
     15000   458.47421      1323.0839      1781.5581      180.09654      296.10889      0.151916     
     16000   452.69503      1334.494       1787.189       174.65315      298.6625       0.15512576   
     17000   500.31588      1290.1365      1790.4524      120.99173      288.7352       0.15473124   
     18000   465.70287      1292.0056      1757.7085      131.78889      289.15351      0.15006849   
     19000   474.19777      1368.1734      1842.3711      166.51157      306.20001      0.14540018   
     20000   460.02937      1380.1188      1840.1482      161.54562      308.87342      0.14377397   
     21000   491.4965       1340.9161      1832.4126      151.64739      300.09978      0.14836171   
     22000   489.89557      1353.9651      1843.8607      100.26522      303.02017      0.15316891   
     23000   446.70423      1310.4102      1757.1144      74.275342      293.27248      0.15647055   
     24000   454.98469      1314.0246      1769.0093      163.52768      294.08141      0.16019741   
     25000   471.228        1297.0699      1768.2979      207.61013      290.2869       0.16143293   
     26000   467.2749       1325.4024      1792.6773      291.73786      296.62779      0.16371466   
     27000   443.32094      1310.4975      1753.8184      281.9567       293.29203      0.1636507    
     28000   460.05322      1335.0828      1795.136       219.75686      298.79427      0.16299627   
     29000   432.05191      1320.4631      1752.515       187.78583      295.52234      0.15930755   
     30000   452.45561      1250.0705      1702.5261      135.1987       279.76834      0.15358343   
     31000   451.72613      1313.1724      1764.8985      121.23341      293.89068      0.15145985   
     32000   485.8808       1313.7994      1799.6802      83.24837       294.031        0.15140636   
     33000   467.59597      1364.4188      1832.0148      47.497703      305.35974      0.15095422   
     34000   487.6326       1351.169       1838.8016      100.36559      302.39439      0.1529868    
     35000   459.2062       1368.1232      1827.3294      133.60726      306.18879      0.16015612   
     36000   453.13668      1365.9854      1819.1221      149.31695      305.71033      0.16517221   
     37000   469.17583      1322.4956      1791.6714      100.76035      295.97723      0.16420782   
     38000   480.97168      1362.958       1843.9296      115.84864      305.03279      0.16125537   
     39000   485.91231      1397.3368      1883.2492      106.37991      312.72685      0.1553875    
     40000   487.53143      1360.0964      1847.6278      112.45575      304.39237      0.15208633   
     41000   464.68147      1365.2232      1829.9047      137.86321      305.53976      0.15086393   
     42000   521.55242      1381.7961      1903.3486      161.46732      309.24881      0.15082551   
     43000   460.43072      1380.9771      1841.4078      230.03114      309.06551      0.15318399   
     44000   487.66678      1317.6247      1805.2915      156.34458      294.88711      0.15615029   
     45000   469.97441      1326.7809      1796.7553      123.53338      296.93629      0.15795016   
     46000   456.98122      1326.0421      1783.0233      127.21422      296.77094      0.15832744   
     47000   433.25221      1330.991       1764.2432      203.54603      297.87851      0.15643111   
     48000   459.66567      1288.386       1748.0516      204.22027      288.34343      0.15191419   
     49000   486.46999      1312.3981      1798.8681      176.12731      293.71739      0.14899084   
     50000   484.26939      1320.1657      1804.4351      133.14096      295.4558       0.14668405   
     51000   484.42604      1305.6944      1790.1204      70.709642      292.21709      0.14812358   
     52000   494.10525      1315.9691      1810.0744      41.374644      294.51659      0.15032247   
     53000   476.61606      1350.0312      1826.6472      34.414285      302.13975      0.15361048   
     54000   467.99401      1388.3569      1856.3509      159.92956      310.71713      0.16015231   
     55000   466.23471      1336.2912      1802.5259      173.07238      299.06471      0.16019722   
     56000   457.05701      1361.4508      1818.5078      252.66028      304.69549      0.1565642    
     57000   464.56857      1344.9444      1809.5129      249.53667      301.00131      0.14858593   
     58000   470.41493      1326.9682      1797.3832      253.59542      296.97822      0.1437838    
     59000   499.15473      1398.151       1897.3057      233.28024      312.90907      0.14435024   
     60000   502.19356      1350.9752      1853.1687      205.25394      302.35101      0.14832216   
     61000   491.85882      1388.1847      1880.0435      193.00055      310.67858      0.15191011   
     62000   495.90882      1333.1185      1829.0273      144.06051      298.35466      0.15184284   
     63000   455.71643      1405.9284      1861.6448      128.64584      314.64966      0.15019117   
     64000   485.6988       1404.2121      1889.9109      127.79576      314.26556      0.14777755   
     65000   493.78836      1374.8263      1868.6147      108.82261      307.68895      0.14332251   
     66000   474.14836      1371.7803      1845.9286      88.486455      307.00724      0.14110839   
     67000   489.82783      1369.2577      1859.0856      84.074201      306.44269      0.14330761   
     68000   505.78995      1371.9046      1877.6946      64.492885      307.03508      0.1453927    
     69000   489.07127      1375.3508      1864.4221      113.5909       307.80633      0.14795763   
     70000   455.96005      1316.2165      1772.1765      88.517444      294.57195      0.15074603   
     71000   464.50799      1315.8595      1780.3675      119.41784      294.49206      0.15710126   
     72000   454.22839      1326.9879      1781.2163      139.36806      296.98262      0.16110658   
     73000   450.19027      1318.9979      1769.1882      181.56775      295.19444      0.16305673   
     74000   442.66261      1301.7487      1744.4113      182.9675       291.33404      0.16125342   
     75000   464.6373       1325.6589      1790.2962      206.30807      296.68519      0.15667582   
     76000   476.1826       1327.6294      1803.812       191.15898      297.12619      0.15089285   
     77000   471.48655      1313.4859      1784.9725      129.22437      293.96084      0.14918143   
     78000   467.69918      1333.9812      1801.6804      91.878925      298.54773      0.15119144   
     79000   461.15557      1300.7606      1761.9161      44.059115      291.11288      0.15374904   
     80000   471.56209      1322.0363      1793.5984      39.839432      295.87443      0.15744918   
     81000   481.03443      1336.4744      1817.5088      17.726104      299.10571      0.15941293   
     82000   453.87734      1348.4944      1802.3717      89.335155      301.79581      0.15977232   
     83000   463.23775      1355.2745      1818.5122      180.69807      303.31321      0.15735604   
     84000   475.12444      1366.0893      1841.2137      199.07562      305.73358      0.15078066   
     85000   521.50861      1354.3183      1875.8269      193.56051      303.09922      0.145806     
     86000   490.95442      1384.8496      1875.804       175.27944      309.93219      0.14543103   
     87000   501.73077      1379.1946      1880.9254      167.49866      308.66659      0.14563612   
     88000   477.66761      1306.6537      1784.3213      97.048317      292.43178      0.14612594   
     89000   502.89168      1312.4952      1815.3869      106.14023      293.73913      0.14932598   
     90000   484.87279      1329.7716      1814.6444      103.01585      297.60561      0.15101634   
     91000   482.80999      1320.2677      1803.0776      139.17537      295.47861      0.15346706   
     92000   465.38415      1341.7306      1807.1147      175.73016      300.28206      0.15696236   
     93000   468.96917      1375.9184      1844.8875      145.95295      307.93335      0.15926126   
     94000   479.93432      1345.4712      1825.4055      103.9959       301.11921      0.15885193   
     95000   472.74122      1354.9819      1827.7231      71.597346      303.24774      0.15817787   
     96000   475.95323      1374.3476      1850.3008      107.32351      307.58181      0.15940521   
     97000   481.6826       1347.4973      1829.1799      102.98148      301.57267      0.15889516   
     98000   473.48876      1341.5226      1815.0113      160.92124      300.23551      0.15688471   
     99000   476.54002      1338.7648      1815.3048      161.72748      299.61831      0.15405912   
    100000   486.90787      1337.8697      1824.7776      160.02214      299.41799      0.15508558   
    101000   454.41624      1352.3632      1806.7794      139.95925      302.66166      0.15993744   
    102000   435.40724      1317.5547      1752.962       58.706291      294.87145      0.16304507   
    103000   470.69382      1307.8501      1778.5439     -14.099122      292.69953      0.16219289   
    104000   476.38456      1286.8223      1763.2069      64.815251      287.99347      0.16040906   
    105000   446.12482      1346.635       1792.7598      80.567528      301.37967      0.15452033   
    106000   453.83777      1336.4138      1790.2516      155.93736      299.09216      0.14979783   
    107000   487.96989      1349.7446      1837.7145      172.97254      302.07561      0.15026083   
    108000   483.23937      1361.4337      1844.673       149.37572      304.69165      0.15714805   
    109000   457.11483      1376.9411      1834.056       150.8265       308.16225      0.16483521   
    110000   440.61281      1372.725       1813.3378      122.47128      307.21867      0.16643779   
    111000   449.07375      1354.8597      1803.9335      101.73421      303.22039      0.16327623   
    112000   452.64261      1314.1032      1766.7458      42.482822      294.099        0.15877953   
    113000   463.09351      1285.9124      1749.0059      73.236047      287.78984      0.15780796   
    114000   461.80345      1315.0926      1776.896       150.40457      294.32041      0.15780497   
    115000   462.52934      1317.5804      1780.1098      189.04655      294.87721      0.15812617   
    116000   468.64473      1293.979       1762.6237      202.44713      289.59515      0.1599415    
    117000   459.1437       1336.4081      1795.5518      212.68317      299.09088      0.16452156   
    118000   428.5089       1324.0567      1752.5656      159.70448      296.32662      0.16859495   
    119000   446.67802      1329.2044      1775.8824      122.38655      297.47868      0.17154268   
    120000   453.33127      1316.0335      1769.3648      75.10066       294.531        0.1697303    
    121000   433.67677      1316.1169      1749.7937      62.910103      294.54966      0.16392594   
    122000   455.60422      1330.5069      1786.1111      70.723362      297.77017      0.15913517   
    123000   470.13954      1315.2596      1785.3992      79.667216      294.35781      0.15721642   
    124000   484.40264      1332.0608      1816.4635      117.80505      298.11795      0.15690561   
    125000   437.9667       1312.3459      1750.3126      111.54828      293.70571      0.15674899   
    126000   461.57366      1288.2315      1749.8051      125.40624      288.30884      0.15859895   
    127000   468.04965      1309.7957      1777.8453      170.53191      293.13496      0.16575916   
    128000   469.54257      1322.0723      1791.6149      202.1678       295.8825       0.17045782   
    129000   453.86593      1334.9261      1788.792       217.39803      298.75919      0.17017307   
    130000   447.4752       1355.2538      1802.729       152.0389       303.30857      0.16758942   
    131000   463.71431      1340.2474      1803.9617      107.01783      299.95013      0.16408675   
    132000   469.22804      1324.1929      1793.421       75.086571      296.3571       0.15990691   
    133000   465.3722       1333.9181      1799.2903      16.057598      298.53362      0.15713369   
    134000   461.42624      1328.6415      1790.0678      77.479678      297.3527       0.15752719   
    135000   459.58134      1351.2166      1810.7979      184.65679      302.40504      0.15810616   
    136000   480.0436       1342.5862      1822.6298      273.58979      300.47355      0.15592482   
    137000   475.63884      1358.1462      1833.785       251.6874       303.9559       0.15076324   
    138000   500.26513      1364.3967      1864.6618      185.39937      305.35478      0.14737229   
    139000   505.73394      1373.8963      1879.6302      127.87989      307.4808       0.14717733   
    140000   499.29136      1382.0601      1881.3515      104.5154       309.30789      0.14736977   
    141000   508.24411      1345.6744      1853.9185      151.52646      301.16469      0.14905066   
    142000   454.61954      1372.2783      1826.8979      167.6875       307.11871      0.15113648   
    143000   482.15321      1401.9159      1884.0691      174.64593      313.75165      0.15307676   
    144000   490.24468      1347.4839      1837.7285      189.10471      301.56966      0.15401777   
    145000   473.10675      1343.4423      1816.549       153.99783      300.66514      0.15359432   
    146000   486.26892      1342.5415      1828.8104      124.63977      300.46355      0.15114775   
    147000   484.55504      1367.7183      1852.2734      111.5968       306.09817      0.14740982   
    148000   493.18667      1334.8582      1828.0448      87.261531      298.744        0.14479438   
    149000   474.78539      1313.1692      1787.9546      103.05954      293.88997      0.14536035   
    150000   458.86123      1264.8526      1723.7138      106.57597      283.0766       0.15069674   
    151000   467.96653      1294.0511      1762.0176      95.392046      289.61129      0.15697372   
    152000   478.56122      1296.3409      1774.9021      137.67502      290.12376      0.16126569   
    153000   438.39604      1343.7397      1782.1357      142.90305      300.7317       0.16107537   
    154000   434.25652      1346.1169      1780.3734      123.43612      301.26373      0.15646846   
    155000   473.44206      1255.1774      1728.6194      103.65071      280.91127      0.15275017   
    156000   494.85677      1298.6791      1793.5359      189.79418      290.64705      0.15347799   
    157000   441.68935      1354.0823      1795.7716      246.40969      303.04639      0.15604713   
    158000   453.22749      1348.4293      1801.6568      244.11656      301.78125      0.15893799   
    159000   457.0639       1300.2363      1757.3002      203.35823      290.99555      0.16141476   
    160000   480.8235       1341.2503      1822.0738      147.71984      300.17456      0.1622096    
    161000   449.58674      1385.4233      1835.0101      98.160539      310.06058      0.15919424   
    162000   476.25092      1363.6868      1839.9377      49.842805      305.19591      0.15211983   
    163000   490.39548      1344.3561      1834.7516      74.623971      300.86966      0.14715487   
    164000   489.29237      1376.1438      1865.4361      106.93842      307.9838       0.1455222    
    165000   476.04035      1358.7277      1834.7681      156.04586      304.08605      0.14780158   
    166000   497.00452      1331.7812      1828.7857      140.4045       298.05537      0.14959433   
    167000   482.00805      1337.7632      1819.7712      129.46817      299.39414      0.15104573   
    168000   474.73007      1406.845       1881.575       126.84137      314.85479      0.15174998   
    169000   489.33193      1368.7786      1858.1105      102.49384      306.33546      0.14904315   
    170000   500.36855      1336.1267      1836.4953      90.877914      299.0279       0.14553986   
    171000   502.24396      1355.3461      1857.5901      100.37704      303.32925      0.14485841   
    172000   518.92462      1369.2455      1888.1701      120.7945       306.43995      0.14842798   
    173000   485.30008      1365.3049      1850.605       111.74171      305.55804      0.1525159    
    174000   462.01682      1344.4263      1806.4431      98.431029      300.88537      0.15535212   
    175000   449.11503      1311.4868      1760.6019      101.71047      293.51344      0.1575572    
    176000   448.72591      1329.9414      1778.6673      116.51862      297.64361      0.15964533   
    177000   452.6582       1319.2937      1771.9519      64.549841      295.26064      0.1601862    
    178000   444.96662      1297.5734      1742.5401      95.882104      290.3996       0.15958254   
    179000   448.13351      1310.1687      1758.3022      114.58867      293.21845      0.1552648    
    180000   482.19828      1302.0103      1784.2086      136.23443      291.39258      0.14985301   
    181000   485.48569      1323.3321      1808.8178      136.87172      296.16444      0.1455251    
    182000   471.68374      1371.6025      1843.2863      110.07415      306.96746      0.14557922   
    183000   502.2836       1350.2275      1852.5111      94.029858      302.18368      0.14955805   
    184000   494.16988      1350.1375      1844.3074      84.811439      302.16355      0.1557781    
    185000   454.42215      1368.1684      1822.5906      142.72114      306.19891      0.1609344    
    186000   457.91775      1360.3533      1818.2711      200.53208      304.44986      0.16130683   
    187000   460.52969      1356.9146      1817.4443      166.91791      303.68027      0.1578135    
    188000   489.86484      1334.2036      1824.0685      130.92064      298.59751      0.15385167   
    189000   461.61788      1339.0777      1800.6955      93.785164      299.68833      0.15037405   
    190000   467.10535      1307.6579      1774.7632      83.679465      292.65652      0.14936132   
    191000   488.38914      1284.9581      1773.3472      63.078961      287.57625      0.14876399   
    192000   498.72403      1319.0548      1817.7788      78.079721      295.20717      0.14931195   
    193000   486.59062      1317.146       1803.7366      128.30179      294.77997      0.15210105   
    194000   463.02574      1286.0918      1749.1176      203.57198      287.82999      0.1569165    
    195000   448.86691      1330.0908      1778.9577      300.95615      297.67705      0.1623439    
    196000   455.86821      1318.2512      1774.1194      301.24393      295.02732      0.16402452   
    197000   445.96432      1361.6497      1807.614       268.91483      304.73999      0.16436082   
    198000   489.75901      1367.4639      1857.223       179.85347      306.04124      0.16153972   
    199000   488.90596      1361.3114      1850.2173      119.78417      304.66428      0.15539568   
    200000   473.93363      1390.1367      1864.0703      73.57117       311.11545      0.15074406   
    201000   524.535        1328.8566      1853.3916      44.111633      297.40083      0.14799946   
    202000   465.93092      1361.6055      1827.5364      45.378268      304.73011      0.14690567   
    203000   479.20326      1348.4065      1827.6097      90.991714      301.77613      0.14837162   
    204000   457.35622      1349.1463      1806.5025      170.34096      301.94171      0.15272977   
    205000   448.16576      1370.0411      1818.2069      248.00135      306.61802      0.1582132    
    206000   471.65033      1338.0644      1809.7147      253.18621      299.46155      0.15904578   
    207000   468.77202      1334.9682      1803.7402      235.23394      298.76863      0.15662857   
    208000   485.95483      1280.6591      1766.614       185.67455      286.61414      0.15542168   
    209000   468.4283       1329.9193      1798.3476      109.47329      297.63867      0.15638036   
    210000   452.26146      1338.0774      1790.3388      150.14708      299.46446      0.16041331   
    211000   446.3321       1335.8966      1782.2287      218.56719      298.97639      0.16123677   
    212000   477.95361      1310.2859      1788.2395      220.05348      293.24468      0.1566578    
    213000   460.78836      1347.2261      1808.0144      169.864        301.51196      0.14751346   
    214000   480.80575      1330.0121      1810.8178      95.905341      297.65943      0.14391761   
    215000   479.88908      1291.8431      1771.7322      49.54999       289.11715      0.14501118   
    216000   455.41777      1337.1154      1792.5332      43.079737      299.24918      0.14724792   
    217000   493.94412      1318.8048      1812.7489      106.20149      295.15123      0.15094515   
    218000   474.80929      1345.7288      1820.5381      130.05828      301.17686      0.15311471   
    219000   475.76344      1389.0964      1864.8599      120.90558      310.88263      0.15515055   
    220000   485.64099      1389.1579      1874.7989      118.90692      310.89638      0.15656538   
    221000   472.24591      1330.6836      1802.9295      128.78877      297.80973      0.15772988   
    222000   479.1247       1306.3426      1785.4673      214.41876      292.36216      0.16062643   
    223000   465.98243      1322.897       1788.8795      218.61105      296.06707      0.16464938   
    224000   441.01367      1308.8786      1749.8923      232.50099      292.92972      0.16921163   
    225000   447.85656      1326.1319      1773.9885      141.48901      296.79105      0.1703593    
    226000   452.74289      1317.0908      1769.8337      72.397897      294.76763      0.16694458   
    227000   456.32972      1285.3878      1741.7175      42.280713      287.67242      0.15988144   
    228000   444.45523      1350.797       1795.2523      58.0154        302.31115      0.15474342   
    229000   464.10334      1332.856       1796.9593      111.80364      298.29591      0.15347648   
    230000   478.97821      1332.2304      1811.2086      172.46618      298.1559       0.15250584   
    231000   474.57298      1312.5218      1787.0948      143.18037      293.74508      0.15201673   
    232000   453.65562      1342.9047      1796.5603      150.5185       300.54482      0.15427278   
    233000   462.95882      1356.0535      1819.0123      112.13479      303.48755      0.15989416   
    234000   471.3785       1356.497       1827.8755      99.887336      303.5868       0.16329147   
    235000   472.00504      1354.15        1826.1551      43.186689      303.06155      0.1592487    
    236000   482.15266      1361.4871      1843.6398      86.680102      304.70361      0.15537444   
    237000   503.80202      1367.0998      1870.9018      133.88662      305.95973      0.15225002   
    238000   476.0285       1342.8605      1818.889       156.54477      300.53494      0.15003924   
    239000   478.69901      1379.3314      1858.0304      168.5576       308.69721      0.15061268   
    240000   470.48236      1345.8254      1816.3078      167.37762      301.1985       0.15231012   
    241000   439.39716      1373.2366      1812.6337      146.5673       307.33317      0.15476287   
    242000   474.77646      1350.3133      1825.0898      104.22157      302.20289      0.15771992   
    243000   472.07777      1361.7726      1833.8504      134.12853      304.76751      0.16126551   
    244000   472.65698      1383.9377      1856.5947      122.49083      309.7281       0.16238999   
    245000   475.14047      1380.8552      1855.9956      99.781691      309.03822      0.15986558   
    246000   471.54449      1370.1199      1841.6643      63.14059       306.63563      0.15119616   
    247000   501.7263       1330.6373      1832.3636      45.126134      297.79936      0.14638531   
    248000   490.88575      1307.1508      1798.0366      79.78507       292.54304      0.14657199   
    249000   487.19345      1335.9061      1823.0996      121.79476      298.97853      0.1489641    
    250000   462.09913      1376.9592      1839.0583      147.57446      308.16629      0.15141245   
    251000   503.01432      1398.2778      1901.2921      150.45108      312.93745      0.15413916   
    252000   511.0165       1346.4784      1857.4949      101.23984      301.34463      0.15717064   
    253000   487.10979      1358.8486      1845.9584      139.09227      304.11311      0.16078555   
    254000   439.33303      1383.1467      1822.4797      151.12548      309.55107      0.16046144   
    255000   471.70527      1368.5598      1840.265       180.32113      306.28648      0.15569685   
    256000   478.59299      1353.1939      1831.7869      212.44256      302.84757      0.14643656   
    257000   475.0502       1350.0209      1825.0711      288.52561      302.13745      0.14302576   
    258000   484.5233       1435.1075      1919.6308      250.53649      321.18001      0.14309755   
    259000   478.98454      1381.3987      1860.3833      172.00516      309.15987      0.14611      
    260000   490.03886      1306.997       1797.0359      129.19627      292.50861      0.15161832   
    261000   431.42066      1345.1488      1776.5694      115.77215      301.04705      0.15657832   
    262000   443.84067      1332.2352      1776.0759      107.63302      298.15698      0.15863853   
    263000   483.34993      1284.0485      1767.3984      93.727141      287.37269      0.15744673   
    264000   495.23854      1316.9631      1812.2016      135.16304      294.73903      0.15466755   
    265000   483.41365      1411.4484      1894.8621      139.9837       315.88505      0.1499659    
    266000   519.14685      1358.2167      1877.3635      113.79966      303.97168      0.1462308    
    267000   487.81197      1349.7197      1837.5317      143.24123      302.07004      0.14705124   
    268000   461.73341      1337.9321      1799.6655      143.78409      299.43194      0.1497222    
    269000   484.60139      1299.8486      1784.4499      111.27231      290.90877      0.15330374   
    270000   454.56367      1295.049       1749.6126      118.81043      289.83461      0.15581294   
    271000   448.71324      1293.8644      1742.5777      116.93031      289.56952      0.15785421   
    272000   450.75463      1368.919       1819.6737      132.86625      306.36689      0.15844364   
    273000   462.90325      1371.6947      1834.598       163.70982      306.9881       0.15763625   
    274000   466.25095      1346.4823      1812.7333      147.69723      301.3455       0.15756349   
    275000   481.95166      1355.3575      1837.3091      191.40446      303.33178      0.15931158   
    276000   476.44634      1383.5732      1860.0196      193.40971      309.64653      0.15891753   
    277000   479.16712      1359.3951      1838.5622      162.92328      304.2354       0.15484123   
    278000   491.82533      1347.1956      1839.0209      191.10818      301.50513      0.14915306   
    279000   490.87414      1344.1895      1835.0636      181.86717      300.83236      0.14689218   
    280000   490.24996      1315.8259      1806.0759      110.38071      294.48454      0.14843046   
    281000   440.55044      1316.8888      1757.4393      160.88963      294.72242      0.15605136   
    282000   450.16949      1272.1329      1722.3024      182.94894      284.70596      0.16108629   
    283000   430.59644      1315.8786      1746.475       209.70323      294.49633      0.16289081   
    284000   436.88313      1330.3321      1767.2152      206.73368      297.73106      0.16285893   
    285000   473.67231      1313.0091      1786.6814      177.69661      293.85413      0.16064149   
    286000   470.39854      1332.0895      1802.488       155.87459      298.12436      0.15437618   
    287000   475.01239      1313.4803      1788.4927      94.159523      293.95958      0.14995626   
    288000   479.09799      1341.4705      1820.5685      126.58252      300.22385      0.14907619   
    289000   479.32454      1364.838       1844.1626      105.66894      305.45355      0.14914045   
    290000   480.44177      1357.9197      1838.3614      97.078638      303.90521      0.15146989   
    291000   482.20309      1350.2768      1832.4798      180.74145      302.19471      0.1569007    
    292000   479.36419      1313.5382      1792.9024      215.94137      293.97255      0.15920735   
    293000   434.02141      1399.3008      1833.3222      230.25427      313.16639      0.15936999   
    294000   468.11867      1353.5553      1821.674       207.99852      302.92846      0.15855817   
    295000   503.05841      1326.0199      1829.0784      116.89648      296.76599      0.15638694   
    296000   463.59154      1359.45        1823.0415      80.621207      304.24769      0.1548101    
    297000   467.86238      1336.7297      1804.5921      94.550494      299.16285      0.15433892   
    298000   460.95834      1344.607       1805.5653      135.27396      300.92581      0.15705402   
    299000   467.93297      1343.2169      1811.1498      180.77687      300.61469      0.16286472   
    300000   451.09517      1349.7369      1800.8321      179.98473      302.0739       0.16817531   
    301000   493.72437      1351.3396      1845.064       100.64149      302.43259      0.16918058   
    302000   482.92097      1370.0355      1852.9565      131.84708      306.61676      0.16679636   
    303000   479.34047      1373.344       1852.6844      109.40452      307.3572       0.16104618   
    304000   457.62449      1356.9799      1814.6044      122.63247      303.69489      0.15632034   
    305000   469.17885      1333.2051      1802.3839      93.478954      298.37403      0.15477574   
    306000   483.07954      1334.5458      1817.6253      106.17896      298.67408      0.15380597   
    307000   473.89522      1344.696       1818.5913      134.62726      300.94573      0.15213364   
    308000   466.0588       1325.0811      1791.1399      159.02112      296.55586      0.15038799   
    309000   474.3962       1324.6087      1799.0048      163.60327      296.45014      0.15150828   
    310000   477.43766      1338.1442      1815.5819      165.56348      299.47942      0.15841693   
    311000   444.7274       1351.4091      1796.1365      95.616902      302.44814      0.16337362   
    312000   486.98019      1308.2035      1795.1836      74.694346      292.77862      0.16249545   
    313000   446.36765      1353.698       1800.0657      80.23883       302.9604       0.16035493   
    314000   445.68505      1364.4516      1810.1366      135.52155      305.36706      0.1592798    
    315000   454.84881      1335.4866      1790.3354      159.73985      298.88464      0.15718626   
    316000   463.44281      1323.0186      1786.4614      177.60341      296.09427      0.15481759   
    317000   464.38823      1306.5981      1770.9863      173.11971      292.41934      0.14987646   
    318000   475.64764      1349.3842      1825.0319      146.08038      301.99496      0.1457215    
    319000   495.3572       1335.6386      1830.9958      85.559259      298.91865      0.14353409   
    320000   477.91458      1338.2954      1816.21        62.597631      299.51325      0.14351227   
    321000   494.06428      1342.0958      1836.16        59.555116      300.36379      0.14622308   
    322000   492.33344      1367.2402      1859.5736      98.557781      305.99115      0.15407654   
    323000   437.98068      1353.2841      1791.2647      145.74684      302.86775      0.15901224   
    324000   467.63908      1332.1943      1799.8334      173.87192      298.14782      0.16023437   
    325000   484.83462      1310.1704      1795.0051      205.64208      293.21883      0.15941607   
    326000   457.80765      1340.8423      1798.6499      179.65755      300.08326      0.15537408   
    327000   486.11828      1325.6026      1811.7208      151.18748      296.67257      0.15247076   
    328000   482.19773      1327.1034      1809.3012      138.84345      297.00847      0.15211911   
    329000   478.61475      1299.8226      1778.4374      131.56574      290.90297      0.15333926   
    330000   492.23742      1314.7925      1807.03        97.083094      294.25327      0.15680863   
    331000   466.21518      1306.7117      1772.9269      81.491978      292.44476      0.16355022   
    332000   429.92914      1358.7064      1788.6356      101.60244      304.08129      0.16766321   
    333000   461.19471      1349.1725      1810.3672      108.82683      301.94757      0.16632982   
    334000   437.93326      1372.8458      1810.7791      160.00407      307.24571      0.16220927   
    335000   469.88397      1380.1999      1850.0839      153.35734      308.89157      0.15726937   
    336000   488.79512      1368.0712      1856.8664      152.94674      306.17715      0.15412153   
    337000   476.43472      1353.639       1830.0738      148.78509      302.94719      0.15253312   
    338000   450.36202      1319.6022      1769.9643      122.82217      295.32969      0.15242665   
    339000   489.08171      1316.389       1805.4708      118.38299      294.61057      0.15400049   
    340000   467.11008      1318.6624      1785.7725      140.91311      295.11936      0.15513802   
    341000   470.92438      1298.8607      1769.7851      155.2577       290.68769      0.15336937   
    342000   482.77549      1293.0454      1775.8208      170.7447       289.3862       0.14888917   
    343000   481.85215      1296.889       1778.7412      233.09787      290.24642      0.14424734   
    344000   487.27173      1307.3337      1794.6054      182.54475      292.58395      0.14143623   
    345000   506.48676      1329.5249      1836.0117      137.90695      297.55041      0.14459644   
    346000   455.25813      1336.3733      1791.6314      85.712069      299.08308      0.15800238   
    347000   452.88398      1308.3948      1761.2788      78.140625      292.82145      0.1610508    
    348000   475.28771      1321.2916      1796.5793      66.839779      295.70778      0.16059135   
    349000   494.74403      1299.401       1794.145       92.019926      290.80861      0.15983814   
    350000   502.44264      1292.3253      1794.768       139.98456      289.22506      0.15909335   
    351000   481.21883      1307.9769      1789.1958      167.54636      292.72792      0.15760717   
    352000   466.28479      1306.7488      1773.0336      110.03759      292.45306      0.15600199   
    353000   485.03057      1284.6665      1769.697       68.877112      287.51099      0.15614998   
    354000   461.04339      1335.4134      1796.4568      59.364551      298.86827      0.16100616   
    355000   448.14724      1354.9855      1803.1327      84.083939      303.24853      0.16953872   
    356000   470.21785      1361.0716      1831.2894      95.128476      304.61061      0.17064542   
    357000   462.50579      1371.5769      1834.0827      118.03776      306.96173      0.16788441   
    358000   473.48692      1338.4397      1811.9267      75.923881      299.54556      0.1626918    
    359000   430.39792      1327.0026      1757.4005      80.825325      296.98591      0.15994208   
    360000   468.73412      1306.5302      1775.2643      134.46455      292.40415      0.16059029   
    361000   475.89763      1327.2043      1803.1019      110.43992      297.03104      0.15989484   
    362000   451.9626       1312.0026      1763.9652      136.4721       293.62889      0.15981989   
    363000   488.23326      1321.8096      1810.0428      179.71481      295.8237       0.16114102   
    364000   457.03801      1312.0349      1769.0729      130.29841      293.63611      0.15768891   
    365000   487.06134      1313.7854      1800.8468      129.73201      294.02788      0.15183718   
    366000   473.64951      1335.0767      1808.7262      145.79639      298.7929       0.14801102   
    367000   468.88975      1340.5702      1809.4599      147.89684      300.02236      0.1479973    
    368000   472.82047      1302.5179      1775.3383      138.29081      291.50617      0.15364548   
    369000   499.68807      1314.5204      1814.2084      123.01302      294.19236      0.15890793   
    370000   481.25395      1342.0771      1823.331       109.75082      300.3596       0.16094219   
    371000   472.85343      1389.1257      1861.9791      92.7858        310.88917      0.16049311   
    372000   490.32282      1335.5896      1825.9124      98.119451      298.90768      0.15796556   
    373000   474.70689      1354.8119      1829.5188      139.88544      303.20969      0.15391488   
    374000   458.26006      1345.9108      1804.1709      141.64136      301.21761      0.15079742   
    375000   501.00309      1347.1578      1848.1609      128.86254      301.49668      0.15218589   
    376000   485.07548      1356.8629      1841.9384      152.12401      303.66871      0.15508711   
    377000   458.19102      1336.9042      1795.0953      104.0569       299.20191      0.15537038   
    378000   463.35018      1346.1896      1809.5398      89.411734      301.28         0.15769099   
    379000   470.7641       1357.2117      1827.9758      82.856153      303.74677      0.16031833   
    380000   459.78384      1410.9041      1870.6879      95.281264      315.76323      0.16323043   
    381000   482.91582      1365.272       1848.1878      103.17684      305.55067      0.16290595   
    382000   478.62429      1357.4048      1836.0291      79.489723      303.78999      0.15962016   
    383000   468.76962      1367.4844      1836.254       204.19995      306.04581      0.15751808   
    384000   481.32122      1365.7283      1847.0495      239.5767       305.6528       0.15566155   
    385000   489.42837      1365.3985      1854.8269      214.92055      305.57899      0.15390707   
    386000   480.69026      1355.4498      1836.14        144.36425      303.35244      0.15158166   
    387000   481.09289      1374.0238      1855.1167      63.098926      307.50935      0.14875287   
    388000   505.30274      1359.0501      1864.3529      24.540396      304.15821      0.14940021   
    389000   495.68048      1395.3127      1890.9932      77.354466      312.27385      0.15335762   
    390000   465.06131      1382.4668      1847.5282      148.20228      309.39892      0.15617632   
    391000   496.78821      1359.5941      1856.3823      199.50862      304.27995      0.15957751   
    392000   491.52457      1378.2796      1869.8042      206.99441      308.4618       0.1623996    
    393000   489.14188      1356.2814      1845.4233      156.67612      303.53857      0.16185884   
    394000   466.55838      1356.8329      1823.3913      76.473194      303.66199      0.15871357   
    395000   474.12024      1342.5728      1816.693       41.621359      300.47055      0.15333283   
    396000   475.89389      1332.6677      1808.5616      78.727016      298.25376      0.1492772    
    397000   483.4012       1338.3412      1821.7424      108.97983      299.52351      0.14807846   
    398000   479.3712       1303.9561      1783.3273      151.17419      291.82806      0.1489092    
    399000   490.41039      1335.1083      1825.5187      160.99163      298.79998      0.15164902   
    400000   474.36208      1355.4205      1829.7825      167.06775      303.34588      0.15527028   
Loop time of 2209.85 on 8 procs for 400000 steps with 1500 atoms

Performance: 7.820 ns/day, 3.069 hours/ns, 181.008 timesteps/s, 271.512 katom-step/s
99.4% CPU use with 8 MPI tasks x 1 OpenMP threads

MPI task timing breakdown:
Section |  min time  |  avg time  |  max time  |%varavg| %total
---------------------------------------------------------------
Pair    | 70.708     | 72.745     | 74.822     |  12.3 |  3.29
Bond    | 4.1808     | 4.2531     | 4.3627     |   2.5 |  0.19
Kspace  | 1051.4     | 1053.5     | 1055.9     |   3.5 | 47.67
Neigh   | 1.2373     | 1.2409     | 1.2442     |   0.2 |  0.06
Comm    | 35.788     | 36.062     | 36.372     |   3.0 |  1.63
Output  | 0.019974   | 0.021368   | 0.030306   |   2.3 |  0.00
Modify  | 920.86     | 980.07     | 1031.2     | 138.7 | 44.35
Other   |            | 61.94      |            |       |  2.80

Nlocal:          187.5 ave         202 max         164 min
Histogram: 1 0 0 0 1 2 1 0 1 2
Nghost:        1580.38 ave        1620 max        1552 min
Histogram: 2 2 1 0 0 0 0 1 0 2
Neighs:          13396 ave       14724 max       10610 min
Histogram: 1 0 0 0 1 0 1 2 2 1

Total # of neighbors = 107168
Ave neighs/atom = 71.445333
Ave special neighs/atom = 2
Neighbor list builds = 2487
Dangerous builds = 0
PPPM initialization ...
  using 12-bit tables for long-range coulomb (src/kspace.cpp:342)
  G vector (1/distance) = 0.26737195
  grid = 48 48 48
  stencil order = 5
  estimated absolute RMS force accuracy = 0.0004263962
  estimated relative force accuracy = 1.2840795e-06
  using single precision FFTW3
  3d grid and FFT values/proc = 29791 13824
Generated 1 of 1 mixed pair_coeff terms from arithmetic mixing rule
Last active /omp style is kspace_style pppm/omp
Setting up Verlet run ...
  Unit style    : real
  Current step  : 0
  Time step     : 0.5
Per MPI rank memory allocation (min/avg/max) = 8.468 | 8.469 | 8.47 Mbytes
   Step         PotEng         KinEng         TotEng         Press           Temp        v_Density   
         0   474.36177      1355.4205      1829.7822      167.06921      303.34588      0.15527028   
      1000   481.44263      1363.85        1845.2926      108.82259      305.23242      0.15486032   
      2000   481.92136      1379.8907      1861.8121      151.41192      308.82238      0.15665707   
      3000   457.30187      1320.3815      1777.6833      149.17115      295.50408      0.1567694    
      4000   484.383        1342.4423      1826.8253      118.24101      300.44134      0.15072047   
      5000   488.18658      1318.9169      1807.1035      80.54048       295.17631      0.14311583   
      6000   483.10801      1325.3432      1808.4513      71.881307      296.61454      0.14156026   
      7000   491.39925      1322.1756      1813.5748      92.659447      295.9056       0.14392344   
      8000   484.82186      1332.5216      1817.3435      127.52948      298.22107      0.14824903   
      9000   479.47378      1348.5102      1827.984       165.96766      301.79934      0.15350413   
     10000   467.62292      1383.0887      1850.7117      204.81564      309.5381       0.15498263   
     11000   494.93883      1349.4462      1844.385       201.50843      302.00883      0.15381968   
     12000   467.95539      1325.5403      1793.4957      201.98478      296.65865      0.15219743   
     13000   457.18582      1336.9133      1794.0991      184.41308      299.20393      0.15092495   
     14000   507.00507      1332.3783      1839.3834      107.87147      298.18899      0.14931266   
     15000   506.58709      1331.8632      1838.4503      26.322346      298.07371      0.14413914   
     16000   497.66256      1339.3244      1836.987       20.193873      299.74356      0.13894337   
     17000   532.81726      1303.4854      1836.3027      27.425525      291.72271      0.13705138   
     18000   504.26514      1309.1983      1813.4634      94.661787      293.00126      0.13870894   
     19000   477.1487       1340.4738      1817.6225      121.05308      300.00078      0.14625595   
     20000   490.66733      1332.6641      1823.3315      170.74919      298.25297      0.1528362    
     21000   461.29312      1328.3105      1789.6037      166.19622      297.27862      0.1550047    
     22000   483.97179      1336.0734      1820.0452      144.46896      299.01598      0.15403688   
     23000   486.26799      1343.0087      1829.2767      83.897616      300.5681       0.15165829   
     24000   503.9415       1354.6299      1858.5714      97.807671      303.16895      0.1511939    
     25000   486.30164      1389.0148      1875.3164      121.61374      310.86436      0.15110772   
     26000   488.26481      1405.0917      1893.3565      158.16435      314.4624       0.15193578   
     27000   459.99897      1386.5345      1846.5334      114.65578      310.30926      0.15183381   
     28000   492.44469      1355.569       1848.0137      125.58199      303.37912      0.15057234   
     29000   462.60066      1361.8208      1824.4215      130.92121      304.77829      0.14716227   
     30000   480.05985      1341.3656      1821.4255      170.91062      300.20038      0.14586956   
     31000   487.67021      1331.1824      1818.8526      166.74981      297.92136      0.14636384   
     32000   470.66791      1306.0638      1776.7317      141.5567       292.29975      0.14896374   
     33000   495.6546       1322.5092      1818.1638      120.20578      295.98027      0.15436511   
     34000   459.84303      1306.2849      1766.128       121.23659      292.34925      0.15788662   
     35000   470.21652      1328.9491      1799.1656      113.96477      297.42154      0.15728512   
     36000   455.7273       1312.5502      1768.2775      113.28082      293.75144      0.15184847   
     37000   514.29685      1298.3622      1812.6591      153.82078      290.57613      0.14611293   
     38000   479.92602      1299.6607      1779.5867      197.9048       290.86672      0.14500893   
     39000   484.95302      1365.0054      1849.9584      218.63521      305.49102      0.14549009   
     40000   489.85271      1341.6157      1831.4684      259.08742      300.25634      0.14746735   
     41000   495.86454      1325.1941      1821.0586      182.99917      296.58116      0.14931822   
     42000   465.26137      1294.5617      1759.8231      149.71056      289.72557      0.15243949   
     43000   463.14088      1303.1925      1766.3334      137.88481      291.65716      0.15543527   
     44000   478.28376      1341.4873      1819.7711      138.37572      300.22761      0.15774442   
     45000   477.52219      1354.0273      1831.5495      136.60602      303.03409      0.15754225   
     46000   478.29599      1379.6732      1857.9692      133.17645      308.77369      0.15708573   
     47000   523.30225      1336.005       1859.3073      124.74059      299.00067      0.15186508   
     48000   498.67728      1416.2675      1914.9448      151.37898      316.96358      0.14865256   
     49000   480.46992      1350.8686      1831.3385      186.81602      302.32716      0.14906705   
     50000   512.36247      1328.379       1840.7414      132.28584      297.29394      0.15387384   
     51000   481.6411       1310.6847      1792.3258      111.05255      293.33393      0.15983729   
     52000   463.75097      1320.0071      1783.7581      93.024252      295.42029      0.16171446   
     53000   457.78494      1300.7222      1758.5071      101.94274      291.1043       0.1605514    
     54000   471.78047      1312.4804      1784.2609      169.67472      293.7358       0.15859063   
     55000   461.32482      1331.1792      1792.5041      210.80894      297.92065      0.15749011   
     56000   482.73204      1328.7208      1811.4528      163.47591      297.37044      0.15700941   
     57000   453.65105      1309.3689      1763.02        145.33705      293.03945      0.15982443   
     58000   466.83027      1315.276       1782.1062      150.38283      294.36146      0.16283446   
     59000   459.97572      1322.243       1782.2188      125.81546      295.9207       0.16150246   
     60000   456.38606      1306.6533      1763.0394      124.93139      292.43169      0.15876802   
     61000   488.96445      1332.8428      1821.8072      136.90332      298.29295      0.15817176   
     62000   486.36463      1361.1047      1847.4693      145.42294      304.61803      0.16028724   
     63000   461.37723      1370.9753      1832.3525      138.62276      306.82708      0.16291853   
     64000   496.04098      1361.6544      1857.6954      121.12362      304.74105      0.16161281   
     65000   485.9702       1342.592       1828.5622      60.527563      300.47483      0.15543965   
     66000   474.59022      1338.3648      1812.955       125.12106      299.52878      0.1539996    
     67000   459.76317      1313.132       1772.8952      95.710104      293.88165      0.15409036   
     68000   494.5097       1286.2677      1780.7774      110.60161      287.86935      0.15608476   
     69000   488.2326       1301.0076      1789.2402      97.788565      291.16817      0.15911741   
     70000   477.31045      1333.2062      1810.5166      80.187091      298.37428      0.16217394   
     71000   450.85728      1330.2067      1781.064       101.63743      297.70299      0.16412121   
     72000   486.50238      1324.4023      1810.9047      152.74936      296.40395      0.16499881   
     73000   480.84554      1335.8534      1816.699       190.03794      298.96674      0.16473888   
     74000   467.93359      1344.4782      1812.4118      170.14243      300.89698      0.16197193   
     75000   490.96328      1338.4512      1829.4145      179.21408      299.54813      0.15845869   
     76000   501.3583       1335.915       1837.2733      173.00156      298.98052      0.15511209   
     77000   469.97994      1366.946       1836.926       178.37542      305.92532      0.15221514   
     78000   474.5722       1394.6491      1869.2213      188.33017      312.12533      0.15488292   
     79000   498.63245      1418.3971      1917.0296      180.93023      317.44019      0.1621348    
     80000   480.1214       1349.539       1829.6604      142.50118      302.02959      0.16563624   
     81000   437.33959      1376.9127      1814.2523      138.20757      308.1559       0.16573086   
     82000   464.34919      1393.7197      1858.0689      162.83825      311.91732      0.16245209   
     83000   483.74453      1348.7219      1832.4664      128.57769      301.84673      0.15688375   
     84000   502.16539      1333.428       1835.5934      134.54156      298.42392      0.15378053   
     85000   523.09306      1321.55        1844.6431      93.583481      295.76561      0.15268357   
     86000   522.84692      1353.488       1876.3349      98.812739      302.91339      0.15469934   
     87000   485.10157      1351.1858      1836.2874      127.33746      302.39816      0.15838213   
     88000   478.80019      1367.6545      1846.4547      169.24237      306.08389      0.16188303   
     89000   476.44887      1363.6672      1840.1161      204.28355      305.19152      0.16143504   
     90000   517.04607      1306.8596      1823.9057      194.75001      292.47786      0.15190152   
     91000   473.95429      1317.0238      1790.9781      194.2094       294.75262      0.1445938    
     92000   463.71094      1352.5529      1816.2639      161.63501      302.70412      0.14470432   
     93000   482.66571      1322.3031      1804.9688      110.48378      295.93415      0.1489819    
     94000   503.03624      1320.3041      1823.3403      79.483634      295.48677      0.15367153   
     95000   488.41429      1295.4111      1783.8254      55.854895      289.91567      0.1568609    
     96000   489.90721      1336.8997      1826.8069      84.706156      299.2009       0.15926364   
     97000   485.99299      1320.5149      1806.5079      70.359368      295.53394      0.15866471   
     98000   481.81037      1333.0108      1814.8212      94.02939       298.33056      0.15836588   
     99000   483.7661       1327.0445      1810.8106      129.92746      296.99528      0.15703807   
    100000   492.62024      1344.0152      1836.6355      210.52227      300.79336      0.15651315   
    101000   477.86091      1414.8941      1892.755       244.03507      316.65621      0.15575335   
    102000   520.56666      1369.1724      1889.739       274.58363      306.42359      0.15605732   
    103000   514.34682      1362.2385      1876.5853      222.71877      304.87177      0.15615134   
    104000   479.7692       1374.5822      1854.3514      158.70343      307.63432      0.15750444   
    105000   485.74259      1343.4126      1829.1552      73.53761       300.65849      0.15967808   
    106000   500.95453      1354.8135      1855.768       19.463511      303.21004      0.16115776   
    107000   491.07579      1334.3759      1825.4517     -29.673207      298.63607      0.16130328   
    108000   491.84534      1356.9778      1848.8231     -7.1448045      303.69442      0.16053826   
    109000   491.59907      1358.8658      1850.4649      51.56597       304.11695      0.15901397   
    110000   510.24306      1346.3646      1856.6076      126.15754      301.31916      0.15785725   
    111000   459.52516      1305.9781      1765.5033      154.36495      292.28059      0.15754637   
    112000   481.7152       1333.53        1815.2452      154.86635      298.44676      0.16021837   
    113000   468.74946      1337.7034      1806.4528      116.73674      299.38076      0.16602963   
    114000   459.21295      1344.0132      1803.2262      32.891219      300.79292      0.16753573   
    115000   454.70505      1341.1445      1795.8496     -20.269316      300.15089      0.16382711   
    116000   494.72905      1273.3319      1768.061       4.6304087      284.9743       0.16051079   
    117000   469.33542      1311.7493      1781.0847      65.787294      293.57219      0.15650419   
    118000   464.29848      1314.4862      1778.7847      137.60852      294.18472      0.15266616   
    119000   446.29519      1342.9881      1789.2833      193.04749      300.56349      0.1531543    
    120000   474.67798      1324.9999      1799.6779      142.58942      296.5377       0.15928922   
    121000   447.92607      1316.995       1764.9211      143.63219      294.74619      0.16584704   
    122000   459.34807      1257.7486      1717.0967      126.60119      281.48672      0.16712751   
    123000   474.05584      1317.6484      1791.7043      93.600901      294.89242      0.16432152   
    124000   469.80132      1324.6073      1794.4086      103.33071      296.44983      0.16073348   
    125000   497.43252      1318.5709      1816.0034      93.13324       295.09886      0.157205     
    126000   481.89392      1305.3928      1787.2868      109.12522      292.1496       0.15442357   
    127000   487.64352      1291.5138      1779.1574      82.464697      289.04345      0.1545169    
    128000   486.30175      1272.0924      1758.3942      91.977272      284.69689      0.15570925   
    129000   473.67926      1328.6066      1802.2858      108.79961      297.34488      0.15710657   
    130000   482.21709      1337.5461      1819.7632      141.79616      299.34556      0.15999123   
    131000   481.77076      1334.4644      1816.2352      203.30676      298.65588      0.16430952   
    132000   452.36313      1353.1862      1805.5493      210.72867      302.84585      0.16574022   
    133000   478.83857      1330.1727      1809.0113      234.35698      297.69538      0.16383641   
    134000   486.50799      1344.0848      1830.5928      135.61492      300.80894      0.15915078   
    135000   451.3639       1352.3368      1803.7007      116.81915      302.65576      0.15673355   
    136000   483.32737      1353.3497      1836.677       102.05531      302.88243      0.15714242   
    137000   449.15351      1340.899       1790.0526      87.519831      300.09596      0.15812499   
    138000   494.50976      1299.9617      1794.4715      156.33245      290.9341       0.16190281   
    139000   480.15605      1337.5299      1817.686       191.83275      299.34195      0.16410788   
    140000   477.57614      1346.4688      1824.0449      233.61819      301.34247      0.16376419   
    141000   453.66332      1394.0583      1847.7216      273.25026      311.99311      0.1624584    
    142000   481.90519      1424.392       1906.2972      273.20642      318.78186      0.15857681   
    143000   491.06134      1387.0621      1878.1235      231.95602      310.42735      0.14952689   
    144000   493.81921      1344.7906      1838.6098      207.38827      300.9669       0.14684248   
    145000   489.39182      1365.559       1854.9509      186.86558      305.61492      0.14926308   
    146000   461.69451      1335.3856      1797.0801      173.15696      298.86205      0.15334811   
    147000   473.60166      1333.6839      1807.2856      156.28401      298.48119      0.15790295   
    148000   467.45779      1327.5157      1794.9735      145.04902      297.10075      0.16022577   
    149000   468.27944      1343.7026      1811.9821      130.08902      300.72341      0.15984133   
    150000   477.7972       1320.9346      1798.7318      107.01269      295.62787      0.15862299   
    151000   460.08742      1332.6423      1792.7297      151.28264      298.24807      0.15722998   
    152000   477.55904      1315.8922      1793.4512      176.42283      294.49937      0.15664069   
    153000   465.0616       1313.7935      1778.8551      184.11784      294.02969      0.15568032   
    154000   477.05228      1330.1426      1807.1949      164.22279      297.68864      0.157744     
    155000   475.40966      1328.359       1803.7687      107.36148      297.28948      0.16066604   
    156000   459.64567      1341.0684      1800.7141      97.641247      300.13386      0.16374888   
    157000   449.95902      1309.4906      1759.4497      94.813152      293.06669      0.16470864   
    158000   473.90872      1324.7492      1798.6579      168.4715       296.48159      0.16420816   
    159000   490.67545      1289.9369      1780.6123      193.96033      288.69052      0.16281342   
    160000   455.85236      1332.7702      1788.6226      177.70799      298.27671      0.15863955   
    161000   483.43854      1321.5478      1804.9864      138.7921       295.76512      0.15488088   
    162000   467.31979      1304.1193      1771.4391      177.80958      291.86459      0.15505579   
    163000   473.9867       1332.1435      1806.1302      184.37661      298.13645      0.15680278   
    164000   475.45287      1306.0082      1781.4611      177.92088      292.28732      0.15897664   
    165000   472.47831      1343.7563      1816.2347      120.6791       300.73543      0.15881812   
    166000   465.76915      1312.2593      1778.0285      69.670306      293.68634      0.15859082   
    167000   470.70746      1322.2336      1792.9411      41.60505       295.9186       0.15423806   
    168000   489.37108      1338.0215      1827.3926      41.054676      299.45196      0.1495619    
    169000   482.34238      1303.5164      1785.8588      35.686449      291.72965      0.1470559    
    170000   479.31882      1332.8478      1812.1666      87.277313      298.29408      0.1499407    
    171000   472.43836      1341.0644      1813.5028      115.13229      300.13297      0.15581432   
    172000   481.13992      1323.9098      1805.0498      186.886        296.29374      0.15928528   
    173000   493.4627       1287.0858      1780.5485      157.64498      288.05245      0.15909174   
    174000   464.29909      1387.8904      1852.1895      201.37827      310.61272      0.15825411   
    175000   465.81911      1382.1113      1847.9304      169.88714      309.31934      0.15497178   
    176000   529.59613      1340.5378      1870.1339      124.93458      300.0151       0.1506229    
    177000   511.81312      1370.1332      1881.9463      97.43312       306.63862      0.1480658    
    178000   470.90466      1369.5834      1840.4881      68.647078      306.51558      0.14816505   
    179000   484.59709      1334.4182      1819.0153      44.973913      298.64553      0.1496608    
    180000   475.01109      1310.6251      1785.6362      101.52352      293.32058      0.15246694   
    181000   473.17296      1334.1042      1807.2771      134.06982      298.57525      0.15623463   
    182000   455.42288      1336.9198      1792.3427      176.40429      299.20541      0.15609133   
    183000   485.49967      1305.8408      1791.3404      145.85769      292.24984      0.15188421   
    184000   489.50208      1319.6774      1809.1795      163.16587      295.34651      0.14886624   
    185000   494.7056       1314.0679      1808.7735      149.08992      294.0911       0.14824081   
    186000   482.26574      1324.4923      1806.758       129.89662      296.42409      0.14858522   
    187000   470.56483      1336.3061      1806.8709      111.70112      299.06804      0.15121344   
    188000   468.80874      1301.7519      1770.5607      65.092666      291.33475      0.1533289    
    189000   487.28053      1333.7385      1821.019       54.310883      298.49341      0.15324462   
    190000   499.01671      1336.7987      1835.8155      48.431429      299.1783       0.15142706   
    191000   493.56741      1361.9599      1855.5273      88.596665      304.80941      0.1523793    
    192000   496.63434      1392.4841      1889.1184      116.04432      311.64079      0.15370439   
    193000   474.76223      1401.1018      1875.864       226.87585      313.56946      0.15732089   
    194000   473.04143      1346.9032      1819.9447      223.0141       301.43971      0.16177463   
    195000   466.90528      1327.1838      1794.0891      203.03792      297.02646      0.16419028   
    196000   482.93301      1348.6551      1831.5882      170.87777      301.83179      0.16364206   
    197000   493.16918      1337.8243      1830.9935      157.19005      299.40782      0.16123394   
    198000   494.98605      1316.3918      1811.3778      110.08747      294.61118      0.15247985   
    199000   494.71604      1341.4267      1836.1427      132.31253      300.21405      0.14508036   
    200000   505.5478       1306.1958      1811.7436      142.39146      292.32929      0.14554069   
    201000   510.02053      1321.5579      1831.5784      113.03718      295.76736      0.14993808   
    202000   475.47507      1311.416       1786.8911      88.825421      293.49759      0.15420835   
    203000   481.4514       1344.2149      1825.6663      60.093294      300.83806      0.15716916   
    204000   509.5605       1350.8746      1860.4351      79.791533      302.32852      0.15820825   
    205000   500.01999      1360.7312      1860.7512      96.27335       304.53443      0.15633053   
    206000   478.04528      1385.0344      1863.0796      158.83686      309.97353      0.15407669   
    207000   521.71944      1421.0284      1942.7479      148.00625      318.02908      0.15143101   
    208000   531.22039      1359.1425      1890.3629      105.68724      304.17888      0.14687113   
    209000   491.8996       1361.5587      1853.4583      61.402951      304.71962      0.1392426    
    210000   536.94291      1361.2134      1898.1564      54.935936      304.64236      0.13865787   
    211000   531.5812       1327.7872      1859.3684      73.160775      297.1615       0.14502999   
    212000   519.57808      1338.0314      1857.6095      104.47234      299.45417      0.15034472   
    213000   495.47912      1353.2254      1848.7045      116.31748      302.85461      0.15257297   
    214000   500.00299      1335.5517      1835.5547      164.15826      298.89922      0.15464391   
    215000   485.73618      1321.6566      1807.3928      186.90302      295.78946      0.15500711   
    216000   486.21972      1330.8556      1817.0753      195.84335      297.84821      0.15352257   
    217000   505.62419      1313.8491      1819.4733      184.56866      294.04213      0.15090365   
    218000   495.48516      1319.5898      1815.0749      141.40222      295.3269       0.1485011    
    219000   478.41775      1309.7137      1788.1315      112.75754      293.11662      0.14868731   
    220000   495.21742      1333.2071      1828.4245      54.459471      298.37449      0.15376761   
    221000   456.3367       1315.6175      1771.9542      92.259243      294.43791      0.16062263   
    222000   470.64436      1315.3941      1786.0385      30.154993      294.3879       0.16047652   
    223000   474.33944      1319.08        1793.4194      61.505411      295.21281      0.15751573   
    224000   483.38514      1339.9688      1823.3539      59.20775       299.88776      0.15307034   
    225000   487.1367       1304.8608      1791.9975      88.453116      292.03052      0.14996373   
    226000   496.80107      1247.0273      1743.8283      126.74445      279.08726      0.14851725   
    227000   502.11081      1324.2231      1826.3339      127.03109      296.36385      0.14867605   
    228000   466.31314      1342.8827      1809.1958      143.1753       300.5399       0.15100552   
    229000   484.79208      1336.988       1821.7801      154.30353      299.22066      0.15305219   
    230000   483.22605      1322.308       1805.5341      118.59192      295.93525      0.15445023   
    231000   490.04676      1331.0992      1821.1459      101.54222      297.90273      0.15753537   
    232000   483.7437       1344.8383      1828.582       34.489104      300.97757      0.16022169   
    233000   498.65667      1326.6406      1825.2973      38.587066      296.90489      0.16169994   
    234000   481.08351      1336.5045      1817.588       62.420351      299.11244      0.15882794   
    235000   485.98511      1297.1365      1783.1216      88.44821       290.30182      0.15024069   
    236000   480.91846      1315.4893      1796.4078      149.04062      294.4092       0.14711508   
    237000   488.54702      1314.5763      1803.1233      241.1795       294.20487      0.15087124   
    238000   487.7417       1333.9176      1821.6593      227.83136      298.53349      0.15481033   
    239000   478.73754      1343.0499      1821.7874      156.75079      300.57732      0.15751641   
    240000   488.87008      1334.5688      1823.4389      51.79344       298.67924      0.15835871   
    241000   489.43707      1338.9255      1828.3626     -12.374836      299.65428      0.1572988    
    242000   486.88882      1322.7559      1809.6447     -2.0406068      296.03548      0.15309435   
    243000   485.97815      1295.1741      1781.1522      37.608486      289.86262      0.14643478   
    244000   501.22241      1309.3624      1810.5849      126.55465      293.038        0.14467797   
    245000   523.00226      1318.5527      1841.555       180.4734       295.09481      0.14699527   
    246000   481.00036      1312.3128      1793.3131      218.49795      293.69829      0.14971581   
    247000   492.96149      1320.0246      1812.9861      157.542        295.42422      0.15172513   
    248000   494.4293       1306.6899      1801.1192      126.44433      292.43987      0.1544848    
    249000   485.38882      1359.9494      1845.3382      110.38579      304.35947      0.15603531   
    250000   501.06395      1359.0816      1860.1456      112.38519      304.16526      0.15408329   
    251000   527.07805      1327.1334      1854.2114      82.888869      297.01517      0.1486958    
    252000   501.81785      1338.8902      1840.708       140.12192      299.64637      0.1447712    
    253000   526.72689      1303.0493      1829.7762      163.71879      291.6251       0.14403413   
    254000   480.83234      1333.3845      1814.2168      192.61526      298.41418      0.1484901    
    255000   490.6277       1322.065       1812.6927      154.79744      295.88087      0.15649388   
    256000   473.15358      1345.6677      1818.8213      110.56944      301.1632       0.15863843   
    257000   482.64575      1311.781       1794.4267      84.339161      293.57928      0.15668282   
    258000   469.24611      1287.0159      1756.262       99.299465      288.0368       0.15328737   
    259000   466.38961      1324.781       1791.1706      102.71753      296.4887       0.1508511    
    260000   486.34618      1318.1234      1804.4696      107.94373      294.99872      0.15220951   
    261000   475.04815      1329.3701      1804.4182      156.70664      297.51575      0.15490294   
    262000   466.20742      1309.3004      1775.5078      206.36385      293.02412      0.15633294   
    263000   461.53639      1263.0623      1724.5987      222.24066      282.67593      0.15522592   
    264000   467.71626      1316.9134      1784.6296      255.95793      294.72792      0.15565122   
    265000   473.95266      1334.9499      1808.9026      255.86242      298.76454      0.15488998   
    266000   489.44584      1318.1095      1807.5553      186.27849      294.99561      0.15157752   
    267000   477.19845      1344.2708      1821.4692      106.86559      300.85055      0.14664338   
    268000   508.17077      1309.8327      1818.0034      31.667387      293.14324      0.14367926   
    269000   493.37348      1294.1959      1787.5694      23.0612        289.6437       0.14516331   
    270000   476.75444      1337.7266      1814.481       71.628984      299.38596      0.15118961   
    271000   489.78595      1323.0415      1812.8274      127.32133      296.09939      0.15607401   
    272000   480.90661      1332.1426      1813.0492      172.25308      298.13624      0.15816644   
    273000   474.49612      1334.9612      1809.4573      176.14756      298.76705      0.15769908   
    274000   458.22918      1350.3124      1808.5416      205.62939      302.2027       0.15920036   
    275000   485.55194      1330.3751      1815.927       222.0986       297.74067      0.16097979   
    276000   490.54346      1349.5797      1840.1231      219.39608      302.0387       0.16037799   
    277000   472.30165      1405.4557      1877.7574      177.64711      314.54388      0.15598911   
    278000   527.46402      1322.2749      1849.7389      89.918449      295.92783      0.14876847   
    279000   485.95084      1334.946       1820.8968      48.786232      298.76365      0.14678102   
    280000   473.6004       1347.5008      1821.1012      62.351014      301.57344      0.14861303   
    281000   519.3961       1288.8759      1808.272       127.42352      288.45308      0.15174104   
    282000   500.01956      1330.7216      1830.7411      164.32478      297.81822      0.15432463   
    283000   480.27162      1367.1531      1847.4247      195.74005      305.97167      0.15718106   
    284000   494.24396      1383.608       1877.852       179.55687      309.65431      0.15893531   
    285000   473.3247       1376.9987      1850.3234      125.86324      308.17513      0.15766461   
    286000   498.96139      1347.6717      1846.6331      56.950163      301.61169      0.15238961   
    287000   489.70898      1327.2575      1816.9665      86.898046      297.04296      0.14775414   
    288000   482.59239      1361.8141      1844.4065      135.35378      304.77679      0.1467068    
    289000   515.47611      1363.5839      1879.06        201.31439      305.17288      0.14691534   
    290000   536.16364      1326.3169      1862.4806      204.80839      296.83245      0.14759354   
    291000   504.09084      1339.6298      1843.7207      156.49179      299.81191      0.14751682   
    292000   502.82712      1351.5651      1854.3922      104.70263      302.48305      0.14728097   
    293000   487.98399      1373.678       1861.662       98.465189      307.43197      0.1457636    
    294000   527.6073       1377.5488      1905.1561      106.32445      308.29825      0.14529353   
    295000   495.72346      1369.6372      1865.3606      161.30532      306.52761      0.14914128   
    296000   494.39816      1366.3527      1860.7509      211.48504      305.79254      0.15439336   
    297000   482.89668      1363.9019      1846.7986      262.66536      305.24405      0.15606222   
    298000   488.2639       1348.0169      1836.2808      210.39327      301.68894      0.15552944   
    299000   474.41648      1298.6709      1773.0873      178.54968      290.6452       0.15785086   
    300000   458.31132      1306.7083      1765.0196      121.11202      292.44399      0.16468772   
    301000   467.67478      1317.6324      1785.3072      61.743452      294.88884      0.17146951   
    302000   483.38199      1284.0854      1767.4673      58.842904      287.38094      0.17193266   
    303000   469.56438      1289.3324      1758.8968      59.51835       288.55523      0.16994432   
    304000   428.80715      1332.2879      1761.095       163.83164      298.16876      0.16813346   
    305000   453.24407      1341.1099      1794.3539      170.02936      300.14314      0.16489063   
    306000   479.57767      1317.9251      1797.5027      198.09221      294.95433      0.16246365   
    307000   487.11183      1312.1421      1799.2539      184.08386      293.66009      0.1615549    
    308000   471.91655      1290.8105      1762.727       159.16546      288.88604      0.16097558   
    309000   488.88822      1333.0882      1821.9764      129.70834      298.34787      0.15953064   
    310000   487.85994      1343.5876      1831.4476      119.44812      300.69767      0.15713794   
    311000   493.04306      1335.6074      1828.6505      139.60998      298.91168      0.15881845   
    312000   496.02453      1374.6488      1870.6733      185.81783      307.64923      0.16628623   
    313000   462.83296      1388.24        1851.0729      194.03461      310.69096      0.17221273   
    314000   446.66398      1372.2467      1818.9107      167.11725      307.11164      0.17052579   
    315000   481.00269      1363.9816      1844.9843      128.8345       305.26188      0.16795535   
    316000   490.35903      1384.3317      1874.6907      160.37138      309.81627      0.16534369   
    317000   470.33958      1356.8913      1827.2309      221.05475      303.67507      0.16414351   
    318000   477.49144      1338.4529      1815.9444      209.19895      299.54851      0.16139676   
    319000   475.03945      1339.2349      1814.2743      171.87086      299.72352      0.15836121   
    320000   484.47156      1344.0115      1828.4831      125.66407      300.79253      0.15845614   
    321000   473.62333      1339.3939      1813.0172      73.90839       299.75909      0.15945574   
    322000   501.67358      1298.3164      1799.99        2.4574763      290.56588      0.15926812   
    323000   465.71935      1340.308       1806.0274      51.829216      299.96369      0.15884346   
    324000   516.25142      1308.3684      1824.6199      104.14268      292.81554      0.15784183   
    325000   486.84405      1292.4515      1779.2955      130.41918      289.25329      0.15418933   
    326000   509.0666       1309.2431      1818.3097      164.53473      293.01129      0.14956392   
    327000   467.48139      1334.6835      1802.1649      191.05234      298.70491      0.14801372   
    328000   485.88983      1330.3929      1816.2827      177.17092      297.74465      0.1518062    
    329000   493.98924      1294.0736      1788.0629      118.78311      289.61633      0.1569493    
    330000   500.65612      1292.0639      1792.72        98.266228      289.16656      0.1599605    
    331000   490.4914       1273.9014      1764.3928      59.692578      285.10176      0.16019598   
    332000   486.32642      1276.6436      1762.97        9.7489199      285.71546      0.15938471   
    333000   471.0235       1313.6176      1784.6411     -19.038836      293.9903       0.16037373   
    334000   469.2202       1334.942       1804.1622     -3.5809747      298.76275      0.15956656   
    335000   485.60187      1280.2342      1765.836       51.267071      286.51904      0.15895376   
    336000   470.19094      1317.9449      1788.1358      194.77384      294.95877      0.15923502   
    337000   481.38977      1332.1691      1813.5589      286.1939       298.14219      0.1582461    
    338000   503.38796      1326.4285      1829.8165      317.22624      296.85743      0.15285072   
    339000   501.05243      1313.3217      1814.3741      259.54992      293.92409      0.14684742   
    340000   495.12604      1364.984       1860.1101      185.69518      305.48623      0.14619927   
    341000   501.77559      1354.7872      1856.5628      118.24832      303.20416      0.14871519   
    342000   496.34311      1367.2081      1863.5512      76.587899      305.98397      0.15451251   
    343000   514.5001       1407.806       1922.3061      53.942443      315.06988      0.15816846   
    344000   501.7807       1383.0088      1884.7895      63.758372      309.52021      0.15907718   
    345000   483.10269      1371.4255      1854.5282      106.33557      306.92785      0.15907386   
    346000   491.55836      1339.3486      1830.9069      157.27799      299.74896      0.15950118   
    347000   481.88344      1341.8222      1823.7056      159.43529      300.30256      0.16075629   
    348000   463.0379       1344.5378      1807.5757      155.77297      300.91031      0.15870908   
    349000   500.29397      1335.4533      1835.7473      102.9321       298.87719      0.15319488   
    350000   514.1471       1319.3073      1833.4544      63.99253       295.26368      0.14760225   
    351000   509.50575      1336.7281      1846.2338      48.566853      299.16249      0.14721649   
    352000   502.15972      1321.8923      1824.052       124.70519      295.8422       0.15381477   
    353000   488.40059      1327.9859      1816.3865      216.81033      297.20597      0.16127793   
    354000   467.41103      1319.9634      1787.3745      223.37586      295.41053      0.16417869   
    355000   489.8913       1326.4573      1816.3486      199.701        296.86386      0.16532828   
    356000   468.57768      1321.588       1790.1657      131.69506      295.77411      0.16472341   
    357000   484.7424       1327.826       1812.5684      79.467484      297.17019      0.16106315   
    358000   485.88827      1333.8512      1819.7394      36.060614      298.51863      0.15585866   
    359000   493.3945       1282.0556      1775.4501      75.331051      286.92667      0.15216735   
    360000   472.90455      1303.5368      1776.4413      127.80936      291.73421      0.15141196   
    361000   465.19624      1325.2346      1790.4309      196.21351      296.59023      0.15212075   
    362000   512.28244      1318.9601      1831.2425      205.97793      295.18598      0.1526906    
    363000   481.1456       1318.0499      1799.1955      195.36601      294.98227      0.15172423   
    364000   474.23439      1303.3806      1777.615       182.83144      291.69925      0.15087827   
    365000   482.0413       1334.8031      1816.8444      135.40457      298.73167      0.15249014   
    366000   488.02321      1359.7957      1847.8189      178.33136      304.32506      0.15523809   
    367000   490.82945      1369.4048      1860.2343      217.51552      306.47561      0.15612075   
    368000   492.1504       1341.321       1833.4714      230.09224      300.19038      0.1564535    
    369000   504.4272       1355.7289      1860.1561      186.19701      303.41491      0.15822701   
    370000   498.99227      1397.3719      1896.3642      156.41631      312.73471      0.16134712   
    371000   520.17358      1373.8525      1894.026       130.16727      307.471        0.16333294   
    372000   498.19524      1369.6873      1867.8825      133.32798      306.53883      0.16397509   
    373000   504.64712      1352.6526      1857.2997      132.54363      302.72642      0.16320893   
    374000   509.24708      1352.033       1861.2801      107.41646      302.58775      0.15831786   
    375000   512.43177      1296.6933      1809.1251      83.2322        290.20262      0.15165573   
    376000   507.08952      1327.1877      1834.2773      89.988119      297.02734      0.15035104   
    377000   476.43959      1333.5979      1810.0375      119.46757      298.46194      0.1523243    
    378000   504.8763       1298.7938      1803.6701      134.10196      290.67272      0.15461043   
    379000   502.38846      1302.3971      1804.7856      131.49043      291.47915      0.15617321   
    380000   438.00093      1310.1186      1748.1195      121.27649      293.20723      0.15915726   
    381000   464.14122      1333.9072      1798.0485      124.84295      298.53118      0.16666602   
    382000   460.6482       1337.9232      1798.5714      85.124823      299.42996      0.16953743   
    383000   458.53062      1322.6107      1781.1413      150.73237      296.00299      0.1692337    
    384000   444.76773      1356.7194      1801.4871      164.65114      303.63658      0.16497617   
    385000   482.03147      1307.6235      1789.655       194.8251       292.64882      0.16111859   
    386000   503.94459      1319.4371      1823.3817      240.75779      295.29272      0.15839044   
    387000   464.66975      1338.094       1802.7637      156.86589      299.46818      0.15592628   
    388000   477.27584      1280.2188      1757.4946      98.228999      286.51559      0.15608676   
    389000   477.87193      1280.9648      1758.8367      57.461715      286.68255      0.15825111   
    390000   463.47959      1337.7329      1801.2125     -2.4215159      299.38737      0.16123017   
    391000   491.03701      1312.4523      1803.4893      10.623149      293.72953      0.16333373   
    392000   487.04824      1330.5134      1817.5617      36.068016      297.77163      0.16439517   
    393000   485.71252      1327.5973      1813.3098      114.37996      297.11899      0.16172005   
    394000   496.47362      1368.3001      1864.7738      109.79281      306.22838      0.1543407    
    395000   510.95691      1337.883       1848.8399      85.203056      299.42096      0.14789805   
    396000   513.5304       1341.8272      1855.3576      146.05731      300.30367      0.14879221   
    397000   481.65665      1366.2875      1847.9442      211.96576      305.77795      0.15436651   
    398000   441.73708      1394.5925      1836.3296      217.98878      312.11267      0.15806674   
    399000   498.42383      1338.494       1836.9178      142.60365      299.55771      0.16024088   
    400000   498.36985      1343.146       1841.5158      147.1875       300.59883      0.16173798   
    401000   486.69835      1353.1361      1839.8344      125.48916      302.83463      0.16032889   
    402000   469.72632      1354.8049      1824.5313      109.45617      303.20813      0.15775642   
    403000   488.01261      1397.5464      1885.559       122.9261       312.77375      0.15401771   
    404000   507.31347      1358.7631      1866.0765      101.86233      304.09396      0.15039202   
    405000   514.63318      1382.1161      1896.7493      132.78513      309.32042      0.14998196   
    406000   496.27041      1387.8641      1884.1345      160.74371      310.60684      0.15319609   
    407000   480.26495      1342.6637      1822.9287      172.22544      300.4909       0.16079366   
    408000   462.55445      1349.0359      1811.5903      181.15538      301.917        0.16613008   
    409000   481.60792      1341.8368      1823.4447      171.84861      300.30582      0.16777887   
    410000   497.06319      1366.5818      1863.645       125.748        305.84382      0.16345158   
    411000   490.70609      1336.4529      1827.159       96.773629      299.1009       0.15762692   
    412000   503.49701      1352.6255      1856.1225      60.773778      302.72037      0.15652353   
    413000   490.22958      1342.4361      1832.6656      75.206466      300.43994      0.15647546   
    414000   496.60855      1344.3553      1840.9639      97.825603      300.86948      0.15835889   
    415000   469.35097      1348.5349      1817.8859      100.36302      301.80488      0.16003827   
    416000   489.7729       1351.6026      1841.3755      146.61469      302.49144      0.1613648    
    417000   486.65217      1368.9599      1855.6121      248.2218       306.37603      0.16171215   
    418000   478.19019      1345.4017      1823.5919      217.85707      301.10367      0.15703663   
    419000   510.35381      1343.9494      1854.3032      190.16874      300.77864      0.15213968   
    420000   477.55443      1355.3214      1832.8758      113.8769       303.32371      0.15113329   
    421000   513.95286      1353.9699      1867.9227      58.580172      303.02124      0.15669323   
    422000   484.87535      1347.4285      1832.3039      16.780728      301.55727      0.16211267   
    423000   489.93921      1376.5821      1866.5213      76.935949      308.0819       0.16555814   
    424000   495.75595      1387.9635      1883.7195      155.39038      310.62908      0.16620666   
    425000   503.50125      1377.178       1880.6792      212.48661      308.21525      0.1657934    
    426000   465.88363      1373.5009      1839.3845      200.77438      307.39232      0.16140642   
    427000   505.31892      1326.0507      1831.3696      81.919065      296.77287      0.15672358   
    428000   507.79763      1327.5256      1835.3232      32.405968      297.10295      0.15479565   
    429000   489.14782      1329.5862      1818.734       77.767203      297.56412      0.15520814   
    430000   478.86202      1304.0264      1782.8884      181.06429      291.84378      0.156719     
    431000   469.77944      1317.2341      1787.0135      206.57704      294.79969      0.15793312   
    432000   491.09315      1351.6798      1842.7729      220.44224      302.50871      0.16130399   
    433000   506.00572      1345.2973      1851.303       191.44816      301.0803       0.16452759   
    434000   494.70732      1336.909       1831.6163      83.991725      299.20298      0.16331354   
    435000   468.59517      1312.2852      1780.8804      18.995723      293.69213      0.15906799   
    436000   509.95789      1309.642       1819.5999     -3.8850812      293.10057      0.15507553   
    437000   493.4507       1314.4903      1807.941       9.2065694      294.18562      0.15356854   
    438000   476.83427      1296.2483      1773.0826      68.542214      290.10303      0.15552146   
    439000   448.25062      1354.2773      1802.5279      141.24014      303.09004      0.16256585   
    440000   466.82982      1294.9728      1761.8026      189.40385      289.81756      0.1708775    
    441000   470.72113      1335.6754      1806.3965      218.34737      298.92689      0.17230514   
    442000   470.84664      1323.6628      1794.5095      200.55474      296.23846      0.16800857   
    443000   460.19946      1352.5825      1812.7819      163.9377       302.71074      0.16297404   
    444000   478.33709      1312.679       1791.0161      184.8378       293.78026      0.16014701   
    445000   479.01835      1333.3127      1812.331       194.22375      298.39812      0.15669502   
    446000   495.75459      1325.8854      1821.64        243.92826      296.73588      0.15370954   
    447000   459.98083      1324.1028      1784.0836      190.36343      296.33692      0.15209542   
    448000   516.12001      1319.7074      1835.8274      143.54464      295.35323      0.15357517   
    449000   501.76723      1320.5546      1822.3219      56.276568      295.54284      0.15666009   
    450000   497.34512      1340.5544      1837.8995     -30.851313      300.01882      0.16022072   
    451000   501.0682       1343.7057      1844.7739     -8.3544155      300.7241       0.16680844   
    452000   464.88326      1276.4081      1741.2914      38.925462      285.66275      0.17312764   
    453000   468.02236      1292.409       1760.4313      164.34148      289.24378      0.17506946   
    454000   486.78448      1350.9201      1837.7046      281.007        302.33869      0.16873719   
    455000   502.64388      1383.0208      1885.6647      279.99081      309.5229       0.1588013    
    456000   488.33506      1352.8451      1841.1801      200.10414      302.7695       0.15540899   
    457000   477.0806       1383.7389      1860.8195      153.65809      309.68361      0.15483115   
    458000   499.11842      1343.4569      1842.5753      112.59783      300.66841      0.15534427   
    459000   484.10868      1359.7964      1843.905       99.10699       304.32522      0.15259853   
    460000   520.17946      1373.0414      1893.2208      102.74595      307.28948      0.14974568   
    461000   526.34175      1339.567       1865.9087      111.75361      299.79783      0.1506848    
    462000   516.67526      1342.693       1859.3683      181.75173      300.49745      0.15875728   
    463000   504.97531      1371.287       1876.2623      265.80891      306.89685      0.1645558    
    464000   497.53271      1393.1036      1890.6363      288.85989      311.77945      0.16601906   
    465000   490.95994      1379.9448      1870.9048      280.14578      308.83449      0.16616667   
    466000   491.25851      1351.8412      1843.0997      193.02622      302.54483      0.16245273   
    467000   477.2426       1361.0815      1838.3241      119.38203      304.61284      0.15921282   
    468000   472.37976      1404.5252      1876.905       89.13885       314.33562      0.16015959   
    469000   496.18857      1358.1238      1854.3124      80.874741      303.9509       0.16374452   
    470000   467.44984      1375.4964      1842.9462      148.41977      307.83892      0.16818513   
    471000   494.11427      1359.5159      1853.6302      185.5232       304.26245      0.17242284   
    472000   487.46517      1353.5211      1840.9862      210.26612      302.92079      0.17555501   
    473000   477.40638      1353.8071      1831.2134      201.2845       302.9848       0.17740282   
    474000   452.87946      1352.3135      1805.193       192.0239       302.65055      0.17446299   
    475000   474.44284      1338.2305      1812.6733      201.91655      299.49872      0.16807309   
    476000   487.99159      1342.0465      1830.038       154.03016      300.35275      0.16169538   
    477000   476.97539      1293.9985      1770.9739      133.77819      289.59952      0.15899821   
    478000   469.64665      1332.8765      1802.5232      33.701667      298.3005       0.15754766   
    479000   486.52952      1302.8519      1789.3814      19.433659      291.58093      0.15843359   
    480000   460.36864      1286.5349      1746.9035      54.001016      287.92914      0.16163522   
    481000   457.21898      1309.2506      1766.4696      140.3093       293.01298      0.16546388   
    482000   492.78438      1311.9767      1804.7611      190.10513      293.62309      0.16558142   
    483000   466.81559      1362.4939      1829.3094      232.41057      304.92892      0.16574056   
    484000   509.2301       1339.1169      1848.347       180.89606      299.69712      0.16410475   
    485000   517.90237      1368.173       1886.0754      150.28103      306.19993      0.16266917   
    486000   492.45788      1361.6301      1854.088       82.703626      304.73562      0.16024274   
    487000   503.47119      1358.8517      1862.3229      93.694403      304.1138       0.15874581   
    488000   516.37674      1328.5827      1844.9595      28.806936      297.33954      0.15501922   
    489000   499.24138      1312.7152      1811.9566      56.097854      293.78837      0.15100271   
    490000   492.46303      1347.6492      1840.1122      101.91691      301.60665      0.14981774   
    491000   508.36718      1323.2834      1831.6506      139.83632      296.15355      0.15484102   
    492000   500.51749      1346.5564      1847.0739      169.92953      301.36209      0.16067743   
    493000   459.49614      1362.769       1822.2651      171.58635      304.9905       0.1625009    
    494000   497.5528       1340.5481      1838.1009      161.33749      300.01742      0.16163281   
    495000   501.57608      1345.3194      1846.8955      144.51872      301.08525      0.1602677    
    496000   488.90812      1348.0438      1836.9519      170.72725      301.69496      0.15850756   
    497000   486.20358      1398.1935      1884.3971      206.73117      312.91858      0.15527254   
    498000   491.64376      1354.1323      1845.776       198.52964      303.05758      0.1504189    
    499000   523.16343      1342.2793      1865.4427      196.2629       300.40486      0.1484177    
    500000   486.86312      1393.5313      1880.3944      232.20724      311.87517      0.15190285   
    501000   478.69959      1356.9418      1835.6414      236.43281      303.68636      0.16041582   
    502000   483.20777      1355.6939      1838.9016      207.04755      303.40707      0.16531427   
    503000   474.70543      1337.7891      1812.4945      166.15578      299.39995      0.16560092   
    504000   493.2344       1308.4088      1801.6432      129.50052      292.82457      0.16393873   
    505000   492.33526      1282.1503      1774.4855      99.710204      286.94787      0.15972652   
    506000   482.44228      1272.035       1754.4773      85.348146      284.68405      0.15528004   
    507000   489.60049      1327.0447      1816.6452      85.693865      296.99532      0.15340929   
    508000   497.87533      1326.0517      1823.927       114.16936      296.77309      0.15445384   
    509000   503.81567      1333.5659      1837.3816      164.80217      298.45479      0.15726169   
    510000   463.42568      1358.1655      1821.5911      221.4652       303.96022      0.15802126   
    511000   492.47111      1351.5831      1844.0542      226.03454      302.48708      0.15825951   
    512000   488.51437      1370.8227      1859.3371      259.93661      306.79294      0.15959796   
    513000   488.18313      1355.8127      1843.9959      261.16828      303.43367      0.16003397   
    514000   475.66292      1367.4433      1843.1062      283.12708      306.03661      0.15992131   
    515000   494.11884      1353.4377      1847.5565      200.14143      302.90213      0.15956292   
    516000   464.71938      1392.3327      1857.0521      141.68996      311.60693      0.16277865   
    517000   518.26219      1378.6601      1896.9223      42.154756      308.54695      0.16909511   
    518000   508.31407      1378.031       1886.3451      30.320976      308.40616      0.17292047   
    519000   484.08138      1362.9506      1847.0319      24.979649      305.03113      0.17094343   
    520000   492.7142       1332.8493      1825.5635      63.713765      298.29442      0.16527196   
    521000   482.69465      1345.6378      1828.3325      96.581487      301.1565       0.15967153   
    522000   483.77651      1333.3088      1817.0853      91.85976       298.39724      0.15654859   
    523000   494.05492      1289.4601      1783.515       63.29648       288.58381      0.15563406   
    524000   479.21038      1327.2865      1806.4969      79.927107      297.04945      0.15801685   
    525000   473.42757      1327.8777      1801.3053      68.573615      297.18175      0.16076341   
    526000   503.79757      1326.6638      1830.4614      133.87385      296.91008      0.16231393   
    527000   469.45661      1338.4909      1807.9475      151.56317      299.557        0.1609007    
    528000   501.62043      1322.4012      1824.0217      194.72286      295.95611      0.16000421   
    529000   497.24149      1316.8971      1814.1386      183.7036       294.72427      0.15692911   
    530000   489.46707      1343.4453      1832.9124      169.04242      300.66582      0.15477125   
    531000   507.50949      1313.4225      1820.932       128.53349      293.94666      0.15391993   
    532000   477.37482      1313.9049      1791.2797      61.354832      294.05461      0.15275102   
    533000   498.84959      1275.1087      1773.9583      42.184075      285.37194      0.15429923   
    534000   464.31451      1289.8824      1754.1969      89.503234      288.67832      0.15917968   
    535000   474.97797      1314.8355      1789.8134      117.70138      294.26288      0.16433097   
    536000   484.96565      1331.511       1816.4767      159.15113      297.9949       0.16424096   
    537000   496.23982      1313.7468      1809.9866      157.26011      294.01923      0.15431984   
    538000   495.70428      1286.2999      1782.0042      159.77744      287.87656      0.14743082   
    539000   505.10207      1299.8391      1804.9412      180.00655      290.90666      0.1481959    
    540000   485.9019       1344.9157      1830.8176      183.90363      300.99488      0.15090073   
    541000   503.45524      1319.2649      1822.7201      121.89503      295.25418      0.15406038   
    542000   489.03867      1356.1961      1845.2347      103.96157      303.51947      0.15929078   
    543000   482.39803      1369.6355      1852.0335      142.85675      306.52723      0.16255094   
    544000   495.313        1368.0858      1863.3988      122.34612      306.18041      0.1610626    
    545000   499.57963      1353.2338      1852.8134      132.63072      302.8565       0.15853094   
    546000   479.38151      1310.9378      1790.3193      105.29965      293.39057      0.15537886   
    547000   488.28268      1292.857       1781.1397      90.46067       289.34405      0.15446193   
    548000   499.02259      1320.7255      1819.7481      126.56252      295.58108      0.15525987   
    549000   481.53225      1355.6122      1837.1444      145.09705      303.38879      0.15536918   
    550000   492.95152      1324.0149      1816.9664      135.34746      296.31725      0.15582806   
    551000   504.16267      1322.8826      1827.0453      103.62134      296.06384      0.15599202   
    552000   506.04717      1342.4712      1848.5184      60.402153      300.44781      0.15469904   
    553000   463.74115      1358.237       1821.9781      108.67532      303.97622      0.15527552   
    554000   487.33511      1339.5389      1826.874       122.82994      299.79156      0.15595397   
    555000   465.79904      1349.4155      1815.2145      168.6946       302.00195      0.15641499   
    556000   485.98115      1339.9496      1825.9307      248.60446      299.88347      0.15750555   
    557000   492.42792      1350.6804      1843.1084      242.24168      302.28505      0.15777238   
    558000   512.07684      1372.2569      1884.3337      277.66842      307.11391      0.15928191   
    559000   509.95575      1346.421       1856.3768      269.15753      301.33179      0.15815571   
    560000   505.5293       1348.4082      1853.9375      194.27994      301.77652      0.15493925   
    561000   465.91436      1368.5821      1834.4964      134.23615      306.29148      0.1520789    
    562000   517.86301      1368.0284      1885.8915      105.74523      306.16757      0.15224985   
    563000   517.88394      1377.533       1895.417       103.16911      308.29472      0.15635079   
    564000   491.41946      1323.8221      1815.2416      153.17768      296.27411      0.1619934    
    565000   473.60247      1344.408       1818.0105      223.47019      300.88127      0.16597416   
    566000   493.75176      1312.8468      1806.5985      279.81467      293.8178       0.16735204   
    567000   465.41776      1353.5706      1818.9884      295.34298      302.93189      0.16493369   
    568000   475.23813      1327.2041      1802.4422      247.99563      297.03099      0.16067026   
    569000   489.55558      1355.843       1845.3986      134.71235      303.44045      0.15722357   
    570000   517.58619      1336.089       1853.6752      96.664662      299.01947      0.1560227    
    571000   506.48535      1355.092       1861.5773      88.226485      303.27236      0.15743767   
    572000   504.34235      1344.9424      1849.2848      101.18106      301.00088      0.15875289   
    573000   485.26421      1349.7497      1835.0139      170.92498      302.07675      0.16130066   
    574000   509.7193       1359.1778      1868.8971      267.24924      304.18679      0.16546131   
    575000   465.45626      1346.8099      1812.2662      267.35271      301.41882      0.1664125    
    576000   488.69468      1358.3331      1847.0277      229.52492      303.99773      0.1678008    
    577000   471.46389      1413.2125      1884.6764      177.55994      316.27986      0.16874328   
    578000   502.46374      1365.8358      1868.2996      77.858597      305.67686      0.16570771   
    579000   501.57183      1350.7135      1852.2853      66.856876      302.29246      0.15987634   
    580000   503.00964      1359.2068      1862.2165      96.113754      304.19328      0.15639197   
    581000   512.16493      1382.9017      1895.0666      105.71279      309.49624      0.15538268   
    582000   487.97177      1356.3897      1844.3614      126.74518      303.56279      0.15682288   
    583000   461.9852       1381.0543      1843.0395      158.8897       309.08278      0.16222913   
    584000   490.76312      1335.1158      1825.879       187.6307       298.80167      0.16815382   
    585000   460.69037      1354.8329      1815.5233      152.70306      303.21438      0.17033299   
    586000   475.36531      1396.2758      1871.6412      144.9552       312.4894       0.17023744   
    587000   484.51283      1352.89        1837.4028      122.18169      302.77955      0.17016745   
    588000   469.98353      1327.7094      1797.6929      110.58742      297.14409      0.17049898   
    589000   479.23557      1311.8272      1791.0628      80.511299      293.58963      0.17099847   
    590000   451.79245      1343.8143      1795.6067      34.053996      300.74839      0.16803006   
    591000   483.98738      1320.0403      1804.0277     -11.961279      295.42773      0.16407969   
    592000   484.86671      1296.3083      1781.175      -2.8301718      290.11645      0.16024425   
    593000   492.36518      1322.4045      1814.7697      44.270611      295.95685      0.15907628   
    594000   483.8001       1338.0962      1821.8963      115.66296      299.46868      0.16129088   
    595000   491.03694      1312.9544      1803.9913      162.45514      293.84189      0.16702843   
    596000   480.09497      1338.0936      1818.1886      148.70547      299.4681       0.17338119   
    597000   452.48061      1375.3286      1827.8092      155.8791       307.80137      0.17733566   
    598000   456.82844      1361.4307      1818.2592      112.79184      304.69099      0.17625163   
    599000   494.91369      1329.5174      1824.4311      82.186156      297.54873      0.16859757   
    600000   475.7043       1338.0639      1813.7682      60.20342       299.46145      0.16190525   
    601000   491.98632      1328.5981      1820.5845      106.76851      297.34299      0.15996347   
    602000   478.31216      1314.9288      1793.241       104.32389      294.28377      0.15793967   
    603000   495.48817      1337.4447      1832.9329      114.7252       299.32287      0.15692319   
    604000   473.99118      1339.1242      1813.1154      125.01015      299.69875      0.15662927   
    605000   470.15423      1344.3144      1814.4686      157.33005      300.86032      0.15990346   
    606000   467.50374      1323.7523      1791.256       213.32976      296.25848      0.16653099   
    607000   473.89877      1330.7751      1804.6738      165.33577      297.83019      0.16762841   
    608000   466.16869      1389.0593      1855.228       177.09324      310.87432      0.16461842   
    609000   487.22701      1374.7128      1861.9399      103.8907       307.66356      0.15780403   
    610000   539.97017      1355.9595      1895.9296      28.385622      303.46651      0.15455879   
    611000   529.58011      1369.9255      1899.5056      21.461025      306.59215      0.15598648   
    612000   489.47286      1370.5636      1860.0364      28.216413      306.73494      0.15904152   
    613000   498.00033      1363.645       1861.6453      105.24753      305.18655      0.16310564   
    614000   460.92365      1378.0484      1838.9721      183.57156      308.41006      0.16352316   
    615000   493.30234      1343.7954      1837.0977      233.70983      300.74416      0.16368509   
    616000   500.35258      1348.3736      1848.7261      241.36521      301.76877      0.16291114   
    617000   484.13525      1313.1131      1797.2484      205.40868      293.87742      0.15994987   
    618000   499.48852      1325.6695      1825.158       148.04101      296.68756      0.15627974   
    619000   470.61246      1343.4798      1814.0922      150.43725      300.67353      0.15543741   
    620000   488.54253      1327.8224      1816.3649      169.18597      297.16938      0.15900704   
    621000   499.38209      1294.4682      1793.8503      160.86615      289.70464      0.16321766   
    622000   487.93432      1293.1601      1781.0944      160.98565      289.41188      0.16622065   
    623000   481.8137       1285.1603      1766.974       142.75604      287.62151      0.16695495   
    624000   484.46012      1329.6681      1814.1282      89.41451       297.58245      0.1648301    
    625000   499.67154      1312.9426      1812.6142      94.718226      293.83926      0.16132108   
    626000   495.51336      1306.1269      1801.6402      95.109082      292.31388      0.15420661   
    627000   467.43322      1307.7868      1775.22        142.68819      292.68536      0.1514228    
    628000   478.77955      1351.3521      1830.1316      178.14209      302.43536      0.1526115    
    629000   496.06459      1344.7312      1840.7958      187.8946       300.95361      0.15557029   
    630000   503.67935      1348.3715      1852.0509      173.76197      301.76831      0.16003632   
    631000   483.37791      1363.7082      1847.0861      190.7273       305.20069      0.16049571   
    632000   483.79605      1338.8904      1822.6865      163.84865      299.64643      0.15320431   
    633000   538.31578      1320.1932      1858.509       151.29347      295.46195      0.14814839   
    634000   521.37018      1390.0009      1911.3711      137.29919      311.08507      0.14771832   
    635000   486.65064      1361.3627      1848.0133      95.949027      304.67577      0.14858663   
    636000   503.85193      1358.7546      1862.6066      106.30807      304.09207      0.1526887    
    637000   517.56833      1337.6259      1855.1943      101.48396      299.36343      0.15640932   
    638000   528.91791      1341.4682      1870.3862      116.36236      300.22335      0.15876621   
    639000   487.14799      1344.4773      1831.6253      118.66335      300.89678      0.15921444   
    640000   473.7175       1351.4382      1825.1557      178.75377      302.45465      0.16006632   
    641000   485.70066      1349.6793      1835.38        178.13542      302.061        0.15991169   
    642000   480.67165      1343.6694      1824.341       158.00637      300.71596      0.16014863   
    643000   479.23931      1355.6183      1834.8576      119.2992       303.39016      0.16131808   
    644000   462.65497      1367.4896      1830.1446      57.791385      306.04698      0.16292856   
    645000   490.39572      1365.4606      1855.8563      26.485779      305.59289      0.16537323   
    646000   494.5448       1342.376       1836.9208      20.257008      300.4265       0.1667052    
    647000   461.61761      1372.4178      1834.0354      38.477069      307.14992      0.1657216    
    648000   481.91332      1354.2075      1836.1208      55.729471      303.07441      0.16228909   
    649000   488.16086      1380.4657      1868.6265      147.01731      308.95105      0.15804813   
    650000   495.74864      1348.3569      1844.1055      228.51637      301.76504      0.15164504   
    651000   482.13649      1310.8403      1792.9768      283.62087      293.36874      0.14675649   
    652000   479.78455      1334.7411      1814.5257      263.23461      298.71781      0.14677825   
    653000   492.38484      1336.0979      1828.4828      195.23424      299.02146      0.1547889    
    654000   486.94565      1316.5786      1803.5243      123.12839      294.653        0.16206634   
    655000   479.00619      1351.3761      1830.3823      20.705154      302.44075      0.1636185    
    656000   475.93         1378.6441      1854.5741      16.196282      308.54337      0.16479472   
    657000   483.72966      1399.5632      1883.2928      109.36762      313.22511      0.16463939   
    658000   473.00028      1373.4411      1846.4413      190.11362      307.37893      0.16206841   
    659000   476.24768      1362.0419      1838.2896      230.61121      304.82778      0.1566074    
    660000   494.04658      1325.702       1819.7485      214.90071      296.69482      0.15283539   
    661000   488.87786      1316.2984      1805.1763      119.84019      294.59028      0.15258009   
    662000   468.92031      1312.7124      1781.6327      43.848879      293.78772      0.15682938   
    663000   476.33797      1302.6499      1778.9879     -14.163737      291.53573      0.16258175   
    664000   471.34057      1261.7883      1733.1288     -19.442933      282.39081      0.16952726   
    665000   466.5447       1312.6909      1779.2356      78.643655      293.78292      0.17340946   
    666000   463.79625      1319.2097      1783.006       184.77212      295.24185      0.16970078   
    667000   491.02218      1325.7367      1816.7589      171.13503      296.70259      0.16475137   
    668000   480.59808      1321.1747      1801.7728      198.88995      295.68162      0.16126501   
    669000   488.25474      1296.0841      1784.3389      190.23591      290.06629      0.15824872   
    670000   481.49586      1283.8933      1765.3891      211.88728      287.33795      0.15695875   
    671000   514.85514      1290.9306      1805.7857      208.81216      288.91291      0.15615384   
    672000   492.73714      1327.0006      1819.7377      187.03558      296.98545      0.15461686   
    673000   498.41494      1339.5256      1837.9405      136.22924      299.78858      0.15237286   
    674000   499.62233      1340.9732      1840.5955      119.55138      300.11255      0.15197602   
    675000   506.55389      1335.7568      1842.3107      86.071484      298.94511      0.15602634   
    676000   496.40179      1328.3165      1824.7183      56.345927      297.27997      0.16257715   
    677000   494.24785      1317.4864      1811.7342      81.43394       294.85616      0.16543907   
    678000   486.70319      1332.4997      1819.2029      60.052697      298.21617      0.16558324   
    679000   472.96597      1325.7406      1798.7066      83.94072       296.70347      0.16384954   
    680000   462.00714      1300.1027      1762.1098      129.76584      290.96565      0.16118799   
    681000   475.21457      1304.8332      1780.0477      126.42096      292.02434      0.15846389   
    682000   469.67779      1342.1143      1811.7921      130.94237      300.36794      0.15614307   
    683000   521.62792      1323.398       1845.0259      125.38833      296.17919      0.15654733   
    684000   498.58831      1353.8748      1852.4631      163.63097      302.99995      0.158588     
    685000   492.52773      1358.4955      1851.0233      186.9097       304.03409      0.16076977   
    686000   473.47389      1359.152       1832.6259      150.39774      304.18101      0.16318862   
    687000   478.4715       1368.0273      1846.4988      110.9605       306.16731      0.16416179   
    688000   468.16714      1400.9705      1869.1377      110.99958      313.54008      0.16196564   
    689000   490.41772      1354.061       1844.4787      94.7141        303.04163      0.15675827   
    690000   493.63617      1362.0278      1855.664       120.25969      304.82462      0.15189812   
    691000   514.75216      1368.8976      1883.6497      155.37059      306.36209      0.15017289   
    692000   520.51335      1378.9294      1899.4427      208.91551      308.60723      0.15009999   
    693000   525.1784       1379.5407      1904.7191      200.52043      308.74404      0.14848858   
    694000   504.31826      1376.3911      1880.7094      206.3741       308.03915      0.14747199   
    695000   548.63572      1324.8201      1873.4559      187.88457      296.49747      0.15087249   
    696000   486.57297      1372.6699      1859.2428      168.62733      307.20633      0.15607237   
    697000   473.46187      1411.1414      1884.6033      185.99369      315.81634      0.161174     
    698000   511.83042      1385.0077      1896.8381      128.27965      309.96756      0.16098398   
    699000   503.87926      1331.4962      1835.3755      97.434126      297.99158      0.15745664   
    700000   509.4781       1356.1967      1865.6748      137.36055      303.51961      0.1554706    
    701000   487.65961      1375.298       1862.9576      166.06217      307.79451      0.15517174   
    702000   487.59656      1381.1896      1868.7862      173.96172      309.11307      0.15408065   
    703000   492.21994      1291.8167      1784.0366      196.44701      289.11122      0.15414265   
    704000   479.17287      1332.5289      1811.7018      193.93837      298.22271      0.15503244   
    705000   474.3095       1313.8765      1788.186       187.90934      294.04826      0.15594515   
    706000   480.9213       1343.7741      1824.6954      112.32112      300.73941      0.1571582    
    707000   486.63112      1338.1869      1824.818       47.605386      299.48898      0.15921435   
    708000   468.62475      1338.1221      1806.7469      36.102903      299.47448      0.16274669   
    709000   454.55469      1343.3191      1797.8738      67.022095      300.63757      0.16521798   
    710000   467.76409      1295.2969      1763.061       130.92961      289.8901       0.1648957    
    711000   452.03055      1295.2757      1747.3062      198.33863      289.88536      0.16331579   
    712000   489.17518      1351.1244      1840.2996      216.88721      302.38442      0.15859372   
    713000   524.29032      1348.7214      1873.0117      196.98695      301.84662      0.15447548   
    714000   499.01713      1349.9124      1848.9295      191.71062      302.11316      0.15282357   
    715000   505.4471       1383.8348      1889.2819      187.74558      309.70508      0.15336249   
    716000   485.57702      1341.346       1826.9231      127.16691      300.196        0.15629858   
    717000   484.84964      1345.2912      1830.1408      131.56565      301.07893      0.1634854    
    718000   478.58197      1342.2045      1820.7865      97.595155      300.38812      0.1669904    
    719000   476.16056      1281.6034      1757.7639      123.61862      286.82546      0.16844236   
    720000   468.97429      1304.7328      1773.7071      149.50806      292.00188      0.16711386   
    721000   471.63202      1304.6774      1776.3094      143.99082      291.98948      0.16179449   
    722000   483.22605      1318.6883      1801.9144      143.58649      295.12516      0.15820873   
    723000   492.12925      1329.2108      1821.34        172.64738      297.4801       0.15870262   
    724000   494.64095      1347.4263      1842.0673      158.50347      301.55677      0.16198933   
    725000   484.7137       1356.0729      1840.7866      89.832327      303.49189      0.16733759   
    726000   450.71035      1374.186       1824.8964      82.78271       307.54565      0.17241363   
    727000   498.58124      1403.1177      1901.699       24.1375        314.02063      0.17044127   
    728000   497.35683      1368.8959      1866.2527      40.473533      306.36172      0.16698827   
    729000   494.81524      1353.6063      1848.4215      37.097844      302.93987      0.16425897   
    730000   479.84573      1369.0857      1848.9314      74.904876      306.40418      0.16241942   
    731000   490.15456      1354.7019      1844.8565      157.06137      303.18507      0.16139344   
    732000   482.19664      1371.3674      1853.564       259.58368      306.91484      0.1596218    
    733000   515.03897      1363.4171      1878.456       234.75311      305.13554      0.15571179   
    734000   491.90187      1343.1792      1835.0811      202.13015      300.60627      0.15036352   
    735000   510.57186      1349.2022      1859.7741      140.62506      301.95422      0.1441668    
    736000   503.84495      1343.3998      1847.2448      89.446868      300.65563      0.14147311   
    737000   510.04021      1315.2241      1825.2643      56.345963      294.34985      0.14644642   
    738000   464.73633      1314.6951      1779.4315      51.027732      294.23147      0.15675938   
    739000   466.51108      1344.5353      1811.0464      49.898056      300.90977      0.16057133   
    740000   492.41648      1308.1857      1800.6022      127.42956      292.77464      0.16233718   
    741000   499.52484      1292.1572      1791.682       129.1321       289.18742      0.15873907   
    742000   511.96881      1355.3004      1867.2692      173.94263      303.31902      0.15504896   
    743000   506.6075       1367.9149      1874.5224      124.50011      306.14215      0.15212499   
    744000   494.29948      1379.201       1873.5005      90.983677      308.66801      0.15297835   
    745000   491.74643      1352.0013      1843.7477      99.056663      302.58066      0.15814554   
    746000   527.99983      1342.6064      1870.6063      76.650134      300.47807      0.16115128   
    747000   484.14963      1381.314       1865.4637      101.30801      309.14092      0.16242403   
    748000   502.91297      1370.8791      1873.7921      174.98942      306.80556      0.16223744   
    749000   495.87058      1310.7676      1806.6381      149.50447      293.35247      0.15816315   
    750000   526.64795      1321.6499      1848.2979      153.02162      295.78797      0.15540206   
    751000   482.88036      1338.8064      1821.6868      141.47023      299.62763      0.15449369   
    752000   472.46306      1309.0838      1781.5469      131.81324      292.97565      0.15503839   
    753000   497.69662      1327.9663      1825.6629      113.66677      297.20158      0.15521085   
    754000   495.01878      1335.9513      1830.9701      124.72894      298.98865      0.15529906   
    755000   472.21856      1323.2738      1795.4923      157.89783      296.15139      0.15515833   
    756000   495.83145      1326.1351      1821.9666      182.44152      296.79176      0.15485327   
    757000   475.80211      1313.1794      1788.9815      174.61697      293.89225      0.15398596   
    758000   514.93232      1330.3842      1845.3165      153.28772      297.74271      0.15195866   
    759000   498.97501      1321.0284      1820.0034      78.871177      295.64887      0.1513064    
    760000   507.13787      1313.5369      1820.6748      57.141731      293.97225      0.15934817   
    761000   507.26         1340.2312      1847.4912      55.289045      299.94649      0.16687746   
    762000   494.76961      1341.7804      1836.55        95.955893      300.29321      0.17142941   
    763000   472.56038      1352.2335      1824.7939      145.12556      302.63264      0.17521432   
    764000   473.97014      1331.3679      1805.3381      166.33643      297.96287      0.17689836   
    765000   446.86328      1357.0992      1803.9625      209.91547      303.72159      0.17532895   
    766000   477.78683      1372.0636      1849.8504      156.16078      307.07065      0.17087563   
    767000   501.07873      1321.1231      1822.2018      104.31558      295.67006      0.16355761   
    768000   494.17319      1341.4185      1835.5917      66.333208      300.21222      0.15988567   
    769000   499.68097      1394.4972      1894.1782      111.27396      312.09133      0.15978544   
    770000   491.08241      1376.6744      1867.7568      112.4415       308.10255      0.15992498   
    771000   479.4027       1373.6757      1853.0784      157.29403      307.43144      0.15985816   
    772000   487.21226      1363.1482      1850.3605      181.71427      305.07536      0.16279826   
    773000   481.57063      1378.8835      1860.4541      144.99498      308.59696      0.16729345   
    774000   521.26998      1394.4275      1915.6975      92.422111      312.07575      0.17044175   
    775000   498.98742      1363.17        1862.1575      75.874902      305.08025      0.1688928    
    776000   522.877        1330.7682      1853.6452      74.965529      297.82866      0.1607153    
    777000   507.49396      1346.1855      1853.6795      90.820977      301.27909      0.15260628   
    778000   509.07161      1340.1881      1849.2598      123.89206      299.93686      0.15041596   
    779000   487.85263      1368.8996      1856.7522      155.59357      306.36254      0.1526656    
    780000   512.53494      1342.26        1854.7949      104.09644      300.40053      0.1566192    
    781000   525.70255      1338.7588      1864.4614      59.871424      299.61697      0.16119581   
    782000   497.52578      1344.5737      1842.0995      56.688016      300.91835      0.16501883   
    783000   454.89597      1328.4196      1783.3156      76.162953      297.30303      0.16721894   
    784000   479.82077      1321.8045      1801.6253      111.39686      295.82257      0.16747074   
    785000   500.43122      1304.1672      1804.5984      165.80186      291.87529      0.16574859   
    786000   478.24219      1302.9717      1781.2138      161.06586      291.60773      0.16229477   
    787000   490.01865      1311.882       1801.9006      162.01991      293.60188      0.16063159   
    788000   516.98504      1305.1215      1822.1065      175.26486      292.08887      0.16233179   
    789000   487.17164      1281.1         1768.2716      156.66426      286.71281      0.16552235   
    790000   482.63987      1288.3786      1771.0185      118.79713      288.34178      0.16841322   
    791000   515.65749      1301.2739      1816.9314      110.42386      291.22777      0.16697917   
    792000   500.14107      1323.493       1823.6341      73.483728      296.20045      0.16281588   
    793000   475.53313      1342.2694      1817.8025      70.651416      300.40265      0.1569735    
    794000   460.8347       1324.1684      1785.0031      39.04439       296.3516       0.154309     
    795000   483.52161      1308.1478      1791.6694      51.462373      292.76617      0.15867936   
    796000   465.45987      1347.1401      1812.6         116.13952      301.49273      0.16803955   
    797000   494.10911      1358.2939      1852.403       164.12377      303.98895      0.17272513   
    798000   504.73211      1329.5436      1834.2757      227.17759      297.55459      0.17281725   
    799000   481.91107      1346.5386      1828.4496      248.03618      301.3581       0.16970871   
    800000   480.24326      1391.9366      1872.1799      241.14093      311.51827      0.16641681   
    801000   495.42488      1344.1431      1839.568       225.50488      300.82198      0.16152976   
    802000   509.37567      1328.2169      1837.5926      195.64369      297.25768      0.15708677   
    803000   489.68466      1349.968       1839.6527      153.99821      302.12562      0.15430151   
    804000   507.3007       1339.3424      1846.6431      121.61978      299.74759      0.15489049   
    805000   516.45321      1327.072       1843.5253      102.40119      297.00145      0.15869313   
    806000   520.63607      1325.4435      1846.0795      107.57572      296.63696      0.16171851   
    807000   494.27118      1355.3297      1849.6008      145.91923      303.32556      0.16608683   
    808000   496.69545      1351.271       1847.9664      171.04369      302.41721      0.16972495   
    809000   456.26722      1380.0669      1836.3342      215.62572      308.86181      0.1718255    
    810000   453.41484      1345.2605      1798.6753      164.00401      301.07205      0.16914944   
    811000   484.88679      1319.0122      1803.899       75.46663       295.19763      0.16303334   
    812000   522.64063      1295.9836      1818.6242      41.657529      290.04378      0.15767347   
    813000   492.9582       1334.3747      1827.3329      115.7894       298.63579      0.15623572   
    814000   488.52126      1317.8834      1806.4047      158.37199      294.94501      0.15429899   
    815000   472.41166      1312.0529      1784.4646      150.33803      293.64014      0.15353172   
    816000   467.89018      1313.5389      1781.4291      168.02414      293.97271      0.15685564   
    817000   474.77588      1315.4903      1790.2662      151.49354      294.40944      0.15967939   
    818000   496.12971      1324.9931      1821.1228      118.48608      296.53618      0.15935405   
    819000   494.4155       1289.2031      1783.6186      94.858688      288.5263       0.15865729   
    820000   504.57817      1312.7251      1817.3032      73.157731      293.79057      0.15877585   
    821000   520.82074      1344.1591      1864.9799      79.62695       300.82557      0.15926407   
    822000   505.35313      1340.834       1846.1872      90.918811      300.08141      0.16025171   
    823000   485.44605      1357.0231      1842.4692      133.43185      303.70456      0.16365169   
    824000   481.3409       1342.2499      1823.5908      178.53875      300.39829      0.16890315   
    825000   470.53649      1368.959       1839.4955      208.00165      306.37584      0.17325937   
    826000   494.32801      1384.3626      1878.6907      231.86617      309.8232       0.17181525   
    827000   480.58787      1361.9892      1842.5771      217.9135       304.81599      0.16700622   
    828000   535.58847      1350.0192      1885.6077      165.27783      302.13707      0.16415602   
    829000   486.92784      1388.1793      1875.1072      119.99728      310.67738      0.16066063   
    830000   539.81741      1330.8865      1870.7039      42.703515      297.85513      0.15886036   
    831000   523.39494      1366.0547      1889.4497      18.218683      305.72585      0.15800548   
    832000   520.86542      1341.9017      1862.7671      48.94698       300.32035      0.15998765   
    833000   468.50257      1369.6925      1838.1951      117.09856      306.53999      0.16431602   
    834000   487.686        1383.4075      1871.0935      139.30133      309.60945      0.17010891   
    835000   513.59004      1347.5398      1861.1299      125.24326      301.58218      0.17256688   
    836000   492.39613      1346.5875      1838.9836      160.86539      301.36905      0.16898523   
    837000   486.84772      1368.1369      1854.9846      163.53198      306.19185      0.15968793   
    838000   516.33976      1336.3214      1852.6612      207.65924      299.07148      0.15519941   
    839000   525.2252       1311.0355      1836.2607      187.29296      293.41244      0.1540154    
    840000   493.16704      1309.1614      1802.3284      207.16292      292.99301      0.15582554   
    841000   491.5303       1339.2258      1830.7561      203.05753      299.72149      0.16003428   
    842000   496.63804      1326.3205      1822.9585      156.96605      296.83325      0.16289449   
    843000   489.18092      1292.8516      1782.0325      80.385461      289.34284      0.16345944   
    844000   451.80106      1287.3066      1739.1076      84.757444      288.10185      0.16557919   
    845000   451.57769      1347.8456      1799.4233      148.22659      301.65062      0.171365     
    846000   467.82077      1321.906       1789.7268      179.34625      295.84528      0.17508712   
    847000   481.38747      1275.1215      1756.509       198.62614      285.37482      0.17487522   
    848000   461.79532      1289.7871      1751.5824      174.76755      288.657        0.17313127   
    849000   473.764        1313.2947      1787.0587      140.7873       293.91805      0.17161962   
    850000   465.27801      1331.7379      1797.0159      180.15196      298.04568      0.17134131   
    851000   502.48151      1306.2378      1808.7193      176.87849      292.3387       0.17007944   
    852000   474.3831       1333.9617      1808.3448      121.69283      298.54337      0.16481736   
    853000   523.88978      1367.699       1891.5888      50.872992      306.09385      0.15876254   
    854000   513.82117      1348.951       1862.7722     -2.0012981      301.898        0.15485446   
    855000   512.63741      1333.129       1845.7664      6.3412684      298.35701      0.15311283   
    856000   502.28197      1357.9782      1860.2601      50.302258      303.9183       0.15456206   
    857000   514.49705      1324.8575      1839.3546      110.16606      296.50584      0.16290352   
    858000   477.80225      1379.8165      1857.6187      199.09972      308.80576      0.16920113   
    859000   527.20278      1359.519       1886.7218      249.1276       304.26315      0.16981201   
    860000   491.20155      1357.1812      1848.3828      295.46937      303.73994      0.16472042   
    861000   492.10016      1361.2509      1853.3511      293.41272      304.65075      0.15995504   
    862000   493.03798      1387.9282      1880.9661      227.65603      310.62117      0.15813628   
    863000   498.11142      1351.6731      1849.7845      173.36959      302.50721      0.15653654   
    864000   524.80363      1352.4061      1877.2097      130.58664      302.67126      0.15495968   
    865000   531.14661      1341.2415      1872.3881      45.169081      300.1726       0.15249229   
    866000   512.56289      1316.6022      1829.1651      53.314515      294.65828      0.1554574    
    867000   489.3465       1342.4414      1831.7879      149.99284      300.44115      0.16751945   
    868000   499.34713      1356.5628      1855.9099      183.87773      303.60154      0.17137307   
    869000   505.87471      1381.5642      1887.4389      234.75965      309.19691      0.16995246   
    870000   498.73454      1374.8499      1873.5845      211.95192      307.69423      0.16293495   
    871000   515.07414      1361.0401      1876.1142      163.62859      304.60356      0.15753723   
    872000   495.38411      1342.1765      1837.5606      204.64607      300.38186      0.15651246   
    873000   524.96862      1358.3385      1883.3072      183.23846      303.99896      0.15704354   
    874000   526.93639      1374.2084      1901.1448      190.38038      307.55067      0.15841907   
    875000   501.55267      1383.1832      1884.7359      167.48536      309.55924      0.16007696   
    876000   513.55628      1352.9196      1866.4759      187.75602      302.78619      0.16388871   
    877000   497.16818      1327.2068      1824.3749      281.20631      297.0316       0.1691075    
    878000   495.6617       1334.1045      1829.7662      295.23644      298.57533      0.17075598   
    879000   478.37919      1349.0128      1827.392       184.78691      301.91183      0.1629087    
    880000   502.17583      1305.2742      1807.45        120.60964      292.12303      0.15396568   
    881000   510.52322      1312.7398      1823.2631      96.617971      293.79387      0.15229482   
    882000   481.52933      1316.8728      1798.4021      109.08784      294.71883      0.1528299    
    883000   501.58714      1328.2975      1829.8846      128.57893      297.2757       0.15578554   
    884000   506.98512      1316.8678      1823.853       156.56154      294.71772      0.16050923   
    885000   491.62485      1354.6628      1846.2876      144.03171      303.17631      0.16397308   
    886000   486.99783      1339.8286      1826.8264      158.15678      299.85639      0.16457622   
    887000   519.94619      1350.9332      1870.8793      103.97921      302.34161      0.16017063   
    888000   514.13928      1357.4693      1871.6086      89.458332      303.80441      0.15504474   
    889000   513.80836      1352.1294      1865.9377      125.07964      302.60933      0.15152161   
    890000   518.57878      1373.3289      1891.9077      119.04         307.35383      0.15059062   
    891000   524.83382      1393.548       1918.3818      145.56204      311.8789       0.15288196   
    892000   509.12015      1382.3232      1891.4434      156.11134      309.36677      0.15564229   
    893000   524.60176      1340.4315      1865.0332      152.88047      299.99131      0.15780837   
    894000   507.36049      1342.4533      1849.8138      199.98828      300.44381      0.15780634   
    895000   505.30389      1358.4288      1863.7327      173.3477       304.01915      0.15692693   
    896000   508.65265      1328.2896      1836.9423      169.95092      297.27394      0.15833004   
    897000   496.64205      1343.5271      1840.1692      105.19956      300.68413      0.16089016   
    898000   463.88101      1328.6968      1792.5778      82.958671      297.36508      0.16233213   
    899000   501.37457      1293.028       1794.4026      38.717853      289.38232      0.16174281   
    900000   487.51775      1330.371       1817.8887      88.266546      297.73975      0.16201924   
    901000   493.89707      1320.3079      1814.205       158.50324      295.48762      0.15937194   
    902000   495.9802       1341.5813      1837.5615      136.30092      300.24866      0.15545533   
    903000   492.49317      1307.3055      1799.7987      139.32525      292.57766      0.15469846   
    904000   512.63615      1313.3846      1826.0207      105.28673      293.93816      0.1544339    
    905000   485.1651       1343.0663      1828.2314      94.442696      300.581        0.15551012   
    906000   478.82563      1331.057       1809.8827      111.41639      297.89329      0.15759911   
    907000   488.65067      1350.4251      1839.0757      109.98454      302.2279       0.15854778   
    908000   499.13657      1380.1967      1879.3333      127.5322       308.89086      0.15855693   
    909000   499.57676      1353.292       1852.8687      122.95874      302.86952      0.15893435   
    910000   503.53001      1332.2237      1835.7537      73.286308      298.15439      0.16142958   
    911000   488.07693      1337.5825      1825.6594      86.737734      299.35371      0.16420516   
    912000   470.81836      1299.4791      1770.2974      92.535703      290.82608      0.16629939   
    913000   484.60815      1342.1857      1826.7939      129.50278      300.38392      0.17090787   
    914000   485.77567      1330.0809      1815.8565      180.43784      297.67483      0.1721302    
    915000   469.36509      1297.4173      1766.7824      177.27076      290.36466      0.16947825   
    916000   489.70624      1318.9095      1808.6157      159.83923      295.17464      0.16403867   
    917000   498.14776      1324.8114      1822.9592      137.50575      296.49551      0.15871732   
    918000   483.79678      1342.1629      1825.9597      117.63511      300.37881      0.15657354   
    919000   499.8643       1298.1791      1798.0434      83.0607        290.53515      0.15892379   
    920000   480.22447      1346.3198      1826.5443      132.16218      301.30914      0.16439531   
    921000   493.37269      1381.9953      1875.368       186.61016      309.29338      0.16753308   
    922000   493.82108      1361.0126      1854.8336      222.46135      304.5974       0.1686051    
    923000   493.2249       1364.9721      1858.197       208.79061      305.48356      0.16676347   
    924000   523.37134      1359.0154      1882.3867      159.9012       304.15042      0.16422605   
    925000   495.52632      1385.9342      1881.4605      112.00974      310.17491      0.16084032   
    926000   524.28485      1343.2767      1867.5615      68.238104      300.62808      0.15715884   
    927000   505.36299      1301.0565      1806.4195      76.549925      291.17911      0.15726531   
    928000   513.79001      1325.876       1839.666       80.75092       296.73377      0.15910294   
    929000   500.42367      1341.9484      1842.372       75.509265      300.3308       0.16214635   
    930000   482.00652      1314.1983      1796.2048      129.84926      294.12028      0.16461581   
    931000   478.41392      1331.0309      1809.4448      105.25156      297.88745      0.16640438   
    932000   446.27635      1352.4115      1798.6878      108.00621      302.67246      0.16693209   
    933000   471.00538      1363.6654      1834.6708      112.59295      305.19112      0.1678219    
    934000   522.98821      1332.7083      1855.6966      163.66384      298.26286      0.16899303   
    935000   506.07341      1345.6667      1851.7401      204.72829      301.16297      0.16983319   
    936000   510.81399      1396.4273      1907.2413      242.00583      312.52329      0.16894399   
    937000   512.70884      1371.4632      1884.1721      163.04279      306.93629      0.16253786   
    938000   505.42937      1363.9548      1869.3842      120.54711      305.25589      0.15819332   
    939000   484.55605      1346.8557      1831.4117      88.531645      301.42907      0.15783425   
    940000   488.44852      1347.8018      1836.2503      66.001124      301.64081      0.16031097   
    941000   492.62172      1343.1014      1835.7232      96.729993      300.58886      0.1643851    
    942000   502.78871      1337.4973      1840.286       139.02611      299.33464      0.16566789   
    943000   478.50765      1334.4648      1812.9724      182.79288      298.65595      0.1606882    
    944000   517.3601       1330.8281      1848.1882      180.14774      297.84206      0.15322568   
    945000   495.64251      1331.0177      1826.6602      177.00235      297.8845       0.15004462   
    946000   500.2269       1311.5154      1811.7423      163.71815      293.51985      0.15123573   
    947000   493.86094      1335.1117      1828.9726      181.07617      298.80074      0.1563115    
    948000   488.70935      1301.0643      1789.7737      171.13846      291.18087      0.15896683   
    949000   489.59729      1367.8764      1857.4737      151.21661      306.13354      0.15953202   
    950000   477.97744      1357.5474      1835.5248      116.42595      303.82189      0.15800929   
    951000   496.58305      1352.2326      1848.8157      117.12775      302.63243      0.15716365   
    952000   525.16978      1332.4789      1857.6487      91.878011      298.21151      0.15526558   
    953000   493.74277      1336.7762      1830.519       117.70772      299.17327      0.15554645   
    954000   471.25227      1367.4556      1838.7078      170.60872      306.03937      0.15945535   
    955000   473.21913      1400.2466      1873.4657      209.25771      313.37805      0.16502094   
    956000   498.72159      1398.1725      1896.8941      229.97947      312.91388      0.16963014   
    957000   471.96895      1384.033       1856.0019      191.3306       309.74942      0.17159653   
    958000   482.60671      1350.8074      1833.4141      105.82931      302.31347      0.16823283   
    959000   491.77488      1364.5457      1856.3205      64.883047      305.38812      0.16309697   
    960000   503.12682      1347.5325      1850.6594      92.162883      301.58055      0.15864052   
    961000   513.45351      1335.2606      1848.7141      121.70433      298.83406      0.15616262   
    962000   520.98742      1349.1374      1870.1248      168.24782      301.93971      0.15809279   
    963000   517.5176       1357.1063      1874.6239      181.55318      303.72317      0.16072032   
    964000   480.66649      1356.0479      1836.7144      163.04584      303.48631      0.16096867   
    965000   466.4728       1356.2029      1822.6757      164.09835      303.52098      0.16087964   
    966000   500.86959      1338.8023      1839.6719      132.72567      299.62671      0.16010935   
    967000   495.80269      1307.1071      1802.9098      95.98598       292.53325      0.15995516   
    968000   459.80227      1292.4051      1752.2074      87.869763      289.24291      0.16080107   
    969000   481.01816      1315.6124      1796.6306      159.03388      294.43676      0.15940537   
    970000   509.7972       1304.1032      1813.9004      148.89698      291.86098      0.15427115   
    971000   507.17978      1356.82        1863.9998      200.20246      303.6591       0.15223      
    972000   506.15885      1322.327       1828.4858      151.94111      295.93949      0.15152719   
    973000   502.32331      1333.7605      1836.0838      122.28403      298.49834      0.15616481   
    974000   473.72151      1324.1015      1797.823       146.71655      296.33662      0.16386961   
    975000   495.97506      1302.7217      1798.6967      141.00581      291.55178      0.16601331   
    976000   511.03639      1310.9942      1822.0306      166.18735      293.40319      0.16486246   
    977000   530.04214      1342.1113      1872.1534      148.79388      300.36726      0.16093203   
    978000   488.20954      1371.56        1859.7695      71.340764      306.95794      0.15691191   
    979000   527.44732      1363.1774      1890.6247      15.753509      305.08189      0.15704129   
    980000   523.01713      1388.6604      1911.6775      57.40861       310.78504      0.15790641   
    981000   512.45676      1369.0229      1881.4797      41.645642      306.39014      0.15801421   
    982000   490.09989      1355.1194      1845.2193      136.8191       303.2785       0.15962942   
    983000   509.59162      1329.5029      1839.0945      217.83774      297.54547      0.16336981   
    984000   497.85085      1354.3206      1852.1714      202.55476      303.09973      0.16957741   
    985000   482.03134      1361.5876      1843.619       179.43517      304.72611      0.17535146   
    986000   488.96953      1349.1991      1838.1686      109.26793      301.95353      0.17764342   
    987000   479.94638      1365.0452      1844.9916      68.669294      305.49992      0.17549433   
    988000   496.55096      1332.8103      1829.3612      48.663025      298.28567      0.17078735   
    989000   497.24588      1341.236       1838.4818      19.023095      300.17136      0.16498411   
    990000   506.32412      1319.4024      1825.7265      74.794076      295.28497      0.16445087   
    991000   485.88798      1345.6243      1831.5123      200.61851      301.15349      0.16563847   
    992000   471.25754      1338.1801      1809.4376      267.84425      299.48745      0.16377062   
    993000   501.67244      1309.0304      1810.7028      303.8465       292.96369      0.15979575   
    994000   510.84164      1316.9674      1827.809       271.88682      294.74001      0.15852116   
    995000   504.40775      1373.519       1877.9268      244.58166      307.39637      0.15888818   
    996000   514.16175      1359.0883      1873.25        101.5882       304.16675      0.15719787   
    997000   502.90555      1370.6222      1873.5277      3.8798812      306.74806      0.15645028   
    998000   508.44568      1368.565       1877.0106     -32.319675      306.28765      0.15770144   
    999000   497.43901      1378.6207      1876.0597     -23.181974      308.53814      0.1606447    
   1000000   480.51564      1390.9199      1871.4355      61.819596      311.29073      0.16298239   
   1001000   507.13068      1344.089       1851.2197      174.10748      300.80988      0.1645558    
   1002000   525.88782      1374.1841      1900.0719      187.21459      307.54522      0.16245813   
   1003000   496.72046      1361.7115      1858.432       235.13528      304.75383      0.15967128   
   1004000   516.4096       1372.9298      1889.3394      224.49828      307.2645       0.1547952    
   1005000   518.28555      1352.4968      1870.7823      165.54952      302.69155      0.15055645   
   1006000   517.58345      1347.2919      1864.8754      129.55706      301.5267       0.15080931   
   1007000   519.47907      1354.4067      1873.8858      74.466198      303.119        0.15379469   
   1008000   526.77223      1328.4445      1855.2168      54.991453      297.30861      0.15641373   
   1009000   490.70216      1305.0893      1795.7915      48.710133      292.08166      0.15782816   
   1010000   492.33094      1346.2606      1838.5915      49.343497      301.29588      0.16223468   
   1011000   460.56504      1317.9053      1778.4703      116.02252      294.94991      0.17031466   
   1012000   516.5781       1299.8963      1816.4744      173.88643      290.91947      0.17417497   
   1013000   461.37059      1318.2409      1779.6115      196.55095      295.02502      0.17149513   
   1014000   459.85568      1313.2648      1773.1204      227.88366      293.91135      0.16684999   
   1015000   484.01357      1346.9137      1830.9273      150.71287      301.44205      0.16292764   
   1016000   506.29235      1338.6978      1844.9901      188.27048      299.60331      0.16100398   
   1017000   499.27093      1339.0784      1838.3493      137.75712      299.68849      0.15998188   
   1018000   476.3878       1307.7993      1784.1871      101.47047      292.68817      0.15907545   
   1019000   503.16201      1320.5307      1823.6927      101.44908      295.53748      0.15916589   
   1020000   492.28989      1339.3437      1831.6336      102.73269      299.74787      0.15949444   
   1021000   505.27634      1310.3521      1815.6284      102.7545       293.25949      0.16073383   
   1022000   516.36231      1307.1878      1823.5501      160.32541      292.55131      0.16454199   
   1023000   482.26763      1349.7886      1832.0562      204.19196      302.08546      0.1660608    
   1024000   472.63768      1347.0366      1819.6743      168.44901      301.46956      0.16333112   
   1025000   501.64264      1335.0872      1836.7298      98.738449      298.79525      0.16061284   
   1026000   508.55447      1310.8626      1819.417       54.559695      293.37373      0.1595762    
   1027000   495.97224      1295.0587      1791.031       63.340753      289.83681      0.16140339   
   1028000   467.51088      1309.7337      1777.2446      118.08949      293.12108      0.16431179   
   1029000   491.38651      1343.3098      1834.6963      189.44963      300.63549      0.16368344   
   1030000   513.42038      1329.654       1843.0744      165.60781      297.5793       0.15802913   
   1031000   515.16049      1326.2743      1841.4348      169.34721      296.8229       0.15256694   
   1032000   479.79776      1331.706       1811.5037      153.2134       298.03853      0.15131824   
   1033000   516.57323      1347.4637      1864.0369      95.15759       301.56514      0.1526825    
   1034000   537.35526      1324.9804      1862.3356      53.822582      296.53333      0.15319645   
   1035000   518.98618      1342.487       1861.4731      58.391211      300.45134      0.15490245   
   1036000   494.38441      1377.5066      1871.891       113.19403      308.28881      0.15780725   
   1037000   524.73009      1395.0793      1919.8094      170.81739      312.22161      0.16096027   
   1038000   517.14316      1350.5529      1867.696       182.57391      302.2565       0.1629002    
   1039000   482.05149      1375.5737      1857.6251      214.04659      307.85621      0.16451365   
   1040000   506.04932      1397.3931      1903.4424      205.33306      312.73945      0.16518661   
   1041000   534.62039      1347.4999      1882.1203      184.3637       301.57325      0.16477269   
   1042000   481.88728      1350.7003      1832.5876      138.57088      302.2895       0.16156257   
   1043000   487.41586      1330.0238      1817.4396      135.17521      297.66205      0.16043649   
   1044000   505.11545      1302.463       1807.5784      143.26642      291.49389      0.16013707   
   1045000   489.81103      1295.1363      1784.9473      190.67548      289.85416      0.15923953   
   1046000   455.71351      1310.8386      1766.5521      195.04562      293.36837      0.15703141   
   1047000   515.88138      1300.1493      1816.0307      197.19089      290.97608      0.15795729   
   1048000   503.23062      1313.9319      1817.1625      174.56801      294.06065      0.16086314   
   1049000   481.7661       1315.6215      1797.3876      135.89589      294.43879      0.16486522   
   1050000   485.25604      1336.0845      1821.3406      143.64853      299.01846      0.16989155   
   1051000   483.51869      1357.3333      1840.852       148.47169      303.77399      0.17487093   
   1052000   494.81797      1331.3949      1826.2128      130.14894      297.9689       0.17601171   
   1053000   488.15446      1377.6652      1865.8197      62.426616      308.3243       0.1736885    
   1054000   528.45895      1341.8719      1870.3309      74.206814      300.3137       0.16605533   
   1055000   518.07239      1388.3326      1906.405       102.48475      310.71169      0.16110665   
   1056000   491.51361      1415.3088      1906.8225      163.79591      316.74903      0.16069654   
   1057000   510.97509      1350.6038      1861.5789      180.76617      302.2679       0.16119856   
   1058000   505.04393      1334.4734      1839.5173      183.83557      298.65788      0.16318116   
   1059000   513.49515      1307.7708      1821.2659      186.87387      292.68178      0.16392756   
   1060000   477.00608      1342.4562      1819.4623      183.26369      300.44446      0.16360737   
   1061000   500.44314      1320.9478      1821.391       162.73059      295.63084      0.16353941   
   1062000   513.15768      1284.1163      1797.274       159.02281      287.38787      0.1624794    
   1063000   509.46881      1320.2943      1829.7631      154.53957      295.48457      0.15969982   
   1064000   490.91477      1320.0943      1811.0091      148.61224      295.43982      0.15657192   
   1065000   511.59516      1340.2123      1851.8074      66.009805      299.94225      0.15308413   
   1066000   522.48322      1340.1376      1862.6208      21.87483       299.92555      0.15329887   
   1067000   504.9673       1383.277       1888.2443      86.466366      309.58023      0.1598713    
   1068000   500.35391      1393.6917      1894.0456      162.4137       311.91107      0.165668     
   1069000   494.08061      1374.2019      1868.2825      143.86094      307.5492       0.167533     
   1070000   468.53511      1384.8359      1853.371       191.2577       309.92912      0.16721921   
   1071000   511.85128      1373.8859      1885.7372      223.37873      307.47849      0.16466978   
   1072000   499.94205      1354.8513      1854.7933      259.34395      303.2185       0.16167192   
   1073000   471.12248      1364.5093      1835.6317      236.48018      305.37997      0.16171757   
   1074000   497.25163      1327.6657      1824.9173      196.61649      297.1343       0.16344434   
   1075000   489.58419      1274.623       1764.2072      157.07723      285.26325      0.16550106   
   1076000   472.59144      1322.8324      1795.4238      138.38034      296.0526       0.16724774   
   1077000   477.84328      1359.4724      1837.3157      165.14002      304.25271      0.16903707   
   1078000   488.2582       1336.6752      1824.9334      139.12986      299.15065      0.17018987   
   1079000   486.40514      1348.5261      1834.9313      112.80945      301.80291      0.16857762   
   1080000   484.19917      1341.1849      1825.384       31.444034      300.15993      0.16127525   
   1081000   535.62719      1321.6629      1857.2901     -6.6721751      295.79086      0.15798431   
   1082000   518.80748      1337.2814      1856.0889      64.156348      299.28632      0.15982926   
   1083000   499.16208      1379.2105      1878.3725      134.50338      308.67013      0.16270693   
   1084000   489.21685      1363.8559      1853.0728      157.77684      305.23375      0.16259046   
   1085000   513.44683      1344.8286      1858.2755      228.67726      300.97541      0.1642035    
   1086000   505.73786      1376.2323      1881.9702      245.67895      308.00362      0.16530385   
   1087000   489.23638      1361.0765      1850.3129      256.84071      304.61171      0.16541881   
   1088000   484.15595      1384.5983      1868.7542      201.4874       309.87594      0.16220421   
   1089000   500.71522      1352.779       1853.4942      148.43983      302.75472      0.15880285   
   1090000   526.31527      1363.0011      1889.3164      109.09566      305.04245      0.15709572   
   1091000   505.99063      1349.3849      1855.3755      136.42265      301.9951       0.15938574   
   1092000   480.45006      1372.0933      1852.5433      183.21461      307.07729      0.16136543   
   1093000   473.27168      1386.2963      1859.5679      143.22285      310.25595      0.16126103   
   1094000   492.6137       1402.3118      1894.9255      145.12251      313.84026      0.1602372    
   1095000   482.29428      1387.1382      1869.4325      128.12453      310.44437      0.15811618   
   1096000   508.92712      1338.2272      1847.1543      130.58323      299.49798      0.15618529   
   1097000   529.93862      1304.8666      1834.8052      156.23938      292.03182      0.15706218   
   1098000   514.701        1312.1931      1826.8941      197.13098      293.67151      0.16227033   
   1099000   504.70554      1313.207       1817.9126      200.35431      293.89843      0.16624938   
   1100000   486.01896      1323.5128      1809.5317      140.07195      296.20488      0.16466321   
   1101000   484.83094      1312.4329      1797.2638      125.31333      293.72517      0.16065577   
   1102000   488.93324      1321.6614      1810.5946      97.407284      295.79053      0.15603638   
   1103000   493.46765      1308.595       1802.0626      88.940825      292.86624      0.15097815   
   1104000   532.381        1352.0471      1884.4281      81.449731      302.59092      0.14703282   
   1105000   528.52734      1361.9406      1890.4679      76.096285      304.80509      0.14407207   
   1106000   509.5836       1379.893       1889.4766      139.12608      308.8229       0.14495662   
   1107000   510.71528      1400.1059      1910.8211      141.15075      313.34656      0.15128561   
   1108000   501.68582      1349.4333      1851.1192      180.51764      302.00595      0.15712424   
   1109000   501.43837      1338.1053      1839.5437      242.08321      299.47071      0.1595758    
   1110000   532.2015       1361.8217      1894.0232      224.10788      304.77848      0.15845744   
   1111000   519.19169      1343.528       1862.7197      216.21533      300.68433      0.1553756    
   1112000   518.8042       1369.2184      1888.0226      179.17694      306.43388      0.15272929   
   1113000   509.32373      1315.9669      1825.2907      174.91354      294.5161       0.1532814    
   1114000   483.69549      1317.1595      1800.855       172.4596       294.783        0.15720798   
   1115000   496.23527      1312.7676      1809.0029      94.796284      293.80008      0.16408617   
   1116000   482.85363      1314.766       1797.6196      79.766562      294.24733      0.17087911   
   1117000   468.02259      1343.5727      1811.5953      56.198824      300.69434      0.17041215   
   1118000   468.4737       1317.649       1786.1227      82.384962      294.89254      0.16362537   
   1119000   496.40159      1282.9084      1779.31        116.54764      287.11754      0.15913506   
   1120000   513.3367       1312.8675      1826.2042      187.27556      293.82245      0.1577147    
   1121000   505.91887      1298.9303      1804.8492      222.23154      290.70326      0.15753018   
   1122000   471.84911      1313.1549      1785.004       202.43691      293.88677      0.1597412    
   1123000   484.66924      1330.7994      1815.4686      120.95839      297.83564      0.16278673   
   1124000   471.57255      1347.052       1818.6246      65.75219       301.47301      0.16500522   
   1125000   476.07885      1308.7382      1784.8171      43.441257      292.8983       0.16504442   
   1126000   480.33744      1278.9217      1759.2591      44.695288      286.2253       0.16269479   
   1127000   523.59766      1303.8767      1827.4744      97.293342      291.81029      0.15624946   
   1128000   503.43243      1340.0523      1843.4847      209.5576       299.90646      0.14930803   
   1129000   511.12385      1340.1413      1851.2651      238.80529      299.92637      0.14721604   
   1130000   509.58046      1336.0697      1845.6502      194.53193      299.01515      0.14727059   
   1131000   495.14451      1320.2867      1815.4312      177.33028      295.48288      0.15097256   
   1132000   482.8673       1358.5995      1841.4668      131.16921      304.05735      0.15390956   
   1133000   520.72294      1360.7689      1881.4919      109.16299      304.54288      0.15519838   
   1134000   503.29517      1348.2933      1851.5885      94.036937      301.75081      0.15627209   
   1135000   468.04831      1331.5773      1799.6256      135.44112      298.00974      0.15763971   
   1136000   505.89042      1337.9386      1843.829       134.27627      299.43341      0.15916234   
   1137000   506.7146       1364.2205      1870.9351      152.04972      305.31535      0.16075936   
   1138000   505.50029      1334.3544      1839.8547      127.09369      298.63126      0.16439186   
   1139000   488.48111      1357.0691      1845.5502      185.43153      303.71485      0.17073656   
   1140000   470.44266      1349.9679      1820.4106      184.19257      302.12559      0.1722929    
   1141000   479.19627      1367.4603      1846.6566      174.07992      306.04042      0.16938429   
   1142000   494.45318      1348.9347      1843.3879      106.79083      301.89436      0.15959894   
   1143000   495.27116      1355.0896      1850.3607      66.456352      303.27183      0.15475638   
   1144000   538.3729       1327.4552      1865.8281      32.006614      297.08721      0.15552781   
   1145000   496.08267      1358.3814      1854.4641      82.194226      304.00856      0.1599213    
   1146000   504.62857      1336.4388      1841.0674      114.02651      299.09775      0.16233842   
   1147000   525.34694      1383.3952      1908.7422      158.15472      309.60669      0.1623185    
   1148000   486.53094      1341.5559      1828.0869      205.45884      300.24297      0.16033569   
   1149000   509.60352      1335.7716      1845.3751      233.86324      298.94843      0.16021449   
   1150000   515.36778      1334.4034      1849.7712      174.49556      298.64222      0.15908153   
   1151000   496.49037      1335.4965      1831.9869      92.45068       298.88686      0.15794872   
   1152000   500.09807      1395.0013      1895.0994      30.938893      312.20416      0.15765919   
   1153000   480.73274      1367.694       1848.4268      12.313564      306.09273      0.1571999    
   1154000   485.98864      1333.5924      1819.581       11.467202      298.46072      0.15681566   
   1155000   491.81456      1335.1975      1827.0121      39.466663      298.81995      0.15980582   
   1156000   481.70442      1334.5491      1816.2535      133.13081      298.67483      0.16750963   
   1157000   485.57217      1312.1007      1797.6729      238.55564      293.65083      0.16968071   
   1158000   479.65644      1279.7764      1759.4328      222.60662      286.41659      0.16697236   
   1159000   471.12953      1318.9014      1790.031       187.36441      295.17285      0.16409963   
   1160000   482.19247      1324.8065      1806.9989      156.66147      296.49441      0.16469516   
   1161000   490.71458      1316.1107      1806.8252      97.760271      294.54827      0.16602468   
   1162000   482.3127       1318.2361      1800.5488      43.177405      295.02394      0.16781968   
   1163000   483.06015      1322.3575      1805.4176      65.694502      295.94632      0.16868928   
   1164000   482.5058       1318.8598      1801.3656      64.51104       295.16353      0.16784351   
   1165000   499.05427      1282.2687      1781.323       52.654631      286.97437      0.16656263   
   1166000   496.75754      1313.7938      1810.5514      79.726018      294.02976      0.16487535   
   1167000   521.66455      1329.6931      1851.3577      122.34287      297.58805      0.1610599    
   1168000   512.06722      1386.0279      1898.0951      163.12871      310.19589      0.15421785   
   1169000   543.39334      1331.1751      1874.5685      150.88071      297.91973      0.14849203   
   1170000   560.77576      1331.0836      1891.8594      144.61029      297.89925      0.14915762   
   1171000   521.58642      1388.0238      1909.6103      119.65694      310.64258      0.15338883   
   1172000   515.56133      1382.1875      1897.7489      107.24348      309.33641      0.15778864   
   1173000   509.75717      1371.624       1881.3811      86.079512      306.97226      0.15970192   
   1174000   482.6917       1348.9708      1831.6625      136.09342      301.90243      0.1599846    
   1175000   490.3784       1338.0999      1828.4783      204.33487      299.4695       0.15949415   
   1176000   475.20614      1353.3552      1828.5613      278.29126      302.88367      0.15867665   
   1177000   488.94748      1323.3423      1812.2898      269.35512      296.16673      0.15758942   
   1178000   496.80501      1279.7001      1776.5051      178.72262      286.3995       0.15258062   
   1179000   503.53178      1339.8034      1843.3351      130.79518      299.85074      0.14947178   
   1180000   530.47645      1328.4418      1858.9183      87.116699      297.30801      0.15006783   
   1181000   484.79563      1297.1588      1781.9544      77.769121      290.3068       0.15447552   
   1182000   485.00138      1335.5052      1820.5066      107.24466      298.8888       0.16278353   
   1183000   458.6069       1342.253       1800.8599      158.61417      300.39898      0.16791652   
   1184000   518.08558      1289.0331      1807.1187      142.179        288.48826      0.16823131   
   1185000   492.77593      1336.2318      1829.0078      172.74111      299.05143      0.16564315   
   1186000   527.79329      1315.1542      1842.9474      129.36057      294.3342       0.15987055   
   1187000   516.08535      1283.3319      1799.4173      101.46691      287.21232      0.15609268   
   1188000   468.38147      1296.6529      1765.0344      89.260549      290.19359      0.15538543   
   1189000   510.53558      1311.6884      1822.224       90.133872      293.55856      0.15588135   
   1190000   507.42278      1314.587       1822.0097      163.39516      294.20726      0.15811789   
   1191000   470.07746      1319.6392      1789.7167      210.45126      295.33796      0.16254554   
   1192000   464.75341      1295.9188      1760.6723      257.33011      290.0293       0.16937467   
   1193000   463.87551      1333.2686      1797.1441      225.91781      298.38826      0.16960012   
   1194000   525.6143       1316.3401      1841.9544      169.57708      294.59962      0.16554121   
   1195000   477.47118      1356.6004      1834.0716      137.01956      303.60996      0.16179453   
   1196000   490.11732      1360.9727      1851.09        97.24624       304.58849      0.15945474   
   1197000   511.5326       1399.9732      1911.5058      119.08563      313.31687      0.15847826   
   1198000   508.74061      1350.3231      1859.0637      122.09165      302.20509      0.15603286   
   1199000   517.1523       1371.4924      1888.6447      146.72797      306.94281      0.15426836   
   1200000   526.142        1414.6387      1940.7807      142.8572       316.59905      0.15153708   
   1201000   520.01594      1338.4481      1858.464       190.0774       299.54742      0.15125947   
   1202000   512.31421      1388.1057      1900.4199      214.85411      310.66091      0.15482543   
   1203000   504.27418      1352.3968      1856.671       238.27032      302.66918      0.16251842   
   1204000   478.28829      1353.6229      1831.9112      298.21567      302.94358      0.16858995   
   1205000   489.37664      1346.3035      1835.6801      228.91957      301.30548      0.16951032   
   1206000   526.22434      1348.1457      1874.3701      115.13274      301.71779      0.16651803   
   1207000   509.4025       1332.8077      1842.2102      76.94964       298.2851       0.16251146   
   1208000   482.70771      1328.9602      1811.6679      21.749591      297.42401      0.15802565   
   1209000   499.85803      1310.7817      1810.6398      51.720137      293.35564      0.15483957   
   1210000   535.01313      1329.6822      1864.6953      116.82204      297.58561      0.15312835   
   1211000   535.18607      1363.9568      1899.1429      132.45537      305.25633      0.15295894   
   1212000   528.23888      1338.1288      1866.3676      135.66057      299.47596      0.15647273   
   1213000   502.91409      1388.6049      1891.519       114.81556      310.77262      0.16059635   
   1214000   496.57595      1361.5569      1858.1328      58.173641      304.71923      0.16168047   
   1215000   488.51494      1349.9788      1838.4938      95.917651      302.12804      0.16139266   
   1216000   507.75219      1377.1318      1884.8839      96.984088      308.20491      0.15757889   
   1217000   504.74628      1353.6199      1858.3662      179.42404      302.94291      0.15450614   
   1218000   509.78228      1363.0333      1872.8156      144.07449      305.04965      0.15350511   
   1219000   513.41709      1384.6973      1898.1144      185.89176      309.8981       0.15900884   
   1220000   487.482        1356.4757      1843.9577      126.58921      303.58204      0.16684906   
   1221000   478.00957      1338.7582      1816.7678      113.89818      299.61683      0.17130901   
   1222000   460.8287       1333.4501      1794.2788      128.71965      298.42887      0.16944766   
   1223000   484.00978      1329.7195      1813.7293      71.498449      297.59395      0.16417806   
   1224000   497.17933      1325.0527      1822.2321      98.790643      296.54952      0.16058715   
   1225000   503.00494      1305.5624      1808.5674      136.55486      292.18755      0.15619625   
   1226000   486.1333       1293.9709      1780.1042      131.39303      289.59335      0.1520957    
   1227000   499.24163      1311.3056      1810.5473      124.64544      293.47289      0.15148931   
   1228000   510.07396      1306.2946      1816.3685      118.16047      292.35141      0.15334577   
   1229000   488.55134      1300.9314      1789.4827      67.806028      291.15111      0.15577793   
   1230000   473.37798      1353.9132      1827.2911      117.33718      303.00855      0.16064388   
   1231000   503.49592      1338.2795      1841.7754      115.06198      299.5097       0.16304508   
   1232000   516.55131      1317.7485      1834.2998      149.89843      294.91481      0.16208885   
   1233000   519.46039      1328.3818      1847.8422      160.93641      297.29457      0.15886362   
   1234000   506.98453      1336.8259      1843.8104      137.28911      299.18438      0.15578204   
   1235000   507.64988      1337.3127      1844.9626      160.2059       299.29333      0.15383239   
   1236000   523.2128       1295.7635      1818.9763      134.0252       289.99452      0.15445421   
   1237000   496.90801      1331.9665      1828.8745      118.11516      298.09683      0.15793196   
   1238000   467.61535      1337.9541      1805.5695      105.67396      299.43688      0.16301631   
   1239000   496.6648       1339.4159      1836.0807      67.773369      299.76404      0.16763195   
   1240000   496.82783      1335.7833      1832.6112      17.814506      298.95105      0.16894136   
   1241000   511.03008      1316.7881      1827.8182     -1.2209209      294.69988      0.16693138   
   1242000   493.62285      1311.2096      1804.8325      46.641022      293.4514       0.16091998   
   1243000   498.08366      1297.2063      1795.29        92.153966      290.31744      0.15326248   
   1244000   505.47209      1356.1346      1861.6067      190.88516      303.50571      0.15146635   
   1245000   500.45149      1367.9619      1868.4134      259.70022      306.15269      0.15382745   
   1246000   498.82963      1379.051       1877.8806      256.96062      308.63445      0.15745598   
   1247000   502.06778      1355.3106      1857.3784      197.28864      303.32129      0.15908546   
   1248000   508.10203      1360.4996      1868.6017      204.85637      304.48261      0.15957668   
   1249000   498.89519      1368.3918      1867.287       132.03091      306.24889      0.15713508   
   1250000   497.42025      1361.6414      1859.0617      90.888969      304.73814      0.15505876   
   1251000   538.68222      1373.1151      1911.7973      50.621785      307.30597      0.15660865   
   1252000   502.36032      1363.0339      1865.3943      20.298606      305.0498       0.16189919   
   1253000   479.04791      1343.8756      1822.9235      20.243478      300.76212      0.16790215   
   1254000   483.61618      1313.2941      1796.9103      57.830719      293.91791      0.16965831   
   1255000   469.44888      1312.8979      1782.3468      120.02815      293.82925      0.16893408   
   1256000   453.74058      1281.8945      1735.6351      155.70125      286.89062      0.16561795   
   1257000   477.79403      1308.6676      1786.4616      172.34561      292.88249      0.16033125   
   1258000   492.5079       1334.9534      1827.4613      150.13715      298.76531      0.15579188   
   1259000   526.19357      1336.32        1862.5136      134.02891      299.07116      0.1532393    
   1260000   524.68783      1356.953       1881.6408      101.06911      303.68886      0.15212266   
   1261000   513.48282      1394.3637      1907.8465      68.238513      312.06146      0.15239378   
   1262000   537.43595      1405.4245      1942.8605      31.473833      314.53689      0.15264631   
   1263000   523.27065      1358.0822      1881.3528      9.8062494      303.94158      0.15460617   
   1264000   508.40689      1346.5331      1854.94        55.847866      301.35687      0.15879804   
   1265000   499.58125      1340.0869      1839.6682      114.27147      299.91421      0.16045286   
   1266000   508.05995      1320.559       1828.619       182.64065      295.54382      0.1587531    
   1267000   522.12459      1306.3361      1828.4607      178.06679      292.3607       0.15371194   
   1268000   514.09286      1323.4593      1837.5521      169.72293      296.1929       0.15155757   
   1269000   528.23238      1285.0589      1813.2913      166.29604      287.59883      0.15292691   
   1270000   498.57558      1297.6425      1796.2181      112.56024      290.41505      0.15660354   
   1271000   499.71192      1280.4298      1780.1417      50.538084      286.56282      0.16116567   
   1272000   477.8072       1326.6788      1804.486       90.82058       296.91343      0.1657567    
   1273000   501.52369      1326.5634      1828.0871      50.43875       296.88761      0.16547793   
   1274000   505.58864      1312.9374      1818.5261      81.648804      293.83809      0.16177908   
   1275000   486.01909      1302.5778      1788.5969      136.29605      291.51958      0.15892132   
   1276000   516.12176      1319.2462      1835.3679      127.2998       295.25         0.15786353   
   1277000   520.92666      1293.9872      1814.9139      110.66881      289.597        0.15856211   
   1278000   498.98221      1317.6398      1816.622       95.927762      294.89048      0.16004384   
   1279000   506.07909      1332.2477      1838.3268      23.087292      298.15977      0.16172501   
   1280000   482.13696      1340.3881      1822.525       44.947522      299.9816       0.16289194   
   1281000   512.01064      1315.1388      1827.1494      125.06792      294.33076      0.16356881   
   1282000   483.34045      1346.4419      1829.7823      197.33019      301.33645      0.1627983    
   1283000   479.83816      1319.1027      1798.9409      261.06121      295.2179       0.16466145   
   1284000   485.54717      1333.5679      1819.115       233.4099       298.45522      0.16633668   
   1285000   498.1337       1316.0203      1814.154       182.20687      294.52805      0.16611683   
   1286000   458.13582      1396.2498      1854.3857      182.64964      312.48358      0.16532493   
   1287000   489.54368      1366.6304      1856.174       212.8426       305.85468      0.16397554   
   1288000   555.6962       1310.5654      1866.2616      184.63616      293.30723      0.15689811   
   1289000   511.38653      1371.5609      1882.9474      218.38923      306.95815      0.15195521   
   1290000   496.62859      1385.4574      1882.086       184.75293      310.06822      0.15134537   
   1291000   539.72371      1354.5634      1894.2871      127.42906      303.15407      0.15541547   
   1292000   491.39728      1307.1808      1798.5781      87.191379      292.54975      0.15881495   
   1293000   500.30162      1329.6412      1829.9429      108.63194      297.57644      0.16083967   
   1294000   488.12852      1328.24        1816.3685      109.43549      297.26284      0.15961384   
   1295000   487.33588      1347.4155      1834.7514      123.16985      301.55435      0.15879409   
   1296000   496.16438      1295.3026      1791.467       160.48048      289.89138      0.15806161   
   1297000   494.88327      1300.8095      1795.6928      156.47283      291.12383      0.15851918   
   1298000   483.25125      1335.1531      1818.4044      159.86804      298.81001      0.15929719   
   1299000   512.22623      1298.8868      1811.113       167.22816      290.69353      0.16123463   
   1300000   499.19636      1289.0866      1788.2829      159.46153      288.50022      0.16240582   
   1301000   490.11944      1315.5151      1805.6345      129.67233      294.41497      0.16257645   
   1302000   527.95992      1289.4829      1817.4428      128.72245      288.58892      0.16252121   
   1303000   502.40665      1350.933       1853.3396      61.983373      302.34157      0.15943853   
   1304000   519.25364      1373.0016      1892.2553      87.369362      307.28058      0.15847722   
   1305000   512.41625      1350.2316      1862.6478      69.286662      302.1846       0.16171361   
   1306000   521.81399      1361.7587      1883.5727      95.172709      304.7644       0.16750735   
   1307000   504.90488      1395.8391      1900.744       151.08109      312.39166      0.17180322   
   1308000   472.6601       1360.9711      1833.6312      195.14062      304.58813      0.1738599    
   1309000   512.31284      1368.8498      1881.1626      201.72718      306.35139      0.17458536   
   1310000   486.42992      1350.4639      1836.8938      199.56301      302.23659      0.17140938   
   1311000   485.18084      1368.1153      1853.2961      170.37514      306.18701      0.16456454   
   1312000   515.20039      1360.6729      1875.8733      129.24733      304.52138      0.16043427   
   1313000   534.77723      1315.52        1850.2972      127.61348      294.41608      0.16088499   
   1314000   510.04882      1357.5825      1867.6314      170.30833      303.82976      0.16818658   
   1315000   469.62352      1376.2847      1845.9082      249.61789      308.01533      0.17544728   
   1316000   499.18504      1340.697       1839.882       258.10541      300.05073      0.1753069    
   1317000   522.73952      1315.2434      1837.9829      255.39268      294.35417      0.17354792   
   1318000   466.20172      1332.4278      1798.6295      199.21105      298.20008      0.16979734   
   1319000   486.78082      1305.5971      1792.378       161.81382      292.19532      0.16638884   
   1320000   494.84166      1316.5273      1811.369       92.533677      294.64152      0.16446688   
   1321000   518.76827      1328.0937      1846.862       55.473864      297.23011      0.16527473   
   1322000   505.90416      1360.9356      1866.8398      42.446991      304.58018      0.16821011   
   1323000   470.2089       1351.6827      1821.8916      85.199896      302.50936      0.17795285   
   1324000   464.38358      1346.2501      1810.6336      127.1315       301.29353      0.18224303   
   1325000   494.15312      1335.4472      1829.6003      153.81038      298.87582      0.17918304   
   1326000   488.2343       1323.9858      1812.2201      165.69207      296.31074      0.17387474   
   1327000   495.78464      1315.6103      1811.395       192.49289      294.43629      0.17066852   
   1328000   487.3649       1307.7026      1795.0675      175.95547      292.66653      0.16749949   
   1329000   487.04242      1281.4317      1768.4741      137.14005      286.78704      0.16255288   
   1330000   495.91952      1345.2257      1841.1452      127.2173       301.06428      0.15977747   
   1331000   502.21146      1328.5486      1830.7601      109.69025      297.33191      0.16039725   
   1332000   479.17861      1338.4998      1817.6784      130.19271      299.55899      0.16171909   
   1333000   468.89022      1318.3631      1787.2533      168.63567      295.05237      0.16377099   
   1334000   497.44311      1324.6883      1822.1314      185.47118      296.46796      0.16793876   
   1335000   482.28531      1339.3182      1821.6035      184.28223      299.74215      0.17294424   
   1336000   485.40612      1334.7116      1820.1177      174.00978      298.71119      0.17682897   
   1337000   479.9863       1328.3602      1808.3465      104.0475       297.28973      0.17013918   
   1338000   501.20687      1314.2179      1815.4247      123.3832       294.12465      0.15989489   
   1339000   500.68805      1319.9953      1820.6834      138.56534      295.41766      0.15551907   
   1340000   501.26136      1312.9323      1814.1936      155.39956      293.83694      0.15311121   
   1341000   513.6226       1372.3416      1885.9642      120.21912      307.13287      0.15388846   
   1342000   506.12785      1353.2879      1859.4158      103.21561      302.86862      0.15753713   
   1343000   518.71542      1350.0422      1868.7576      141.96176      302.14222      0.16150239   
   1344000   526.20729      1343.637       1869.8443      163.12539      300.70872      0.1633019    
   1345000   497.36938      1338.2794      1835.6488      184.95562      299.50968      0.16143665   
   1346000   506.87331      1364.7141      1871.5875      223.50883      305.42583      0.15609781   
   1347000   504.29315      1396.4737      1900.7669      227.21228      312.53368      0.15075555   
   1348000   532.05014      1415.7556      1947.8057      180.15533      316.84901      0.14844174   
   1349000   525.99183      1368.2916      1894.2834      171.58545      306.22646      0.15013966   
   1350000   498.37524      1357.9919      1856.3672      154.36661      303.92138      0.15414762   
   1351000   535.13786      1355.2439      1890.3817      123.17553      303.30636      0.15688839   
   1352000   504.5104       1350.1914      1854.7018      54.538002      302.17561      0.15862779   
   1353000   510.67244      1359.4301      1870.1025      89.68233       304.24324      0.16163263   
   1354000   504.75763      1386.5493      1891.3069      126.41985      310.31258      0.16322899   
   1355000   516.34747      1336.7053      1853.0528      109.27385      299.15739      0.16386946   
   1356000   507.65739      1356.1387      1863.7961      118.95223      303.50663      0.16463778   
   1357000   482.202        1357.3691      1839.5711      121.84985      303.782        0.16301622   
   1358000   469.73691      1364.3105      1834.0474      135.61905      305.33548      0.16020966   
   1359000   501.24326      1337.4836      1838.7268      190.40746      299.33157      0.1573467    
   1360000   504.79175      1334.0239      1838.8157      219.52174      298.55729      0.15450571   
   1361000   491.34269      1344.0149      1835.3576      224.31556      300.7933       0.15211483   
   1362000   488.49774      1329.8848      1818.3826      273.63814      297.63096      0.15315955   
   1363000   526.09224      1322.7379      1848.8301      227.01642      296.03146      0.1549988    
   1364000   481.03092      1329.6334      1810.6644      154.40941      297.57469      0.15791661   
   1365000   475.45445      1350.6516      1826.106       81.409124      302.27859      0.15998939   
   1366000   479.20122      1355.2823      1834.4836      35.836087      303.31497      0.1636309    
   1367000   531.37364      1321.785       1853.1586      35.633219      295.81819      0.16673956   
   1368000   482.9012       1353.1824      1836.0836      126.86308      302.845        0.16672484   
   1369000   505.35326      1330.0674      1835.4207      160.14403      297.67182      0.16531627   
   1370000   477.63611      1361.8353      1839.4714      232.87565      304.78153      0.16378954   
   1371000   513.01586      1340.524       1853.5399      236.79383      300.01203      0.16118731   
   1372000   500.13238      1335.2932      1835.4256      245.37568      298.84136      0.15818559   
   1373000   500.87228      1327.4911      1828.3634      222.59211      297.09524      0.15379903   
   1374000   518.64697      1316.0237      1834.6707      152.62258      294.52881      0.15114368   
   1375000   524.98678      1363.1876      1888.1744      107.61682      305.08418      0.15181974   
   1376000   485.68083      1380.9462      1866.627       125.24449      309.05859      0.15828056   
   1377000   530.15362      1335.4392      1865.5928      130.68246      298.87404      0.16672108   
   1378000   502.2085       1353.0289      1855.2374      137.06158      302.81065      0.16905717   
   1379000   476.87889      1398.226       1875.1049      190.0275       312.92586      0.16851419   
   1380000   492.10489      1353.2653      1845.3702      149.05011      302.86356      0.16628058   
   1381000   493.97235      1339.8001      1833.7725      153.18015      299.85002      0.16525517   
   1382000   511.03004      1323.339       1834.3691      159.90158      296.16599      0.16184642   
   1383000   481.84876      1333.4777      1815.3264      192.15031      298.43504      0.1563773    
   1384000   525.54297      1331.274       1856.817       151.38322      297.94186      0.14960804   
   1385000   517.29986      1309.6389      1826.9387      161.42591      293.09987      0.14801488   
   1386000   505.75326      1343.7542      1849.5075      140.54249      300.73495      0.14870443   
   1387000   504.5734       1352.1757      1856.7491      138.66203      302.6197       0.15215574   
   1388000   499.62543      1337.4805      1837.1059      154.49948      299.33087      0.15447919   
   1389000   500.15103      1336.4856      1836.6367      140.00348      299.10823      0.15481277   
   1390000   487.19885      1324.4514      1811.6502      151.89618      296.41494      0.15563825   
   1391000   507.22613      1331.6099      1838.836       139.7818       298.01702      0.15861232   
   1392000   512.36032      1312.5074      1824.8678      132.03798      293.74186      0.16380615   
   1393000   484.29428      1312.3232      1796.6175      165.33255      293.70062      0.16742054   
   1394000   494.96605      1310.7904      1805.7565      109.12641      293.35759      0.16495253   
   1395000   488.80555      1337.3249      1826.1305      112.6706       299.29607      0.16323223   
   1396000   517.73798      1310.4127      1828.1507      71.202997      293.27305      0.16216017   
   1397000   495.33435      1268.0577      1763.392       103.55558      283.79391      0.16299279   
   1398000   484.13729      1305.0968      1789.2341      169.28918      292.08335      0.16388862   
   1399000   526.20134      1297.7707      1823.9721      144.31823      290.44376      0.16309624   
   1400000   509.89959      1314.1219      1824.0215      191.70884      294.10318      0.16200718   
   1401000   486.59528      1305.75        1792.3452      170.37964      292.22952      0.15790533   
   1402000   505.72748      1329.6597      1835.3872      174.30565      297.58057      0.15362237   
   1403000   487.04333      1307.2487      1794.292       120.66327      292.56493      0.15367233   
   1404000   505.47105      1270.9606      1776.4316      118.93388      284.44358      0.16181048   
   1405000   475.66466      1329.6183      1805.283       74.413605      297.57131      0.16831279   
   1406000   481.66303      1341.0753      1822.7383      126.34048      300.13541      0.17183471   
   1407000   473.03039      1301.6337      1774.6641      110.67242      291.3083       0.17091285   
   1408000   527.63661      1312.7134      1840.35        123.18235      293.78796      0.1658488    
   1409000   494.7009       1329.5408      1824.2417      165.55425      297.55397      0.15844064   
   1410000   527.45476      1314.9361      1842.3909      186.25112      294.2854       0.15582563   
   1411000   491.15725      1329.2106      1820.3679      227.27835      297.48007      0.15642951   
   1412000   491.81544      1295.2121      1787.0275      217.31139      289.87113      0.15941082   
   1413000   485.61623      1344.8509      1830.4671      225.87026      300.98039      0.16448562   
   1414000   464.36275      1331.7472      1796.11        183.38317      298.04776      0.16535905   
   1415000   476.51335      1302.6973      1779.2106      122.20996      291.54632      0.1644945    
   1416000   463.17568      1283.3851      1746.5608      124.31605      287.22422      0.16424649   
   1417000   500.01356      1327.2826      1827.2962      138.40228      297.04858      0.16552161   
   1418000   499.84263      1336.1411      1835.9837      109.28381      299.03111      0.16323707   
   1419000   483.40862      1334.3395      1817.7481      126.30058      298.62792      0.1567852    
   1420000   504.6192       1343.2184      1847.8376      131.70369      300.61504      0.15264998   
   1421000   510.47705      1323.9547      1834.4317      168.86988      296.30378      0.15472599   
   1422000   502.77668      1314.1989      1816.9756      165.36669      294.12041      0.1594998    
   1423000   477.08447      1295.1506      1772.235       160.1271       289.85735      0.16394216   
   1424000   496.81825      1272.7852      1769.6035      147.28681      284.85195      0.16771136   
   1425000   466.27616      1322.7893      1789.0654      114.60561      296.04295      0.16637619   
   1426000   523.11046      1319.3694      1842.4799      98.933425      295.27759      0.16422472   
   1427000   514.66454      1340.9792      1855.6438      102.69901      300.1139       0.16312063   
   1428000   517.75771      1361.1314      1878.8892      101.40301      304.62401      0.16424187   
   1429000   529.03732      1383.2386      1912.2759      84.405712      309.57164      0.16732235   
   1430000   525.36896      1370.9093      1896.2783      52.456552      306.81232      0.16977794   
   1431000   510.15226      1343.083       1853.2352      82.061503      300.58472      0.17186158   
   1432000   505.25649      1346.0231      1851.2796      105.4802       301.24273      0.17244714   
   1433000   481.04805      1347.7867      1828.8348      193.22085      301.63743      0.17109972   
   1434000   462.21618      1323.7833      1785.9994      190.05537      296.26541      0.16553113   
   1435000   465.77687      1301.6909      1767.4678      168.61377      291.32111      0.16151598   
   1436000   525.75648      1318.0935      1843.85        101.77272      294.99203      0.16098522   
   1437000   504.47194      1318.1582      1822.6301      62.986723      295.00651      0.16225653   
   1438000   491.475        1316.8987      1808.3736      37.887037      294.72462      0.16406189   
   1439000   485.83082      1317.4111      1803.2419      56.611902      294.83931      0.16704765   
   1440000   498.15007      1260.661       1758.8111      81.858747      282.13853      0.17366215   
   1441000   463.44144      1300.3704      1763.8119      143.61531      291.02557      0.17875259   
   1442000   473.83068      1321.4973      1795.328       164.08472      295.7538       0.17835066   
   1443000   505.71513      1300.9867      1806.7018      181.93646      291.16349      0.17260853   
   1444000   495.38741      1275.4021      1770.7895      159.43137      285.4376       0.16651715   
   1445000   492.18672      1284.8221      1777.0088      155.18997      287.54582      0.16321973   
   1446000   487.71512      1320.2686      1807.9837      120.01388      295.47883      0.16274876   
   1447000   492.68817      1337.2754      1829.9636      71.693089      299.28498      0.16424026   
   1448000   486.98591      1307.104       1794.0899      80.970479      292.53256      0.1669404    
   1449000   458.00864      1301.4475      1759.4561      30.590688      291.26662      0.16812623   
   1450000   501.18229      1305.6199      1806.8022      59.985415      292.20042      0.16798252   
   1451000   518.48836      1346.7638      1865.2522      65.910721      301.40851      0.16288525   
   1452000   518.89433      1358.5144      1877.4088      162.6063       304.03832      0.15811952   
   1453000   503.13181      1363.2682      1866.4         181.17122      305.10222      0.15473422   
   1454000   503.3373       1367.3151      1870.6524      295.07084      306.00793      0.1569985    
   1455000   489.67993      1389.0566      1878.7365      320.6632       310.87372      0.16416274   
   1456000   472.27467      1388.9907      1861.2654      323.55434      310.85896      0.17283628   
   1457000   496.00069      1359.0081      1855.0088      257.07427      304.14881      0.1737548    
   1458000   490.55336      1369.7061      1860.2595      194.62882      306.54304      0.1709647    
   1459000   487.61558      1392.0325      1879.6481      180.68039      311.53973      0.16674193   
   1460000   484.29181      1351.296       1835.5878      136.16067      302.42282      0.16087347   
   1461000   513.47916      1366.0729      1879.552       62.20779       305.72991      0.15747639   
   1462000   506.8022       1387.2219      1894.0241      32.155383      310.4631       0.15683576   
   1463000   527.3976       1406.9718      1934.3694      64.017653      314.88317      0.15462573   
   1464000   541.06481      1382.7444      1923.8093      128.51307      309.46105      0.15086377   
   1465000   530.78002      1355.0734      1885.8534      223.66431      303.2682       0.14818511   
   1466000   547.95103      1363.3225      1911.2735      264.59278      305.11438      0.14743107   
   1467000   548.14787      1373.0328      1921.1806      287.90552      307.28755      0.14980212   
   1468000   501.96088      1335.1037      1837.0646      210.07004      298.79895      0.15179178   
   1469000   497.21258      1307.6685      1804.8811      112.64507      292.6589       0.15534201   
   1470000   520.21681      1288.4611      1808.6779      68.24873       288.36024      0.16048131   
   1471000   501.3771       1317.8336      1819.2107      37.505545      294.93387      0.16281452   
   1472000   479.44087      1344.9245      1824.3654      21.181941      300.99686      0.16097406   
   1473000   507.27306      1263.5511      1770.8241      39.905825      282.78532      0.15663604   
   1474000   520.0033       1312.3668      1832.3701      145.65545      293.71038      0.15273377   
   1475000   499.38222      1346.5757      1845.9579      240.60409      301.36641      0.15133806   
   1476000   532.31398      1313.6296      1845.9436      189.01984      293.993        0.15009715   
   1477000   507.06194      1349.7061      1856.768       150.07308      302.06699      0.1509339    
   1478000   527.3172       1341.8536      1869.1708      136.07664      300.30959      0.15711672   
   1479000   503.58208      1356.9839      1860.566       103.44464      303.69578      0.16309485   
   1480000   492.38182      1364.8774      1857.2592      140.12657      305.46235      0.16474096   
   1481000   515.29909      1351.513       1866.812       114.11392      302.47137      0.16134977   
   1482000   533.2862       1365.4252      1898.7114      90.047091      305.58496      0.1570107    
   1483000   546.36664      1418.2697      1964.6363      110.01004      317.41166      0.15533382   
   1484000   528.26994      1364.0529      1892.3228      65.677423      305.27783      0.15334469   
   1485000   518.77406      1354.2747      1873.0487      86.524203      303.08945      0.15293891   
   1486000   517.95483      1362.4358      1880.3907      90.390285      304.91594      0.15588321   
   1487000   526.23235      1373.7579      1899.9902      149.32967      307.44983      0.15878006   
   1488000   515.05713      1399.4001      1914.4572      141.23042      313.18861      0.15776689   
   1489000   538.68604      1352.1901      1890.8762      105.64797      302.62292      0.15669764   
   1490000   509.20169      1345.1463      1854.348       35.821596      301.04651      0.15687702   
   1491000   520.73277      1352.8849      1873.6177      32.988445      302.77842      0.15919777   
   1492000   510.62387      1355.7959      1866.4198      20.884387      303.42991      0.16513636   
   1493000   467.89126      1352.1239      1820.0152      161.68435      302.6081       0.17381585   
   1494000   483.69982      1341.6121      1825.3119      196.04189      300.25555      0.17400514   
   1495000   505.77434      1321.2651      1827.0394      238.09002      295.70183      0.16832228   
   1496000   503.95318      1338.3919      1842.3451      168.46722      299.53485      0.16414402   
   1497000   487.55357      1349.0107      1836.5643      167.08546      301.91137      0.16340749   
   1498000   481.96256      1350.9551      1832.9177      152.88894      302.34653      0.16395526   
   1499000   500.70488      1325.3461      1826.0509      121.28494      296.61517      0.16263162   
   1500000   496.2005       1317.5112      1813.7117      109.52006      294.86172      0.15837005   
   1501000   527.14104      1348.1673      1875.3084      106.58717      301.72261      0.15524702   
   1502000   517.47723      1361.4977      1878.975       141.4101       304.70599      0.15555849   
   1503000   505.99293      1347.1359      1853.1288      135.46304      301.49178      0.16201882   
   1504000   507.72031      1345.7921      1853.5124      134.31054      301.19104      0.16992202   
   1505000   498.82346      1350.154       1848.9775      120.07907      302.16724      0.16915913   
   1506000   500.83307      1373.4921      1874.3252      104.89153      307.39036      0.16532327   
   1507000   510.17731      1355.336       1865.5133      113.29424      303.32698      0.16241598   
   1508000   508.19214      1354.5892      1862.7814      153.96387      303.15985      0.16053514   
   1509000   497.84354      1322.5544      1820.398       172.15486      295.99039      0.15916252   
   1510000   489.81416      1322.6672      1812.4814      131.50204      296.01564      0.15805811   
   1511000   522.41293      1303.1308      1825.5437      124.05677      291.64334      0.15698939   
   1512000   532.68123      1314.4237      1847.1049      110.02644      294.17072      0.15497613   
   1513000   520.12331      1397.8223      1917.9456      107.39161      312.8355       0.15425123   
   1514000   532.14418      1383.4594      1915.6035      123.97751      309.62104      0.15488825   
   1515000   536.41127      1361.5434      1897.9547      123.59248      304.71622      0.15720598   
   1516000   515.92877      1338.5261      1854.4549      161.85472      299.56488      0.16283121   
   1517000   495.0296       1343.3495      1838.3791      164.48468      300.64438      0.16765653   
   1518000   493.33449      1369.3908      1862.7253      94.424695      306.47247      0.16898797   
   1519000   517.4731       1333.497       1850.9701      87.041503      298.43937      0.16933923   
   1520000   491.0411       1383.4812      1874.5223      99.091971      309.62592      0.16530715   
   1521000   497.09183      1354.6501      1851.7419      115.08162      303.17346      0.16038405   
   1522000   520.12997      1349.5739      1869.7039      119.30518      302.03741      0.15811695   
   1523000   495.24325      1372.4814      1867.7247      111.54579      307.16416      0.15788386   
   1524000   497.38111      1347.5819      1844.963       76.733097      301.5916       0.15972903   
   1525000   495.23144      1354.7387      1849.9701      57.440592      303.1933       0.16346137   
   1526000   522.26623      1370.8967      1893.1629      38.454204      306.80949      0.16408167   
   1527000   511.9724       1345.6554      1857.6278      39.166367      301.16043      0.16147917   
   1528000   511.09362      1362.1093      1873.203       57.785944      304.84287      0.15857514   
   1529000   519.59683      1346.6235      1866.2203      28.88638       301.3771       0.15631223   
   1530000   529.84947      1343.4919      1873.3414      20.551158      300.67626      0.1558174    
   1531000   534.20551      1375.8574      1910.063       84.601117      307.91972      0.1580455    
   1532000   508.29447      1350.091       1858.3855      132.26112      302.15315      0.15986581   
   1533000   505.57973      1323.8416      1829.4213      94.366684      296.27846      0.15883732   
   1534000   508.10123      1331.0019      1839.1031      83.65737       297.88096      0.15834193   
   1535000   488.21982      1338.5359      1826.7557      106.72128      299.56707      0.15937367   
   1536000   529.21585      1337.4022      1866.618       107.17602      299.31335      0.16271386   
   1537000   508.04734      1369.9105      1877.9579      112.91225      306.58879      0.16657121   
   1538000   510.50864      1348.0509      1858.5595      153.49821      301.69655      0.1706345    
   1539000   498.33943      1351.573       1849.9124      115.58043      302.4848       0.17230827   
   1540000   509.16355      1336.6681      1845.8317      106.2736       299.14907      0.17210651   
   1541000   506.47913      1328.6474      1835.1265      50.486627      297.35402      0.16745598   
   1542000   477.96288      1319.6169      1797.5798      49.986179      295.33297      0.16080521   
   1543000   510.80241      1302.0538      1812.8562      1.2791574      291.40231      0.15825717   
   1544000   533.5602       1296.9038      1830.464      -0.63809367     290.24973      0.15778238   
   1545000   503.44782      1296.8763      1800.3241      67.77525       290.24357      0.15839489   
   1546000   472.97719      1308.3456      1781.3227      143.74615      292.81042      0.15980563   
   1547000   516.05127      1314.8076      1830.8589      181.63908      294.25664      0.16295489   
   1548000   499.65041      1314.9019      1814.5523      226.80982      294.27774      0.17345862   
   1549000   453.11537      1355.3144      1808.4298      192.27156      303.32215      0.17716873   
   1550000   426.13031      1310.7567      1736.8871      207.4404       293.35005      0.17628691   
   1551000   508.91378      1345.2952      1854.209       149.38757      301.07982      0.1699662    
   1552000   488.65106      1338.36        1827.011       171.34682      299.52771      0.16350069   
   1553000   497.406        1305.1746      1802.5806      233.15245      292.10076      0.1615293    
   1554000   473.66351      1352.6823      1826.3458      239.31933      302.73307      0.16199023   
   1555000   508.44154      1270.2978      1778.7393      209.99693      284.29525      0.16308976   
   1556000   474.27415      1299.3719      1773.646       143.7228       290.80209      0.16405835   
   1557000   509.30837      1329.7326      1839.041       69.146544      297.59689      0.1645613    
   1558000   486.12359      1328.9208      1815.0444     -2.1967021      297.41521      0.16212027   
   1559000   490.43351      1344.7001      1835.1336      47.80941       300.94664      0.15934407   
   1560000   512.19514      1355.7114      1867.9066      98.121873      303.411        0.15495592   
   1561000   534.47576      1426.583       1961.0587      145.10805      319.27219      0.15390811   
   1562000   510.01415      1382.9787      1892.9929      222.42229      309.51347      0.15830363   
   1563000   505.42138      1376.1413      1881.5627      261.88079      307.98325      0.16256285   
   1564000   506.45738      1354.2759      1860.7333      210.22448      303.08973      0.16462921   
   1565000   495.12781      1344.3382      1839.466       180.14508      300.86564      0.16458651   
   1566000   509.63852      1343.0348      1852.6733      128.54515      300.57395      0.1626147    
   1567000   494.38809      1327.8548      1822.2429      117.24352      297.17662      0.16035218   
   1568000   510.97911      1303.1274      1814.1065      118.80131      291.64258      0.15653196   
   1569000   523.97065      1280.4754      1804.446       130.78546      286.57302      0.151143     
   1570000   514.47673      1342.3955      1856.8722      122.80328      300.43086      0.14908716   
   1571000   504.23428      1347.7403      1851.9746      126.57906      301.62705      0.15207819   
   1572000   508.18152      1367.0587      1875.2402      82.45863       305.95054      0.15904814   
   1573000   517.80394      1348.4687      1866.2726      80.868646      301.79006      0.16355135   
   1574000   509.90068      1339.5577      1849.4584      81.76105       299.79577      0.16565623   
   1575000   490.45381      1389.0024      1879.4562      68.348042      310.86159      0.16547949   
   1576000   492.57201      1412.5751      1905.1471      100.97733      316.13721      0.16420727   
   1577000   493.92359      1388.8914      1882.815       106.39313      310.83674      0.16074038   
   1578000   510.52367      1362.6872      1873.2108      120.6077       304.97218      0.15783589   
   1579000   509.64586      1350.2733      1859.9191      97.11323       302.19393      0.15623149   
   1580000   524.03045      1369.0327      1893.0632      133.42844      306.39234      0.15842012   
   1581000   509.58516      1391.7813      1901.3665      130.69261      311.48352      0.16336582   
   1582000   499.93745      1377.4979      1877.4353      192.55717      308.28685      0.16763193   
   1583000   496.67112      1364.7393      1861.4104      241.86453      305.43145      0.17077226   
   1584000   458.82852      1384.9107      1843.7392      289.64346      309.94586      0.17233943   
   1585000   497.94749      1347.6203      1845.5678      224.54176      301.60019      0.16714518   
   1586000   523.90846      1354.5171      1878.4256      145.04641      303.14371      0.15972685   
   1587000   524.31898      1345.7349      1870.0539      134.35017      301.17824      0.15591881   
   1588000   508.11127      1370.7808      1878.8921      48.445522      306.78356      0.15495105   
   1589000   540.20255      1380.1643      1920.3668      54.16623       308.88359      0.15594268   
   1590000   501.00168      1386.2251      1887.2267      59.97701       310.24001      0.1570365    
   1591000   507.23387      1368.1005      1875.3344      151.77959      306.1837       0.15834744   
   1592000   519.69671      1362.1046      1881.8013      205.97951      304.84181      0.16049725   
   1593000   511.22421      1369.9184      1881.1426      193.15543      306.59055      0.16325835   
   1594000   511.49928      1381.3418      1892.8411      183.5649       309.14713      0.16762056   
   1595000   487.06768      1393.8338      1880.9015      155.61331      311.94287      0.17022705   
   1596000   462.62287      1347.3453      1809.9682      150.81097      301.53865      0.17009745   
   1597000   509.59445      1326.3114      1835.9059      144.10062      296.83122      0.167514     
   1598000   495.49426      1344.7902      1840.2845      111.37707      300.96681      0.1617679    
   1599000   499.60114      1332.456       1832.0571      116.98375      298.20638      0.15961011   
   1600000   523.54575      1284.998       1808.5437      118.09857      287.58518      0.1592965    
   1601000   483.39246      1300.3993      1783.7918      131.73488      291.03204      0.16116126   
   1602000   484.28007      1335.4545      1819.7346      179.67036      298.87746      0.16815512   
   1603000   494.73544      1324.2569      1818.9923      178.19579      296.37141      0.17215149   
   1604000   493.83353      1314.3276      1808.1612      131.7143       294.14922      0.17036388   
   1605000   492.32579      1342.0084      1834.3342      85.343784      300.34423      0.16687505   
   1606000   478.79932      1349.8401      1828.6394      120.88311      302.09698      0.16344201   
   1607000   463.52504      1320.1769      1783.7019      134.94553      295.45829      0.16288025   
   1608000   526.71143      1295.5592      1822.2707      149.94056      289.94881      0.16339082   
   1609000   485.79181      1318.4993      1804.2911      181.32115      295.08286      0.16406915   
   1610000   476.50168      1322.419       1798.9207      198.98401      295.96009      0.16542681   
   1611000   459.22974      1326.99        1786.2197      154.79591      296.98309      0.16931484   
   1612000   452.18455      1276.1504      1728.3349      174.5213       285.60507      0.17673008   
   1613000   465.43325      1325.9227      1791.356       50.756663      296.74423      0.17957614   
   1614000   471.35531      1346.2805      1817.6358      89.580314      301.30033      0.17843557   
   1615000   490.52141      1317.2828      1807.8042      172.95432      294.8106       0.17332635   
   1616000   510.9194       1309.7497      1820.6691      219.01602      293.12467      0.16778971   
   1617000   501.15755      1303.0866      1804.2442      255.42383      291.63347      0.16632661   
   1618000   522.00266      1357.7327      1879.7354      230.08247      303.86338      0.16734716   
   1619000   494.88236      1353.0262      1847.9085      188.95877      302.81004      0.17007637   
   1620000   499.89977      1361.6724      1861.5722      72.714838      304.74508      0.17036366   
   1621000   484.61435      1355.9778      1840.5921      20.621347      303.47061      0.17182357   
   1622000   487.6999       1348.9757      1836.6756     -24.863301      301.90353      0.17310199   
   1623000   484.83484      1361.8145      1846.6494      16.286998      304.77689      0.17510817   
   1624000   490.78432      1368.3198      1859.1041      78.661166      306.23279      0.17459628   
   1625000   496.57161      1392.1928      1888.7644      203.63343      311.57561      0.16898979   
   1626000   495.55602      1348.347       1843.903       176.46983      301.76283      0.15881004   
   1627000   501.45877      1318.5851      1820.0438      202.99962      295.10204      0.15653334   
   1628000   527.30069      1325.3875      1852.6882      210.42568      296.62445      0.15869954   
   1629000   478.87131      1337.9014      1816.7727      135.01765      299.42508      0.16253752   
   1630000   507.09678      1288.7093      1795.806       92.766275      288.41578      0.1679256    
   1631000   486.277        1339.605       1825.8821      118.84309      299.80636      0.17127234   
   1632000   459.63388      1323.2621      1782.896       158.21582      296.14878      0.17226787   
   1633000   481.89847      1305.2625      1787.161       137.40343      292.12044      0.1715034    
   1634000   479.37725      1287.3346      1766.7118      152.82772      288.10812      0.16753078   
   1635000   470.45953      1370.3481      1840.8077      161.11683      306.68673      0.16340561   
   1636000   499.1576       1349.382       1848.5396      143.34124      301.99445      0.16020646   
   1637000   515.03486      1358.9212      1873.9561      84.297715      304.12936      0.15964837   
   1638000   535.64364      1390.9968      1926.6404      118.82033      311.30793      0.1613664    
   1639000   514.92375      1390.6512      1905.5749      85.408675      311.23059      0.16312205   
   1640000   497.37559      1375.9385      1873.314       107.24143      307.93785      0.16669874   
   1641000   499.86299      1350.8195      1850.6825      109.64302      302.31618      0.16951865   
   1642000   475.47855      1357.3258      1832.8044      110.87691      303.7723       0.16962942   
   1643000   494.58353      1339.6984      1834.282       89.069379      299.82726      0.16600748   
   1644000   499.42408      1345.7094      1845.1335      68.924764      301.17253      0.15561619   
   1645000   527.66073      1335.5442      1863.2049      49.986651      298.89753      0.15062862   
   1646000   540.10802      1321.4992      1861.6072      81.63144       295.75423      0.15159933   
   1647000   502.75688      1312.5019      1815.2587      163.19884      293.74061      0.15866349   
   1648000   481.8436       1298.5651      1780.4087      250.73575      290.62152      0.16483712   
   1649000   468.93906      1271.3529      1740.2919      231.65144      284.53138      0.16611821   
   1650000   474.19883      1324.3282      1798.5271      195.50757      296.38738      0.16664774   
   1651000   495.27343      1334.01        1829.2835      124.48129      298.55418      0.1665319    
   1652000   501.67845      1331.4821      1833.1606      121.7088       297.98843      0.16457412   
   1653000   497.87022      1305.8715      1803.7417      141.89483      292.25672      0.15951143   
   1654000   531.66921      1367.9065      1899.5757      90.423818      306.14029      0.15284421   
   1655000   522.00745      1361.032       1883.0394      90.416832      304.60175      0.15067792   
   1656000   524.03503      1356.4249      1880.4599      78.059736      303.57067      0.15278745   
   1657000   527.60745      1356.4514      1884.0589      162.75133      303.57662      0.15733149   
   1658000   522.51353      1387.6174      1910.1309      197.82199      310.55161      0.16052799   
   1659000   557.30998      1390.8356      1948.1456      238.11865      311.27186      0.16445585   
   1660000   498.29113      1353.6853      1851.9764      256.58887      302.95754      0.16771567   
   1661000   492.58345      1360.5777      1853.1612      151.63761      304.50009      0.16823189   
   1662000   516.23631      1366.9009      1883.1372      49.508478      305.91523      0.16631539   
   1663000   541.42386      1348.0769      1889.5008     -23.094774      301.70238      0.16108067   
   1664000   527.3365       1336.0862      1863.4227      16.215306      299.01884      0.15492968   
   1665000   505.77643      1367.3391      1873.1155      78.669241      306.0133       0.15340465   
   1666000   517.28951      1342.4176      1859.7072      149.46509      300.43582      0.15674638   
   1667000   539.18891      1330.6584      1869.8473      218.93461      297.80407      0.16002483   
   1668000   476.80993      1333.3059      1810.1158      201.32302      298.39659      0.16057787   
   1669000   500.42358      1314.717       1815.1405      163.15472      294.23635      0.16075387   
   1670000   509.42441      1337.371       1846.7954      82.714112      299.30637      0.16313722   
   1671000   508.91848      1327.6703      1836.5887      56.434036      297.13533      0.16811595   
   1672000   480.12335      1345.7857      1825.909       90.786384      301.1896       0.17202255   
   1673000   499.10936      1293.396       1792.5054      144.6687       289.46468      0.17179217   
   1674000   490.99372      1338.4537      1829.4474      208.86273      299.54868      0.16707978   
   1675000   480.16882      1340.3244      1820.4932      202.15966      299.96736      0.15634246   
   1676000   520.16652      1345.8102      1865.9767      175.96481      301.19508      0.15343757   
   1677000   532.71343      1318.9104      1851.6239      147.08711      295.17486      0.15338918   
   1678000   497.46529      1346.8939      1844.3592      139.4137       301.43761      0.15658906   
   1679000   501.4359       1351.0618      1852.4977      130.75898      302.37039      0.16168128   
   1680000   528.84592      1334.9085      1863.7545      141.50537      298.75527      0.16482023   
   1681000   508.57377      1359.3426      1867.9163      114.7105       304.22365      0.16298696   
   1682000   494.59122      1357.7898      1852.381       74.773747      303.87614      0.16152993   
   1683000   506.02109      1352.5018      1858.5229      91.463071      302.69268      0.16144546   
   1684000   511.88023      1329.0468      1840.9271      114.05907      297.44341      0.16069193   
   1685000   513.66052      1360.0722      1873.7327      93.982128      304.38694      0.15881132   
   1686000   509.0157       1410.6049      1919.6206      54.989633      315.69628      0.15824016   
   1687000   511.35946      1385.1221      1896.4815      78.029767      309.99316      0.1594457    
   1688000   526.97495      1347.4794      1874.4544      114.53048      301.56866      0.16047688   
   1689000   512.7546       1366.2883      1879.0429      196.85613      305.77812      0.16225892   
   1690000   528.02903      1399.086       1927.115       254.71         313.11832      0.164244     
   1691000   504.24279      1380.3213      1884.5641      203.48425      308.91875      0.1636068    
   1692000   515.63637      1350.6648      1866.3012      159.21551      302.28156      0.16198627   
   1693000   511.50271      1361.8982      1873.4009      154.2658       304.79561      0.16222685   
   1694000   509.09104      1326.9851      1836.0762      161.20892      296.982        0.16440184   
   1695000   508.3378       1305.0607      1813.3985      171.07029      292.07526      0.16694318   
   1696000   477.84253      1332.7698      1810.6124      197.91116      298.27662      0.16935638   
   1697000   472.4112       1327.4132      1799.8244      151.1557       297.07781      0.16675605   
   1698000   515.2491       1310.6119      1825.861       76.986909      293.31762      0.16016396   
   1699000   529.33447      1308.8149      1838.1494      38.083188      292.91546      0.15683815   
   1700000   500.32992      1326.1252      1826.4551      43.387366      296.78954      0.15710411   
   1701000   511.95768      1295.382       1807.3397      16.221965      289.90916      0.15920724   
   1702000   493.57371      1293.7787      1787.3524      42.715503      289.55032      0.16189381   
   1703000   497.31988      1352.8094      1850.1293      52.724307      302.76153      0.16832531   
   1704000   513.83742      1337.2592      1851.0966      45.714971      299.28136      0.17510211   
   1705000   503.73134      1358.6054      1862.3367      150.76932      304.05868      0.17857817   
   1706000   510.95011      1381.9845      1892.9346      204.89238      309.29098      0.17703517   
   1707000   500.41961      1347.9947      1848.4143      180.57835      301.68399      0.17292011   
   1708000   488.73904      1358.7472      1847.4862      130.32113      304.09041      0.16819379   
   1709000   482.06849      1355.814       1837.8825      127.46973      303.43395      0.16601519   
   1710000   517.85591      1360.817       1878.6729      146.9399       304.55364      0.16556559   
   1711000   494.48036      1368.0192      1862.4996      162.28293      306.16551      0.16497464   
   1712000   490.71486      1351.6065      1842.3214      200.61664      302.49231      0.16438484   
   1713000   516.76032      1305.9551      1822.7155      181.01395      292.27544      0.16213663   
   1714000   507.94464      1329.0384      1836.983       157.9853       297.44152      0.15930558   
   1715000   494.44596      1325.8617      1820.3077      151.52902      296.73058      0.15838982   
   1716000   517.68404      1347.638       1865.3221      131.03209      301.60416      0.15614093   
   1717000   497.72114      1364.9884      1862.7095      121.31937      305.48721      0.1535292    
   1718000   514.94032      1350.2547      1865.195       119.14797      302.18977      0.15184518   
   1719000   552.27636      1333.6547      1885.9311      134.45813      298.47466      0.15430831   
   1720000   498.16184      1317.3938      1815.5557      146.99799      294.83544      0.16087458   
   1721000   495.57879      1315.5585      1811.1373      119.51197      294.4247       0.16722297   
   1722000   485.48632      1253.3076      1738.7939      111.93303      280.49282      0.1699233    
   1723000   497.19261      1302.1805      1799.3731      164.24057      291.43067      0.16929558   
   1724000   482.3075       1333.6924      1815.9999      188.8172       298.4831       0.16478962   
   1725000   501.26968      1335.8434      1837.1131      150.89502      298.9645       0.16141083   
   1726000   516.37995      1337.0803      1853.4602      76.938108      299.24132      0.15852393   
   1727000   507.25711      1269.4998      1776.757       29.724572      284.11667      0.15803429   
   1728000   489.41867      1325.9466      1815.3653      55.358051      296.74957      0.15925942   
   1729000   483.10487      1353.4284      1836.5333      60.951236      302.90006      0.1601795    
   1730000   511.56873      1329.3371      1840.9059      91.416892      297.50838      0.15866564   
   1731000   519.64761      1314.8232      1834.4708      117.27251      294.26014      0.1558848    
   1732000   487.80794      1311.7751      1799.583       212.0579       293.57795      0.15427676   
   1733000   491.22897      1301.565       1792.7939      223.48672      291.29291      0.15219698   
   1734000   524.36371      1346.6458      1871.0095      200.71615      301.38208      0.15169401   
   1735000   541.77996      1323.6242      1865.4042      193.56683      296.22982      0.15309642   
   1736000   506.38027      1351.7126      1858.0929      143.0133       302.51606      0.1572922    
   1737000   488.86382      1364.7721      1853.636       137.1484       305.43881      0.16290343   
   1738000   511.73549      1326.7269      1838.4623      52.904046      296.92419      0.16583048   
   1739000   495.8456       1297.4741      1793.3197      100.77521      290.37737      0.16500728   
   1740000   522.94123      1322.4164      1845.3576      138.87762      295.9595       0.16017725   
   1741000   513.4922       1345.2091      1858.7013      195.55381      301.06057      0.15515102   
   1742000   529.2753       1345.0323      1874.3076      243.93876      301.02098      0.15318357   
   1743000   505.53698      1358.297       1863.834       267.05684      303.98965      0.15334984   
   1744000   522.33096      1335.7464      1858.0773      214.92265      298.94278      0.15603528   
   1745000   501.6111       1349.4401      1851.0512      162.96689      302.00746      0.15910002   
   1746000   532.7365       1375.3623      1908.0988      74.09067       307.80891      0.16178179   
   1747000   527.98777      1335.2542      1863.2419      58.121737      298.83263      0.16264264   
   1748000   501.57679      1372.5858      1874.1626      84.676881      307.18753      0.16325765   
   1749000   489.02566      1364.0578      1853.0834      129.12373      305.27893      0.16478498   
   1750000   512.82339      1353.3917      1866.2151      141.81786      302.89184      0.16786993   
   1751000   513.47687      1365.6584      1879.1353      150.36851      305.63715      0.17207233   
   1752000   494.34528      1349.1389      1843.4842      149.93935      301.94005      0.17736648   
   1753000   463.89067      1364.7853      1828.676       111.76363      305.44176      0.18038041   
   1754000   480.725        1377.9114      1858.6364      105.69979      308.37939      0.18014635   
   1755000   502.74477      1352.7097      1855.4545      78.196449      302.73921      0.17488042   
   1756000   524.10762      1344.6915      1868.7992      118.49366      300.94473      0.16823311   
   1757000   510.08843      1350.3093      1860.3978      156.23828      302.202        0.16378765   
   1758000   494.32306      1357.5682      1851.8913      175.96714      303.82656      0.1624186    
   1759000   501.064        1358.4583      1859.5223      176.25355      304.02576      0.16272684   
   1760000   519.57893      1375.3869      1894.9658      169.65055      307.81441      0.16326907   
   1761000   498.25268      1358.4145      1856.6672      131.20411      304.01595      0.16545479   
   1762000   489.45415      1350.0377      1839.4919      110.94969      302.14121      0.17041987   
   1763000   501.22871      1332.2836      1833.5123      88.605068      298.16781      0.17444418   
   1764000   478.13719      1354.8881      1833.0253      55.685794      303.22675      0.17299926   
   1765000   495.92103      1323.2869      1819.208       104.96788      296.15433      0.16718022   
   1766000   504.39027      1358.6776      1863.0679      190.35461      304.07484      0.16098024   
   1767000   504.99509      1356.036       1861.0311      226.27145      303.48364      0.15848715   
   1768000   521.98701      1315.8131      1837.8001      228.35643      294.48168      0.15836437   
   1769000   498.35452      1302.9226      1801.2771      141.37684      291.59675      0.15886077   
   1770000   494.35913      1324.8866      1819.2457      95.726057      296.51233      0.16264601   
   1771000   488.2203       1302.0109      1790.2312      9.1931906      291.3927       0.16950063   
   1772000   514.99298      1317.765       1832.7579      63.501912      294.9185       0.17422941   
   1773000   454.0898       1353.9722      1808.062       95.579157      303.02176      0.17343102   
   1774000   472.88986      1313.5846      1786.4745      122.24357      293.98294      0.16978616   
   1775000   496.20894      1305.0305      1801.2395      137.98714      292.06851      0.1679096    
   1776000   476.22444      1343.5912      1819.8156      150.62536      300.69847      0.16549549   
   1777000   494.79962      1326.8477      1821.6474      158.30044      296.95125      0.16304692   
   1778000   510.24774      1327.3258      1837.5735      190.22656      297.05824      0.16458613   
   1779000   531.00278      1290.3787      1821.3815      162.66458      288.78941      0.17053692   
   1780000   477.38159      1328.1834      1805.565       150.97705      297.25017      0.17819164   
   1781000   462.56632      1357.4214      1819.9877      158.11883      303.79369      0.18047455   
   1782000   504.82865      1364.7402      1869.5689      143.28622      305.43166      0.17620337   
   1783000   512.04027      1338.4518      1850.4921      121.01345      299.54826      0.17071861   
   1784000   519.40099      1322.2084      1841.6094      102.38824      295.91296      0.16601075   
   1785000   491.92921      1350.3381      1842.2673      117.09428      302.20843      0.16335225   
   1786000   508.45897      1307.9136      1816.3725      123.31284      292.71374      0.16112082   
   1787000   510.94389      1319.6198      1830.5637      168.82389      295.33363      0.16057072   
   1788000   498.44454      1332.1376      1830.5822      187.30449      298.13513      0.16216429   
   1789000   496.52144      1387.4131      1883.9345      221.54325      310.5059       0.16596912   
   1790000   505.86188      1344.4889      1850.3508      217.85645      300.89938      0.16978322   
   1791000   482.60017      1352.4244      1835.0246      222.71797      302.67535      0.17666858   
   1792000   503.28453      1375.773       1879.0575      187.91929      307.90082      0.17951404   
   1793000   503.33213      1368.8319      1872.1641      118.58836      306.3474       0.17051927   
   1794000   515.49061      1345.1604      1860.651       49.198811      301.04965      0.16218878   
   1795000   505.90294      1376.9885      1882.8915      25.77133       308.17286      0.15844682   
   1796000   519.53581      1373.2411      1892.7769      115.33592      307.33417      0.15801451   
   1797000   520.62629      1358.6602      1879.2865      167.88879      304.07094      0.16097417   
   1798000   506.37382      1395.7908      1902.1646      247.97423      312.38085      0.16300079   
   1799000   545.22342      1347.4357      1892.6591      232.8661       301.55888      0.16062129   
   1800000   528.11382      1336.8933      1865.0071      218.10134      299.19946      0.15511605   
   1801000   525.74952      1351.4039      1877.1534      135.93206      302.44696      0.15052881   
   1802000   517.29492      1351.5665      1868.8614      104.71602      302.48335      0.15036956   
   1803000   553.45328      1324.1267      1877.58        4.4413351      296.34227      0.15382253   
   1804000   525.23755      1362.272       1887.5096      57.13089       304.87928      0.15956124   
   1805000   515.15387      1352.5354      1867.6892      129.28942      302.70019      0.16343981   
   1806000   521.4998       1360.0978      1881.5976      122.09475      304.39268      0.16383862   
   1807000   531.46955      1428.5959      1960.0655      173.37101      319.7227       0.16249091   
   1808000   515.67902      1373.2228      1888.9018      192.36811      307.33008      0.15957436   
   1809000   524.26236      1359.5995      1883.8618      189.97848      304.28115      0.15775162   
   1810000   539.32994      1325.8417      1865.1716      128.90247      296.72609      0.15595665   
   1811000   476.27695      1335.1778      1811.4547      124.50813      298.81553      0.156545     
   1812000   495.75125      1348.7139      1844.4651      147.79566      301.84494      0.16303844   
   1813000   498.0652       1355.8763      1853.9415      147.0503       303.44789      0.17170297   
   1814000   469.68589      1368.4837      1838.1696      95.000808      306.26947      0.17401917   
   1815000   481.36881      1369.8041      1851.1729      49.837663      306.56498      0.17285142   
   1816000   513.32775      1348.1214      1861.4492      32.258122      301.71234      0.16917149   
   1817000   525.6377       1366.0084      1891.6461      40.63187       305.71548      0.16187024   
   1818000   537.16759      1367.2364      1904.404       99.16332       305.99031      0.15863834   
   1819000   523.69924      1360.6251      1884.3244      128.293        304.5107       0.15841555   
   1820000   514.0781       1350.4926      1864.5707      201.14921      302.24302      0.16251676   
   1821000   496.12916      1364.6974      1860.8265      242.94461      305.42207      0.16569637   
   1822000   481.72765      1327.2599      1808.9875      193.24549      297.04349      0.16726112   
   1823000   521.04079      1310.8991      1831.9399      65.356178      293.3819       0.16663153   
   1824000   487.76311      1327.5867      1815.3498      137.35007      297.11664      0.16845499   
   1825000   494.02892      1316.955       1810.9839      141.79559      294.73723      0.16804328   
   1826000   495.00047      1301.712       1796.7125      204.59646      291.32582      0.16343738   
   1827000   527.76392      1345.739       1873.5029      228.32966      301.17914      0.15535484   
   1828000   550.87028      1368.6301      1919.5004      215.90469      306.30222      0.15236168   
   1829000   555.10403      1388.2281      1943.3322      213.35534      310.6883       0.15554702   
   1830000   522.20442      1344.3261      1866.5305      160.15965      300.86294      0.16081757   
   1831000   497.14167      1370.317       1867.4587      93.935696      306.67976      0.16466553   
   1832000   482.8796       1352.7311      1835.6107      35.647522      302.74401      0.16516661   
   1833000   519.20703      1345.6332      1864.8402      32.235719      301.15547      0.16550178   
   1834000   501.66283      1354.4582      1856.121       45.735443      303.13052      0.16286432   
   1835000   522.23258      1362.3149      1884.5475      61.24286       304.88887      0.15813096   
   1836000   511.375        1342.2214      1853.5964      56.585548      300.39191      0.15526443   
   1837000   508.98388      1330.1672      1839.1511      91.453508      297.69416      0.15711327   
   1838000   515.40485      1311.6095      1827.0143      78.706523      293.54089      0.160408     
   1839000   500.47458      1334.3398      1834.8144      114.45836      298.62799      0.16370977   
   1840000   501.22046      1294.0935      1795.3139      149.14648      289.62078      0.16487389   
   1841000   517.94501      1320.5483      1838.4933      135.42234      295.54141      0.16533597   
   1842000   512.38105      1325.1734      1837.5545      87.078146      296.57653      0.16321518   
   1843000   488.44318      1284.8795      1773.3227     -1.8159741      287.55867      0.15911461   
   1844000   500.31228      1281.551       1781.8632     -28.11268       286.81373      0.15860281   
   1845000   506.03969      1304.3273      1810.367       42.445038      291.91113      0.16534577   
   1846000   514.21019      1323.2664      1837.4766      127.84755      296.14973      0.17056096   
   1847000   474.61548      1318.7398      1793.3553      207.93398      295.13668      0.17136596   
   1848000   499.52957      1328.1288      1827.6584      199.12443      297.23795      0.17020434   
   1849000   493.76374      1324.0375      1817.8012      178.05588      296.32231      0.16766178   
   1850000   495.83766      1306.2253      1802.063       198.07384      292.3359       0.16432898   
   1851000   515.34556      1319.8092      1835.1547      187.82325      295.376        0.16117742   
   1852000   509.40269      1370.1195      1879.5222      148.75781      306.63556      0.16121852   
   1853000   503.56991      1367.58        1871.1499      148.28652      306.0672       0.16377904   
   1854000   493.84174      1357.2458      1851.0876      139.8144       303.7544       0.16842039   
   1855000   499.73794      1335.5562      1835.2941      131.61542      298.90022      0.17142378   
   1856000   473.17488      1309.3802      1782.5551      142.44339      293.04197      0.17173563   
   1857000   501.94946      1365.2114      1867.1608      161.91353      305.53711      0.17117489   
   1858000   491.87276      1350.3362      1842.209       189.73996      302.20802      0.16680048   
   1859000   493.23973      1338.5248      1831.7645      204.97763      299.56459      0.16074056   
   1860000   488.67234      1365.8817      1854.554       215.44169      305.68712      0.15558229   
   1861000   486.75677      1353.2337      1839.9905      225.52861      302.85648      0.15486959   
   1862000   524.17774      1337.2551      1861.4328      210.74765      299.28043      0.1573486    
   1863000   479.50952      1298.5326      1778.0422      150.4131       290.61427      0.16088183   
   1864000   499.7226       1313.5271      1813.2497      84.132629      293.97006      0.16409941   
   1865000   515.34685      1269.8225      1785.1693      12.115175      284.18888      0.16628962   
   1866000   499.77656      1313.7062      1813.4828      75.065149      294.01015      0.17000738   
   1867000   483.48554      1328.1327      1811.6183      143.75099      297.23883      0.16878564   
   1868000   475.94965      1349.9054      1825.8551      189.84327      302.11161      0.16147337   
   1869000   526.34636      1311.2818      1837.6281      198.06539      293.46755      0.15528823   
   1870000   540.85123      1352.8121      1893.6633      146.45484      302.76212      0.15352368   
   1871000   544.89426      1358.1894      1903.0837      81.3734        303.96558      0.15476666   
   1872000   512.18056      1384.5183      1896.6989      75.103399      309.85805      0.15903422   
   1873000   516.28222      1356.6908      1872.973       76.419772      303.63019      0.16425994   
   1874000   500.93438      1354.3776      1855.312       43.569413      303.11248      0.16642869   
   1875000   516.8506       1366.4828      1883.3334      85.689816      305.82165      0.16548085   
   1876000   529.04286      1357.1611      1886.204       118.33098      303.73544      0.16018482   
   1877000   519.24576      1397.1686      1916.4144      129.24948      312.68921      0.15638849   
   1878000   501.78643      1400.8148      1902.6012      175.91807      313.50523      0.15628218   
   1879000   506.33357      1375.271       1881.6045      176.68371      307.78846      0.15893972   
   1880000   496.56278      1360.7243      1857.287       230.15982      304.53288      0.16363743   
   1881000   529.4364       1316.2422      1845.6786      227.32366      294.5777       0.16698081   
   1882000   487.65762      1337.3316      1824.9892      223.24427      299.29755      0.16825008   
   1883000   476.81184      1311.8857      1788.6975      177.24937      293.6027       0.16618761   
   1884000   497.43238      1318.9847      1816.4171      140.45646      295.19148      0.16312242   
   1885000   523.91563      1321.6499      1845.5655      117.74192      295.78795      0.16020926   
   1886000   524.73714      1305.6126      1830.3497      77.474         292.19878      0.15371342   
   1887000   500.49769      1307.292       1807.7897      18.091914      292.57463      0.14957678   
   1888000   517.91931      1298.7278      1816.6471      25.576551      290.65794      0.15327024   
   1889000   510.83726      1335.6766      1846.5139      24.229237      298.92717      0.1588082    
   1890000   516.23956      1324.1453      1840.3849      48.326382      296.34643      0.16183726   
   1891000   503.65611      1305.3286      1808.9847      88.517171      292.13522      0.16358933   
   1892000   498.50449      1344.802       1843.3065      116.7432       300.96945      0.16544963   
   1893000   501.678        1329.6706      1831.3486      117.61251      297.583        0.1660197    
   1894000   515.48852      1322.3467      1837.8352      103.48956      295.9439       0.1665219    
   1895000   517.92167      1323.1499      1841.0715      94.391049      296.12365      0.16538012   
   1896000   510.25292      1311.5085      1821.7614      63.101682      293.5183       0.16274889   
   1897000   521.73029      1323.451       1845.1813      12.512554      296.19104      0.15713481   
   1898000   489.41962      1322.124       1811.5436      44.53178       295.89407      0.15472368   
   1899000   520.7909       1306.3197      1827.1106      79.321311      292.35702      0.15749086   
   1900000   492.50157      1341.7895      1834.2911      80.786941      300.29525      0.16399503   
   1901000   495.42978      1263.966       1759.3957      102.03041      282.87818      0.16918989   
   1902000   501.59541      1293.118       1794.7134      95.130215      289.40246      0.17228145   
   1903000   477.53038      1329.1793      1806.7096      134.31697      297.47305      0.17208845   
   1904000   478.51034      1316.8158      1795.3261      133.47626      294.70607      0.16865922   
   1905000   511.63776      1338.5427      1850.1804      112.96998      299.5686       0.16454933   
   1906000   522.40346      1372.8636      1895.2671      97.887289      307.2497       0.16107061   
   1907000   524.13022      1358.8882      1883.0184      43.52107       304.12197      0.15968165   
   1908000   529.51906      1374.4263      1903.9454      60.533488      307.59943      0.16409505   
   1909000   515.75627      1408.9204      1924.6766      119.19272      315.31927      0.17040556   
   1910000   506.05705      1365.2151      1871.2721      171.50906      305.53794      0.17221388   
   1911000   508.38261      1338.799       1847.1816      143.48471      299.62596      0.17009058   
   1912000   521.7681       1324.4109      1846.179       109.0741       296.40587      0.16682062   
   1913000   466.42381      1353.7506      1820.1744      121.55942      302.97215      0.16555416   
   1914000   469.98815      1327.4078      1797.396       186.89491      297.07659      0.16666645   
   1915000   474.08435      1328.5489      1802.6332      215.68829      297.33197      0.16843381   
   1916000   474.88894      1326.1819      1801.0708      230.36644      296.80223      0.17133815   
   1917000   489.72371      1307.4836      1797.2073      203.75256      292.61752      0.17003137   
   1918000   487.3329       1303.5228      1790.8557      180.68284      291.73107      0.16645664   
   1919000   526.89226      1316.5305      1843.4227      162.07378      294.64222      0.16590577   
   1920000   508.63194      1345.4316      1854.0635      173.33313      301.11035      0.16394121   
   1921000   489.32585      1381.7331      1871.0589      159.14672      309.2347       0.16099337   
   1922000   486.80407      1415.5073      1902.3113      169.81653      316.79343      0.16201482   
   1923000   525.76652      1354.2807      1880.0472      133.87389      303.0908       0.16654998   
   1924000   508.24805      1356.765       1865.0131      120.96108      303.6468       0.17227308   
   1925000   482.50543      1421.7406      1904.246       69.581869      318.18846      0.17404766   
   1926000   526.25495      1319.871       1846.126       57.051536      295.38984      0.17234781   
   1927000   546.64216      1309.3648      1856.007       23.855225      293.03854      0.16752851   
   1928000   497.68068      1308.8047      1806.4854      50.340778      292.91318      0.16319019   
   1929000   509.31035      1293.0956      1802.4059      75.545837      289.39744      0.16118468   
   1930000   519.2858       1306.5263      1825.8121      147.28766      292.40327      0.16131544   
   1931000   522.65678      1306.0115      1828.6683      190.00753      292.28805      0.16322755   
   1932000   490.26083      1332.8806      1823.1414      194.64069      298.30141      0.16934783   
   1933000   502.33169      1298.6794      1801.0111      158.71509      290.64712      0.1786092    
   1934000   495.7789       1323.6852      1819.4641      139.8102       296.24345      0.1812198    
   1935000   458.1676       1340.4988      1798.6664      153.6038       300.00639      0.17878943   
   1936000   491.72824      1295.7316      1787.4599      157.67924      289.98739      0.1733961    
   1937000   524.17602      1284.9906      1809.1666      159.29578      287.58353      0.1691078    
   1938000   524.51443      1287.2209      1811.7354      122.28571      288.08269      0.16518649   
   1939000   506.64914      1344.1372      1850.7864      76.900615      300.82067      0.16120998   
   1940000   515.34008      1341.5216      1856.8617      10.445923      300.2353       0.15743939   
   1941000   510.40288      1325.4513      1835.8542     -31.661272      296.63873      0.15645417   
   1942000   515.23995      1305.7327      1820.9727     -3.6715163      292.22567      0.16088417   
   1943000   508.52707      1339.6897      1848.2167      94.289339      299.8253       0.16736064   
   1944000   493.37434      1312.0866      1805.4609      211.41862      293.64767      0.17052454   
   1945000   510.14122      1330.2961      1840.4373      196.73917      297.723        0.16934173   
   1946000   484.24018      1332.318       1816.5582      213.87708      298.1755       0.16753168   
   1947000   496.6686       1314.8089      1811.4775      205.59357      294.25694      0.16425294   
   1948000   513.4822       1296.0559      1809.5381      169.47673      290.05997      0.16271378   
   1949000   502.79677      1366.7423      1869.539       171.72478      305.87973      0.16407922   
   1950000   495.14861      1328.5939      1823.7425      149.95266      297.34204      0.16800816   
   1951000   504.13863      1329.1278      1833.2665      127.95689      297.46154      0.17682654   
   1952000   501.7944       1350.1067      1851.9011      119.0427       302.15666      0.1840927    
   1953000   494.70456      1337.6651      1832.3697      49.329033      299.3722       0.185351     
   1954000   482.32734      1341.0931      1823.4205      59.252268      300.13939      0.17960967   
   1955000   503.00935      1341.7427      1844.752       102.38169      300.28477      0.17135683   
   1956000   489.81776      1354.7498      1844.5676      179.56215      303.19579      0.16695687   
   1957000   526.85291      1336.5439      1863.3968      234.10392      299.12126      0.16418889   
   1958000   522.40486      1398.2952      1920.7001      245.56325      312.94134      0.16245756   
   1959000   524.48948      1373.2914      1897.7809      183.03844      307.34543      0.16278065   
   1960000   534.60462      1362.7677      1897.3723      93.660419      304.99022      0.16448843   
   1961000   516.18978      1351.3436      1867.5334      117.72945      302.43348      0.16946909   
   1962000   505.51668      1348.2964      1853.8131      116.91938      301.75151      0.17706853   
   1963000   486.85003      1369.3891      1856.2391      139.07487      306.47209      0.17957093   
   1964000   479.20276      1339.6414      1818.8442      170.36518      299.8145       0.17541254   
   1965000   528.88926      1322.7391      1851.6284      196.04853      296.03173      0.17128242   
   1966000   506.67768      1341.9935      1848.6712      237.83204      300.3409       0.16886142   
   1967000   510.02551      1360.8624      1870.8879      211.95251      304.56379      0.16646043   
   1968000   512.79599      1364.9135      1877.7095      159.57099      305.47044      0.16623672   
   1969000   515.80436      1446.4586      1962.2629      61.247454      323.72039      0.16563891   
   1970000   510.87699      1363.7546      1874.6316      98.972823      305.21107      0.16439218   
   1971000   487.92686      1365.045       1852.9718      172.52216      305.49987      0.16094628   
   1972000   523.94178      1365.343       1889.2848      180.94254      305.56657      0.15776376   
   1973000   528.45467      1380.3935      1908.8482      205.90719      308.9349       0.15759105   
   1974000   530.65136      1406.2695      1936.9209      165.38022      314.726        0.15979617   
   1975000   524.94874      1372.0438      1896.9925      74.052597      307.06621      0.16559081   
   1976000   495.70916      1345.8059      1841.515       37.324693      301.19411      0.17211615   
   1977000   509.79704      1359.8868      1869.6839      17.205892      304.34546      0.17405899   
   1978000   520.52174      1359.1029      1879.6247      125.26802      304.17002      0.17285033   
   1979000   517.36155      1370.0717      1887.4332      175.63567      306.62486      0.17014293   
   1980000   522.57624      1396.6314      1919.2076      217.36591      312.56898      0.16769292   
   1981000   498.74366      1338.2992      1837.0428      175.48942      299.51411      0.16617257   
   1982000   497.3891       1340.8505      1838.2396      81.91581       300.0851       0.16762162   
   1983000   509.15556      1348.9591      1858.1146      45.763989      301.8998       0.16932573   
   1984000   507.54201      1333.3062      1840.8482      20.741023      298.39666      0.17134122   
   1985000   503.23785      1347.6359      1850.8738      84.975256      301.60368      0.17017933   
   1986000   533.23632      1298.9413      1832.1776      85.954056      290.70573      0.16324114   
   1987000   521.23777      1320.1384      1841.3761      142.26387      295.44967      0.16027863   
   1988000   516.4321       1329.5947      1846.0268      199.76777      297.56603      0.16209679   
   1989000   505.24665      1334.592       1839.8387      227.12751      298.68444      0.16615356   
   1990000   488.89953      1326.4564      1815.3559      176.46797      296.86366      0.16924127   
   1991000   498.02704      1329.7117      1827.7387      117.89821      297.59221      0.17089718   
   1992000   504.01475      1318.5119      1822.5267      85.465926      295.08567      0.17083944   
   1993000   522.63853      1348.5119      1871.1504      68.959209      301.79972      0.1668553    
   1994000   519.43183      1330.3808      1849.8126      73.793787      297.74195      0.15722815   
   1995000   520.81344      1358.4276      1879.2411      74.004243      304.01889      0.1554254    
   1996000   520.25903      1340.5778      1860.8368      99.183139      300.02407      0.16168077   
   1997000   490.86336      1348.3398      1839.2032      140.84146      301.76122      0.16883913   
   1998000   494.55319      1307.1312      1801.6844      146.27689      292.53864      0.17167064   
   1999000   507.17913      1322.5492      1829.7283      155.29293      295.98922      0.17353306   
   2000000   488.03419      1303.6671      1791.7013      163.20223      291.76337      0.17143205   
Loop time of 9114.1 on 8 procs for 2000000 steps with 1500 atoms

Performance: 9.480 ns/day, 2.532 hours/ns, 219.440 timesteps/s, 329.160 katom-step/s
99.4% CPU use with 8 MPI tasks x 1 OpenMP threads

MPI task timing breakdown:
Section |  min time  |  avg time  |  max time  |%varavg| %total
---------------------------------------------------------------
Pair    | 347.78     | 358.7      | 372.72     |  42.9 |  3.94
Bond    | 20.651     | 21.187     | 21.607     |   7.0 |  0.23
Kspace  | 4041.5     | 4056.1     | 4067.4     |  13.2 | 44.50
Neigh   | 6.2052     | 6.2156     | 6.2261     |   0.3 |  0.07
Comm    | 165.87     | 167.4      | 168.9      |   6.9 |  1.84
Output  | 0.60642    | 0.61704    | 0.69025    |   3.5 |  0.01
Modify  | 4316.6     | 4385.2     | 4430.9     |  66.1 | 48.11
Other   |            | 118.7      |            |       |  1.30

Nlocal:          187.5 ave         233 max         153 min
Histogram: 1 1 1 1 1 1 0 1 0 1
Nghost:        1710.62 ave        1771 max        1650 min
Histogram: 1 0 0 2 2 1 0 0 1 1
Neighs:        14747.1 ave       19164 max       11317 min
Histogram: 1 0 3 1 0 0 2 0 0 1

Total # of neighbors = 117977
Ave neighs/atom = 78.651333
Ave special neighs/atom = 2
Neighbor list builds = 12348
Dangerous builds = 0
System init for write_data ...
PPPM initialization ...
  using 12-bit tables for long-range coulomb (src/kspace.cpp:342)
  G vector (1/distance) = 0.26915031
  grid = 48 48 48
  stencil order = 5
  estimated absolute RMS force accuracy = 0.00038812764
  estimated relative force accuracy = 1.1688349e-06
  using single precision FFTW3
  3d grid and FFT values/proc = 29791 13824
Generated 1 of 1 mixed pair_coeff terms from arithmetic mixing rule
Last active /omp style is kspace_style pppm/omp
