LAMMPS (19 Nov 2024)
OMP_NUM_THREADS environment is not set. Defaulting to 1 thread. (src/comm.cpp:99)
  using 1 OpenMP thread(s) per MPI task
using multi-threaded neighbor list subroutines
Reading data file ...
  orthogonal box = (0 0 0) to (49.133429 49.133429 49.133429)
  2 by 2 by 2 MPI processor grid
  reading atoms ...
  1500 atoms
  scanning bonds ...
  1 = max bonds/atom
  scanning angles ...
  1 = max angles/atom
  orthogonal box = (0 0 0) to (49.133429 49.133429 49.133429)
  2 by 2 by 2 MPI processor grid
  reading bonds ...
  1000 bonds
  reading angles ...
  500 angles
Finding 1-2 1-3 1-4 neighbors ...
  special bond factors lj:    0        0        0       
  special bond factors coul:  0        0        0       
     2 = max # of 1-2 neighbors
     1 = max # of 1-3 neighbors
     1 = max # of 1-4 neighbors
     2 = max # of special neighbors
  special bonds CPU = 0.029 seconds
  read_data CPU = 0.165 seconds
Setting atom values ...
  1000 settings made for charge
Setting atom values ...
  500 settings made for charge
1000 atoms in group oxy
500 atoms in group carb
PPPM initialization ...
  using 12-bit tables for long-range coulomb (src/kspace.cpp:342)
  G vector (1/distance) = 0.27179988
  grid = 48 48 48
  stencil order = 5
  estimated absolute RMS force accuracy = 0.00033983665
  estimated relative force accuracy = 1.023408e-06
  using single precision FFTW3
  3d grid and FFT values/proc = 29791 13824
Generated 1 of 1 mixed pair_coeff terms from arithmetic mixing rule
Last active /omp style is kspace_style pppm/omp
Neighbor list info ...
  update: every = 1 steps, delay = 0 steps, check = yes
  max neighbors/atom: 2000, page size: 100000
  master list distance cutoff = 15
  ghost atom cutoff = 15
  binsize = 7.5, bins = 7 7 7
  1 neighbor lists, perpetual/occasional/extra = 1 0 0
  (1) pair lj/cut/coul/long/omp, perpetual
      attributes: half, newton on, omp
      pair build: half/bin/newton/omp
      stencil: half/bin/3d
      bin: standard
Setting up cg style minimization ...
  Unit style    : real
  Current step  : 0
Per MPI rank memory allocation (min/avg/max) = 9.598 | 9.605 | 9.618 Mbytes
   Step          Temp          E_pair         E_mol          TotEng         Press     
         0   0              31.241024      1.4887424e-05  31.241039      529.65146    
      9001   0             -595.82873      0.30684348    -595.52188     -20.358581    
Loop time of 43.6515 on 8 procs for 9001 steps with 1500 atoms

99.3% CPU use with 8 MPI tasks x 1 OpenMP threads

Minimization stats:
  Stopping criterion = energy tolerance
  Energy initial, next-to-last, final = 
      31.2410390596676  -595.521782365652  -595.521883522578
  Force two-norm initial, final = 127.77698 0.86441691
  Force max component initial, final = 15.446157 0.14579757
  Final line search alpha, max atom move = 0.78989016 0.11516407
  Iterations, force evaluations = 9001 18003

MPI task timing breakdown:
Section |  min time  |  avg time  |  max time  |%varavg| %total
---------------------------------------------------------------
Pair    | 4.6004     | 8.8191     | 13.054     |  93.1 | 20.20
Bond    | 0.1337     | 0.15964    | 0.2063     |   6.3 |  0.37
Kspace  | 28.546     | 32.693     | 36.933     |  48.3 | 74.90
Neigh   | 0.027415   | 0.027771   | 0.028063   |   0.1 |  0.06
Comm    | 1.2262     | 1.4145     | 1.6938     |  13.2 |  3.24
Output  | 0          | 0          | 0          |   0.0 |  0.00
Modify  | 0.03618    | 0.039461   | 0.044726   |   1.5 |  0.09
Other   |            | 0.4977     |            |       |  1.14

Nlocal:          187.5 ave         279 max         125 min
Histogram: 2 2 0 1 0 1 0 0 0 2
Nghost:        2093.88 ave        2157 max        1963 min
Histogram: 1 0 1 0 0 1 0 0 2 3
Neighs:        25125.1 ave       43668 max        8579 min
Histogram: 1 0 1 2 1 0 1 1 0 1

Total # of neighbors = 201001
Ave neighs/atom = 134.00067
Ave special neighs/atom = 2
Neighbor list builds = 39
Dangerous builds = 0
PPPM initialization ...
  using 12-bit tables for long-range coulomb (src/kspace.cpp:342)
  G vector (1/distance) = 0.27179988
  grid = 48 48 48
  stencil order = 5
  estimated absolute RMS force accuracy = 0.00033983665
  estimated relative force accuracy = 1.023408e-06
  using single precision FFTW3
  3d grid and FFT values/proc = 29791 13824
Generated 1 of 1 mixed pair_coeff terms from arithmetic mixing rule
Last active /omp style is kspace_style pppm/omp
Setting up Verlet run ...
  Unit style    : real
  Current step  : 9001
  Time step     : 0.1
Per MPI rank memory allocation (min/avg/max) = 8.495 | 8.53 | 8.762 Mbytes
   Step         PotEng         KinEng         TotEng         Press           Temp        v_Density   
      9001  -595.52188      1340.4703      744.9484       496.24667      300            0.19538921   
     10000   273.05213      1142.0209      1415.0731      318.82988      255.58663      0.16087755   
     11000   94.018948      1423.2501      1517.269       264.98147      318.52629      0.13898494   
     12000   245.4657       1308.4365      1553.9022      157.45668      292.83078      0.13097542   
     13000   246.76252      1309.9606      1556.7232      148.13929      293.17188      0.1320566    
     14000   198.77362      1391.0076      1589.7813      215.80458      311.31037      0.1376202    
     15000   290.61538      1264.7834      1555.3988      103.71196      283.06112      0.14303985   
     16000   169.26111      1411.162       1580.4231      227.66184      315.82096      0.15207944   
     17000   279.03581      1293.8581      1572.8939      131.93657      289.56809      0.15295285   
     18000   218.51589      1383.8117      1602.3276      194.11035      309.6999       0.15807076   
     19000   286.34613      1262.9991      1549.3452      142.98224      282.66179      0.16268291   
     20000   242.24781      1323.6587      1565.9065      210.97947      296.23753      0.16969387   
     21000   294.37636      1314.0344      1608.4107      175.64293      294.08359      0.17025121   
     22000   289.33272      1376.4827      1665.8155      140.55647      308.05966      0.17660164   
     23000   277.0639       1361.8906      1638.9545      158.71744      304.7939       0.17639913   
     24000   287.62362      1307.6991      1595.3227      247.16655      292.66573      0.16868438   
     25000   298.66228      1355.6009      1654.2631      259.8918       303.38626      0.16967859   
     26000   330.01528      1300.4484      1630.4636      24.771902      291.04301      0.16572644   
     27000   295.83745      1359.3418      1655.1793      127.29403      304.22349      0.16501776   
     28000   317.84707      1334.2389      1652.086       348.25555      298.60541      0.17157707   
     29000   303.45674      1334.0303      1637.487       232.42928      298.55871      0.16740244   
     30000   363.72965      1298.745       1662.4746     -31.686688      290.66179      0.16915293   
     31000   303.74232      1300.0777      1603.8201      162.95626      290.96007      0.17314898   
     32000   308.80992      1325.3826      1634.1925      380.36534      296.62334      0.17351793   
     33000   340.95663      1302.5219      1643.4785      176.22837      291.50707      0.171621     
     34000   339.01011      1329.789       1668.7991      34.689907      297.60951      0.17075749   
     35000   327.17977      1300.2635      1627.4433      181.70872      291.00165      0.17278324   
     36000   330.7132       1325.5199      1656.2331      315.81484      296.65407      0.17252521   
     37000   348.52142      1276.808       1625.3295      122.35239      285.75226      0.16663972   
     38000   325.2123       1354.5446      1679.7569      120.68808      303.14987      0.17367993   
     39000   368.83004      1313.5104      1682.3404      195.53601      293.96632      0.1758945    
     40000   351.62457      1328.0039      1679.6285      237.86629      297.21         0.17141737   
     41000   361.88121      1348.8623      1710.7435      129.60502      301.87816      0.17246307   
     42000   365.67446      1348.7012      1714.3757      96.763398      301.8421       0.17628521   
     43000   335.43161      1421.2747      1756.7063      275.28515      318.0842       0.18065561   
     44000   345.45338      1339.2276      1684.681       300.95475      299.72188      0.18363647   
     45000   356.15734      1321.8132      1677.9705      71.924118      295.8245       0.1702147    
     46000   355.48768      1343.0518      1698.5395      108.22881      300.57775      0.16527587   
     47000   380.23052      1346.3807      1726.6112      259.20431      301.32276      0.17335943   
     48000   339.11395      1368.6379      1707.7519      244.56759      306.30398      0.1756649    
     49000   368.18164      1329.7307      1697.9124      56.800713      297.59646      0.16917257   
     50000   353.70866      1364.6837      1718.3924      164.81437      305.41901      0.16749851   
     51000   358.53173      1377.5643      1736.096       286.33486      308.30172      0.16739354   
     52000   357.32947      1324.9062      1682.2357      189.44368      296.51673      0.17226449   
     53000   347.5875       1308.3257      1655.9132      3.263597       292.80597      0.18181282   
     54000   374.51764      1307.2499      1681.7676      214.5458       292.56522      0.17900503   
     55000   328.17781      1322.0312      1650.209       286.5843       295.87329      0.16897873   
     56000   382.74835      1295.052       1677.8004      149.00625      289.8353       0.17090886   
     57000   361.32508      1299.6786      1661.0037      72.454392      290.87074      0.17248738   
     58000   353.406        1340.9014      1694.3074      232.33366      300.09648      0.17101725   
     59000   378.07706      1323.7051      1701.7821      270.31853      296.24791      0.16559155   
     59001   379.0618       1322.6999      1701.7617      268.74702      296.02296      0.16558753   
Loop time of 221.597 on 8 procs for 50000 steps with 1500 atoms

Performance: 1.949 ns/day, 12.311 hours/ns, 225.635 timesteps/s, 338.452 katom-step/s
99.4% CPU use with 8 MPI tasks x 1 OpenMP threads

MPI task timing breakdown:
Section |  min time  |  avg time  |  max time  |%varavg| %total
---------------------------------------------------------------
Pair    | 7.6972     | 10.873     | 14.998     |  65.6 |  4.91
Bond    | 0.42405    | 0.5037     | 0.61136    |   7.7 |  0.23
Kspace  | 88.829     | 92.73      | 95.997     |  23.1 | 41.85
Neigh   | 0.052335   | 0.053406   | 0.054062   |   0.3 |  0.02
Comm    | 3.3115     | 3.7483     | 4.4997     |  22.3 |  1.69
Output  | 0.0028469  | 0.0030929  | 0.0044388  |   0.9 |  0.00
Modify  | 108.49     | 110.55     | 111.56     |  10.1 | 49.89
Other   |            | 3.139      |            |       |  1.42

Nlocal:          187.5 ave         221 max         156 min
Histogram: 1 1 1 0 2 0 0 1 1 1
Nghost:        1714.12 ave        1752 max        1677 min
Histogram: 1 0 2 1 0 1 1 0 0 2
Neighs:        14766.9 ave       18953 max       11541 min
Histogram: 1 1 2 1 0 1 0 0 0 2

Total # of neighbors = 118135
Ave neighs/atom = 78.756667
Ave special neighs/atom = 2
Neighbor list builds = 85
Dangerous builds = 0
PPPM initialization ...
  using 12-bit tables for long-range coulomb (src/kspace.cpp:342)
  G vector (1/distance) = 0.26853851
  grid = 48 48 48
  stencil order = 5
  estimated absolute RMS force accuracy = 0.00040100522
  estimated relative force accuracy = 1.2076153e-06
  using single precision FFTW3
  3d grid and FFT values/proc = 29791 13824
Generated 1 of 1 mixed pair_coeff terms from arithmetic mixing rule
Last active /omp style is kspace_style pppm/omp
Setting up Verlet run ...
  Unit style    : real
  Current step  : 59001
  Time step     : 0.25
Per MPI rank memory allocation (min/avg/max) = 8.496 | 8.531 | 8.763 Mbytes
   Step         PotEng         KinEng         TotEng         Press           Temp        v_Density   
     59001   379.06372      1322.6999      1701.7637      268.74997      296.02296      0.16558753   
     60000   386.91238      1343.7933      1730.7057      181.68182      300.7437       0.16279371   
     61000   386.8682       1348.8064      1735.6746      50.786478      301.86564      0.16872484   
     62000   381.56581      1370.7105      1752.2763      88.702581      306.76782      0.17508392   
     63000   360.16275      1354.9389      1715.1017      157.86103      303.23811      0.1754049    
     64000   382.52127      1335.4809      1718.0022      264.77211      298.88336      0.17412722   
     65000   392.82041      1309.7324      1702.5528      286.96339      293.12079      0.17308236   
     66000   362.04358      1315.1335      1677.1771      251.18573      294.32957      0.16585666   
     67000   371.24079      1353.5248      1724.7656      99.673682      302.92163      0.17280787   
     68000   389.05248      1364.3756      1753.4281     -54.423392      305.35005      0.16903603   
     69000   384.84257      1352.1859      1737.0285      77.622328      302.62198      0.17198665   
     70000   399.61195      1360.5308      1760.1427      204.8277       304.48958      0.16916424   
     71000   374.14699      1327.6095      1701.7565      256.70602      297.12174      0.17143486   
     72000   393.0985       1296.1556      1689.2541      200.50862      290.08229      0.168119     
     73000   380.19965      1360.3572      1740.5569      220.21834      304.45074      0.17937828   
     74000   382.07112      1362.2211      1744.2923      194.77583      304.86789      0.17127546   
     75000   388.14355      1283.2848      1671.4284      98.592937      287.20177      0.17803311   
     76000   376.06113      1338.9764      1715.0375      117.70065      299.66567      0.17380483   
     77000   379.62997      1344.0499      1723.6798      165.06051      300.80112      0.1645459    
     78000   404.85415      1376.7604      1781.6145      239.76675      308.12179      0.16738212   
     79000   407.30874      1384.3513      1791.66        240.79394      309.82066      0.16238726   
     80000   350.09922      1316.3192      1666.4184      195.01494      294.59493      0.17520647   
     81000   381.47531      1322.322       1703.7973      158.07113      295.93838      0.16735753   
     82000   396.02011      1308.4867      1704.5068      109.21004      292.84201      0.1649778    
     83000   389.66226      1319.7196      1709.3818      124.09461      295.35595      0.15870873   
     84000   394.32002      1298.6971      1693.0171      242.83537      290.65108      0.16869788   
     85000   395.47917      1342.7821      1738.2613      248.85511      300.5174       0.17236058   
     86000   373.99263      1367.4582      1741.4508      276.34523      306.03995      0.17109127   
     87000   380.53955      1379.5469      1760.0865      165.3248       308.74543      0.16869434   
     88000   407.8487       1352.2805      1760.1292      82.342543      302.64314      0.16057791   
     89000   373.1086       1343.3967      1716.5053      96.058944      300.65493      0.16759969   
     90000   379.6448       1356.6642      1736.309       128.86228      303.62424      0.165565     
     91000   399.10615      1388.746       1787.8521      209.67155      310.80419      0.16155474   
     92000   393.34421      1328.5501      1721.8943      243.73133      297.33224      0.15990542   
     93000   390.28988      1342.041       1732.3309      216.63622      300.35153      0.16841694   
     94000   388.13822      1379.6764      1767.8147      212.6936       308.77442      0.16678797   
     95000   400.14394      1385.8914      1786.0354      143.86487      310.16535      0.15796034   
     96000   384.14601      1342.6232      1726.7692      138.80088      300.48183      0.15651508   
     97000   420.79346      1340.2596      1761.0531      150.18988      299.95285      0.1482825    
     98000   431.07073      1357.8789      1788.9497      218.46453      303.89609      0.16220762   
     99000   390.94934      1326.8191      1717.7684      257.04599      296.94483      0.16771366   
    100000   412.59403      1324.0781      1736.6721      209.20477      296.33139      0.16601375   
    101000   396.84491      1308.1097      1704.9547      133.33734      292.75765      0.16303337   
    102000   401.29606      1336.083       1737.3791      148.58567      299.01812      0.16660171   
    103000   415.86863      1326.0237      1741.8924      202.50846      296.76684      0.1475516    
    104000   363.06432      1381.671       1744.7353      250.11166      309.2208       0.16645834   
    105000   385.41457      1326.9443      1712.3589      229.2517       296.97286      0.15770308   
    106000   395.98924      1344.1621      1740.1513      186.39834      300.82624      0.16119375   
    107000   406.61456      1336.414       1743.0286      91.474915      299.0922       0.16237358   
    108000   398.4867       1352.0894      1750.5761      99.688608      302.60037      0.15490591   
    109000   391.67368      1327.4569      1719.1306      182.60795      297.08758      0.16948367   
    109001   399.68555      1319.6693      1719.3548      183.62959      295.34469      0.16948061   
Loop time of 217.274 on 8 procs for 50000 steps with 1500 atoms

Performance: 4.971 ns/day, 4.828 hours/ns, 230.124 timesteps/s, 345.186 katom-step/s
99.4% CPU use with 8 MPI tasks x 1 OpenMP threads

MPI task timing breakdown:
Section |  min time  |  avg time  |  max time  |%varavg| %total
---------------------------------------------------------------
Pair    | 7.3186     | 9.0249     | 10.47      |  28.9 |  4.15
Bond    | 0.4407     | 0.50213    | 0.55917    |   4.8 |  0.23
Kspace  | 89.249     | 90.481     | 92.303     |   9.9 | 41.64
Neigh   | 0.10501    | 0.10723    | 0.10856    |   0.4 |  0.05
Comm    | 3.2272     | 3.6041     | 4.2454     |  19.7 |  1.66
Output  | 0.0026822  | 0.0029701  | 0.004702   |   1.2 |  0.00
Modify  | 108.12     | 110.47     | 111.61     |  10.9 | 50.84
Other   |            | 3.079      |            |       |  1.42

Nlocal:          187.5 ave         220 max         167 min
Histogram: 2 0 0 3 1 1 0 0 0 1
Nghost:        1704.12 ave        1739 max        1637 min
Histogram: 1 0 0 1 0 0 1 2 1 2
Neighs:        14572.4 ave       19841 max       11696 min
Histogram: 2 0 1 3 1 0 0 0 0 1

Total # of neighbors = 116579
Ave neighs/atom = 77.719333
Ave special neighs/atom = 2
Neighbor list builds = 196
Dangerous builds = 0
PPPM initialization ...
  using 12-bit tables for long-range coulomb (src/kspace.cpp:342)
  G vector (1/distance) = 0.26894971
  grid = 48 48 48
  stencil order = 5
  estimated absolute RMS force accuracy = 0.00039231707
  estimated relative force accuracy = 1.1814512e-06
  using single precision FFTW3
  3d grid and FFT values/proc = 29791 13824
Generated 1 of 1 mixed pair_coeff terms from arithmetic mixing rule
Last active /omp style is kspace_style pppm/omp
Setting up Verlet run ...
  Unit style    : real
  Current step  : 109001
  Time step     : 0.5
Per MPI rank memory allocation (min/avg/max) = 8.496 | 8.531 | 8.763 Mbytes
   Step         PotEng         KinEng         TotEng         Press           Temp        v_Density   
    109001   399.68541      1319.6693      1719.3547      183.62955      295.34469      0.16948061   
    110000   540.03423      1326.9333      1866.9675      262.19278      296.97039      0.18097545   
    111000   475.35188      1348.6996      1824.0514      148.65637      301.84173      0.19295709   
    112000   479.19623      1358.7714      1837.9677      143.77242      304.09584      0.1978481    
    113000   475.09952      1305.3558      1780.4553      241.53079      292.14131      0.19730726   
    114000   508.27918      1340.9406      1849.2198      199.89894      300.10527      0.19837021   
    115000   506.0171       1345.7067      1851.7238      157.09082      301.17192      0.19223933   
    116000   522.62316      1318.1125      1840.7356      126.57508      294.99628      0.18138601   
    117000   489.90934      1332.7335      1822.6428      170.57182      298.26849      0.19537419   
    118000   482.98147      1377.0412      1860.0227      166.33297      308.18465      0.1908893    
    119000   478.02619      1328.9455      1806.9717      213.63162      297.42072      0.19910153   
    120000   496.00821      1350.7366      1846.7448      158.2226       302.29762      0.18788986   
    121000   464.05113      1302.941       1766.9922      167.8159       291.60088      0.20662248   
    122000   461.36437      1357.5265      1818.8909      210.39005      303.81722      0.19853476   
    123000   462.80486      1312.1603      1774.9652      204.58334      293.66417      0.19826097   
    124000   468.97591      1388.0774      1857.0533      154.65986      310.65458      0.19889139   
    125000   503.65104      1339.572       1843.223       177.51179      299.79896      0.18829775   
    126000   509.16297      1322.0316      1831.1946      132.1379       295.87338      0.18590549   
    127000   490.94155      1349.6956      1840.6371      150.02145      302.06464      0.1988209    
    128000   473.781        1333.0008      1806.7818      269.13214      298.32831      0.19559477   
    129000   460.82261      1354.591       1815.4136      252.83943      303.16024      0.21272962   
    130000   510.74065      1357.4103      1868.1509      92.266779      303.7912       0.1913681    
    131000   485.26473      1257.6425      1742.9073      253.97532      281.46298      0.20167865   
    132000   517.33895      1329.6713      1847.0102      238.63894      297.58316      0.19000548   
    133000   455.669        1339.7597      1795.4287      58.237395      299.84096      0.21205858   
    134000   469.87641      1360.5771      1830.4535      191.0381       304.49994      0.2054253    
    135000   475.76237      1339.4171      1815.1794      282.22623      299.76429      0.20308593   
    136000   488.69849      1313.4642      1802.1626      49.310706      293.95597      0.19607929   
    137000   468.73196      1362.4789      1831.2109      206.47447      304.92558      0.20542206   
    138000   485.56121      1347.6018      1833.163       267.85456      301.59605      0.20162995   
    139000   474.5052       1318.5547      1793.0599      145.86302      295.09524      0.2128525    
    140000   454.73872      1379.3735      1834.1122      161.90261      308.70662      0.20955685   
    141000   452.9044       1328.5471      1781.4515      227.10887      297.33156      0.20839141   
    142000   481.79435      1300.1019      1781.8962      144.58314      290.96547      0.20235697   
    143000   491.65924      1317.294       1808.9532      120.79171      294.8131       0.20431767   
    144000   516.92234      1392.3313      1909.2536      269.76523      311.6066       0.20566938   
    145000   474.29987      1337.4716      1811.7714      117.16693      299.32888      0.21520419   
    146000   471.10454      1383.9691      1855.0737      129.74128      309.73513      0.20151585   
    147000   479.82373      1325.3188      1805.1425      225.99463      296.60907      0.20531184   
    148000   493.44312      1319.7693      1813.2124      197.57865      295.36707      0.19901592   
    149000   475.99751      1372.4299      1848.4274      50.25426       307.15262      0.2052964    
    150000   470.92999      1346.1985      1817.1285      216.93045      301.28199      0.21065763   
    151000   474.94143      1353.8228      1828.7643      245.64964      302.98833      0.21333185   
    152000   466.6447       1348.3871      1815.0318      157.61727      301.7718       0.20297279   
    153000   488.93988      1330.0745      1819.0144      151.89634      297.6734       0.20170442   
    154000   491.13127      1385.1967      1876.328       247.70103      310.00987      0.20227809   
    155000   506.72509      1341.3249      1848.05        151.11113      300.19127      0.21050814   
    156000   471.85188      1306.4558      1778.3076      135.40326      292.38748      0.19889885   
    157000   465.40017      1368.4717      1833.8719      293.66912      306.26677      0.20765638   
    158000   486.74149      1310.859       1797.6005      184.84012      293.37295      0.20136857   
    159000   457.92524      1362.5546      1820.4798      54.746915      304.94251      0.20180502   
    159001   474.19204      1350.237       1824.4291      47.851678      302.18582      0.201894     
Loop time of 230.758 on 8 procs for 50000 steps with 1500 atoms

Performance: 9.360 ns/day, 2.564 hours/ns, 216.677 timesteps/s, 325.016 katom-step/s
98.9% CPU use with 8 MPI tasks x 1 OpenMP threads

MPI task timing breakdown:
Section |  min time  |  avg time  |  max time  |%varavg| %total
---------------------------------------------------------------
Pair    | 10.167     | 10.658     | 11.492     |  14.6 |  4.62
Bond    | 0.47636    | 0.505      | 0.54156    |   3.4 |  0.22
Kspace  | 89.653     | 90.988     | 91.635     |   6.9 | 39.43
Neigh   | 0.23413    | 0.23878    | 0.24132    |   0.6 |  0.10
Comm    | 3.4776     | 3.8473     | 4.4968     |  19.6 |  1.67
Output  | 0.0027694  | 1.3515     | 10.792     | 306.9 |  0.59
Modify  | 108.26     | 120.04     | 122.54     |  41.2 | 52.02
Other   |            | 3.132      |            |       |  1.36

Nlocal:          187.5 ave         215 max         163 min
Histogram: 1 1 1 0 2 0 0 2 0 1
Nghost:        1885.88 ave        1923 max        1839 min
Histogram: 1 0 1 1 0 1 1 1 0 2
Neighs:        17165.6 ave       20934 max       13602 min
Histogram: 1 1 0 2 0 1 1 0 0 2

Total # of neighbors = 137325
Ave neighs/atom = 91.55
Ave special neighs/atom = 2
Neighbor list builds = 396
Dangerous builds = 0
PPPM initialization ...
  using 12-bit tables for long-range coulomb (src/kspace.cpp:342)
  G vector (1/distance) = 0.27241644
  grid = 48 48 48
  stencil order = 5
  estimated absolute RMS force accuracy = 0.00032912191
  estimated relative force accuracy = 9.9114086e-07
  using single precision FFTW3
  3d grid and FFT values/proc = 29791 13824
Generated 1 of 1 mixed pair_coeff terms from arithmetic mixing rule
Last active /omp style is kspace_style pppm/omp
Setting up Verlet run ...
  Unit style    : real
  Current step  : 0
  Time step     : 0.5
Per MPI rank memory allocation (min/avg/max) = 8.496 | 8.531 | 8.763 Mbytes
   Step         PotEng         KinEng         TotEng         Press           Temp        v_Density   
         0   474.19117      1350.237       1824.4282      47.852638      302.18582      0.201894     
      1000   498.13868      1371.3753      1869.514       151.27147      306.91662      0.20341399   
      2000   509.87625      1425.858       1935.7343      186.25681      319.10995      0.2034984    
      3000   483.00721      1367.1727      1850.1799      189.51665      305.97605      0.20025332   
      4000   499.88682      1361.4517      1861.3385      189.50443      304.69569      0.19738489   
      5000   486.02841      1375.2246      1861.253       244.49329      307.77809      0.20042352   
      6000   473.5755       1396.8937      1870.4692      279.20678      312.62767      0.20820818   
      7000   485.89949      1329.9595      1815.859       270.34728      297.64767      0.21146885   
      8000   473.88517      1337.7226      1811.6078      194.77985      299.38507      0.20704333   
      9000   480.10252      1350.2898      1830.3923      157.72918      302.19762      0.20235148   
     10000   498.55391      1348.2653      1846.8192      134.12131      301.74455      0.19923008   
     11000   488.5392       1372.0123      1860.5515      139.38381      307.05917      0.19943025   
     12000   504.13265      1328.951       1833.0836      168.32423      297.42196      0.20239031   
     13000   481.46585      1332.5279      1813.9938      243.04241      298.22248      0.2086183    
     14000   440.23093      1331.6595      1771.8904      320.90482      298.02812      0.21155868   
     15000   482.07546      1320.1922      1802.2676      271.64444      295.46172      0.21108552   
     16000   493.72594      1349.8412      1843.5672      217.162        302.09724      0.20781172   
     17000   491.19936      1344.2117      1835.411       155.38766      300.83733      0.20058238   
     18000   480.95534      1351.5839      1832.5392      122.46448      302.48724      0.19737113   
     19000   515.62504      1406.0606      1921.6857      191.18961      314.67925      0.1995555    
     20000   497.08601      1357.85        1854.936       242.81081      303.88962      0.20213099   
     21000   431.0662       1374.9719      1806.0381      234.6568       307.72153      0.20476548   
     22000   458.63502      1348.6514      1807.2864      151.26826      301.83094      0.20526492   
     23000   470.84203      1304.4859      1775.3279      73.818849      291.94661      0.20091026   
     24000   488.96646      1334.5947      1823.5612      101.36977      298.68504      0.19342321   
     25000   491.04958      1346.0358      1837.0853      49.075005      301.24556      0.18744999   
     26000   499.34061      1314.1951      1813.5358      74.581871      294.11957      0.1863666    
     27000   490.46702      1312.7231      1803.1901      216.19395      293.79011      0.19272385   
     28000   470.2039       1349.7443      1819.9482      277.62924      302.07553      0.19668885   
     29000   475.89277      1367.1293      1843.0221      271.49524      305.96635      0.19664676   
     30000   511.54194      1350.8559      1862.3979      188.94223      302.32433      0.19527262   
     31000   466.09904      1359.3815      1825.4805      160.05961      304.23237      0.19564255   
     32000   496.27251      1373.7398      1870.0123      146.37022      307.44578      0.19743429   
     33000   481.2683       1348.3495      1829.6178      171.60688      301.76339      0.20228726   
     34000   478.08847      1366.1026      1844.1911      232.36744      305.73657      0.20878403   
     35000   510.56295      1389.8037      1900.3666      179.47891      311.04092      0.20614623   
     36000   500.23701      1358.7059      1858.9429      152.45963      304.08116      0.19439201   
     37000   464.40507      1374.8231      1839.2282      152.63231      307.68824      0.19072535   
     38000   477.67832      1406.5492      1884.2275      196.70282      314.7886       0.1896631    
     39000   494.72695      1366.9107      1861.6377      241.87175      305.91743      0.19015258   
     40000   501.60194      1362.3649      1863.9669      311.02317      304.90007      0.19243068   
     41000   492.71464      1375.5414      1868.256       310.09568      307.84899      0.19722603   
     42000   479.01297      1357.3847      1836.3977      226.99735      303.78548      0.20360678   
     43000   476.88662      1350.1876      1827.0742      207.98032      302.17475      0.21222919   
     44000   471.21691      1364.4313      1835.6482      199.48076      305.36253      0.21541447   
     45000   474.50008      1353.626       1828.126       142.55674      302.94427      0.21329971   
     46000   470.74028      1345.7797      1816.52        215.47706      301.18827      0.2094613    
     47000   457.47086      1332.722       1790.1929      241.51102      298.26592      0.20530105   
     48000   479.91268      1351.7461      1831.6587      210.07702      302.52354      0.20184606   
     49000   492.08106      1369.7589      1861.84        174.03601      306.55486      0.20219363   
     50000   485.36348      1387.3602      1872.7236      124.57986      310.49405      0.21024103   
     51000   454.19987      1378.5117      1832.7116      102.16068      308.51375      0.21586472   
     52000   468.96071      1344.8009      1813.7616      47.151322      300.9692       0.21362317   
     53000   470.79134      1324.5302      1795.3215      59.892755      296.43258      0.20749167   
     54000   466.21379      1296.4417      1762.6555      153.57348      290.14632      0.20006296   
     55000   488.90458      1305.458       1794.3625      238.7599       292.16417      0.19527163   
     56000   488.83879      1314.3533      1803.1921      263.7639       294.15497      0.19290632   
     57000   506.27356      1328.909       1835.1826      235.11155      297.41257      0.19423058   
     58000   479.23085      1364.9772      1844.2081      235.19869      305.48471      0.20051849   
     59000   459.11694      1333.9933      1793.1103      195.57707      298.55044      0.20704753   
     60000   470.10916      1349.9295      1820.0387      150.11213      302.117        0.20823694   
     61000   465.50666      1349.686       1815.1926      181.28594      302.06249      0.20793411   
     62000   498.55915      1360.9746      1859.5338      127.73778      304.58892      0.20675009   
     63000   489.14505      1318.1489      1807.294       129.59432      295.00444      0.20251857   
     64000   474.63674      1320.1717      1794.8084      121.4438       295.45713      0.19877287   
     65000   480.80497      1325.2646      1806.0695      124.89907      296.59693      0.19767322   
     66000   462.56256      1297.0334      1759.596       122.89058      290.27874      0.1992959    
     67000   481.93562      1323.1478      1805.0834      161.99114      296.12318      0.20597763   
     68000   497.47483      1314.4451      1811.9199      143.92277      294.17551      0.2084338    
     69000   475.17988      1290.2826      1765.4624      137.6906       288.76789      0.20289744   
     70000   501.25326      1294.2096      1795.4628      32.127154      289.64676      0.19391689   
     71000   483.51669      1308.7111      1792.2278      72.601834      292.89223      0.19241069   
     72000   520.25613      1304.1009      1824.3571      150.46752      291.86046      0.19257863   
     73000   483.42774      1327.5848      1811.0125      200.28113      297.1162       0.19248839   
     74000   498.82009      1326.5606      1825.3807      263.68003      296.88698      0.19390781   
     75000   485.4611       1323.7916      1809.2527      221.34144      296.26728      0.19669305   
     76000   474.60965      1343.925       1818.5346      166.08222      300.77317      0.19923979   
     77000   471.66149      1321.7109      1793.3723      145.15792      295.8016       0.20205688   
     78000   477.73907      1317.2275      1794.9665      168.21162      294.79821      0.20667574   
     79000   474.40853      1340.1575      1814.566       221.34141      299.93         0.21177466   
     80000   491.06625      1367.4667      1858.533       215.15808      306.04185      0.21495972   
     81000   489.08804      1397.8534      1886.9414      281.41189      312.84246      0.21209814   
     82000   462.98058      1409.4276      1872.4082      193.57111      315.43279      0.20127108   
     83000   467.3722       1343.6163      1810.9885      148.18377      300.70409      0.19799485   
     84000   480.77675      1309.3077      1790.0845      130.81523      293.02576      0.19837591   
     85000   482.5714       1314.7073      1797.2787      101.2545       294.2342       0.20079739   
     86000   452.95115      1322.3723      1775.3235      124.25188      295.94964      0.20034166   
     87000   491.64185      1268.1038      1759.7457      190.1532       283.80424      0.19854425   
     88000   441.49155      1313.271       1754.7626      235.36624      293.91275      0.19553451   
     89000   494.80061      1313.323       1808.1236      215.54929      293.92438      0.19505325   
     90000   502.40639      1344.8729      1847.2793      162.97992      300.98531      0.19560582   
     91000   493.34074      1339.8306      1833.1713      88.453577      299.85684      0.196017     
     92000   486.23692      1327.3419      1813.5789      43.054384      297.06185      0.19726539   
     93000   484.63878      1332.0201      1816.6589      86.295648      298.10884      0.20198864   
     94000   488.90237      1339.7905      1828.6928      61.352538      299.84786      0.20250361   
     95000   489.40133      1350.209       1839.6104      120.41         302.17955      0.20349715   
     96000   465.92609      1283.3561      1749.2822      228.44516      287.21772      0.20484534   
     97000   450.10798      1320.3985      1770.5065      278.92174      295.5079       0.20255475   
     98000   479.59299      1307.8946      1787.4876      245.03203      292.70949      0.19911114   
     99000   474.17544      1306.4758      1780.6512      202.5497       292.39197      0.19669369   
    100000   445.64617      1345.7916      1791.4378      133.50975      301.19093      0.19513918   
    101000   464.78752      1338.5475      1803.335       63.401781      299.56967      0.19220393   
    102000   508.96655      1284.8233      1793.7898     -25.147267      287.54609      0.18669369   
    103000   490.8169       1329.453       1820.2699      49.579955      297.53431      0.18712214   
    104000   483.23746      1350.3738      1833.6112      136.89464      302.21642      0.1966504    
    105000   495.81113      1337.1279      1832.939       273.61405      299.25196      0.20482138   
    106000   484.52909      1356.0179      1840.547       256.97006      303.47959      0.2069242    
    107000   465.59655      1371.0511      1836.6477      204.29745      306.84405      0.2038607    
    108000   501.89445      1378.3908      1880.2853      167.32965      308.4867       0.19992228   
    109000   518.80411      1347.4826      1866.2867      116.15872      301.56937      0.19718797   
    110000   491.49679      1359.674       1851.1708      177.93236      304.29783      0.19543743   
    111000   497.96496      1331.2732      1829.2381      157.00008      297.94167      0.19102682   
    112000   484.57394      1305.7975      1790.3714      227.19188      292.24016      0.19095032   
    113000   501.27887      1304.7369      1806.0157      268.70536      292.00279      0.19924591   
    114000   469.72458      1333.7185      1803.4431      262.47366      298.48894      0.20634693   
    115000   489.47858      1335.3164      1824.795       262.30903      298.84655      0.20608798   
    116000   482.07237      1359.7415      1841.8138      149.56346      304.31293      0.20274308   
    117000   464.46491      1350.3877      1814.8526      90.889476      302.21954      0.19905077   
    118000   506.28344      1304.1028      1810.3862      156.28218      291.86088      0.19774058   
    119000   502.43564      1310.9662      1813.4018      133.47593      293.39692      0.19529421   
    120000   483.24654      1362.2122      1845.4587      177.56931      304.86588      0.1912827    
    121000   500.22446      1354.4848      1854.7092      168.11441      303.13647      0.18413375   
    122000   498.76816      1336.2679      1835.0361      202.594        299.0595       0.18343699   
    123000   453.57224      1359.9251      1813.4973      159.81029      304.35402      0.1906151    
    124000   473.56786      1345.6258      1819.1936      254.62118      301.15381      0.20034594   
    125000   477.40947      1381.4693      1858.8787      208.86108      309.17566      0.20245799   
    126000   476.80808      1356.4856      1833.2937      247.11557      303.58426      0.19876332   
    127000   516.13388      1348.8408      1864.9747      209.04844      301.87334      0.19382353   
    128000   486.02543      1347.485       1833.5105      160.23319      301.56992      0.19164992   
    129000   513.58457      1354.7462      1868.3308      159.05007      303.19498      0.19528385   
    130000   500.22524      1391.0437      1891.2689      208.66127      311.31843      0.19979984   
    131000   493.05753      1333.7418      1826.7994      197.99184      298.49416      0.20241726   
    132000   446.22282      1345.7343      1791.9572      190.2587       301.1781       0.20375433   
    133000   449.38072      1349.5552      1798.9359      184.93067      302.03321      0.20155827   
    134000   471.60306      1311.2136      1782.8167      143.56492      293.4523       0.20026459   
    135000   478.61657      1299.1049      1777.7214      157.70459      290.74234      0.20005251   
    136000   497.30093      1297.2601      1794.5611      147.82378      290.32948      0.19894136   
    137000   453.23976      1327.9327      1781.1725      175.62272      297.19407      0.1986299    
    138000   503.10255      1314.6658      1817.7684      173.24153      294.22491      0.19907365   
    139000   467.53234      1329.0177      1796.5501      201.21931      297.43689      0.1991293    
    140000   487.36751      1298.0254      1785.393       224.2373       290.50076      0.19813018   
    141000   443.9054       1364.3989      1808.3043      251.49201      305.35528      0.19659259   
    142000   466.00783      1333.901       1799.9088      207.50215      298.52978      0.19367642   
    143000   495.26194      1286.2258      1781.4877      173.92191      287.85997      0.1939124    
    144000   498.66316      1320.5127      1819.1758      145.00727      295.53344      0.19538868   
    145000   472.42144      1326.1103      1798.5317      68.09321       296.7862       0.1932677    
    146000   487.99843      1303.5924      1791.5909      73.071849      291.74666      0.18924968   
    147000   508.78446      1361.2962      1870.0807      96.095357      304.66089      0.187749     
    148000   503.96655      1358.7761      1862.7427      131.68899      304.09689      0.19156766   
    149000   501.76937      1356.567       1858.3364      155.34431      303.60248      0.19946915   
    150000   485.1047       1359.4505      1844.5552      171.67575      304.24782      0.20591427   
    151000   456.41954      1326.2628      1782.6824      181.26839      296.82035      0.21001479   
    152000   477.8489       1299.2488      1777.0977      160.28996      290.77455      0.21047824   
    153000   458.36516      1309.9203      1768.2855      165.8528       293.16286      0.2054251    
    154000   482.80927      1299.0358      1781.845       154.49666      290.72687      0.19782432   
    155000   499.26108      1324.8161      1824.0771      174.37275      296.49655      0.19493118   
    156000   495.33842      1312.3009      1807.6393      162.75921      293.69563      0.19342479   
    157000   461.28653      1342.5924      1803.8789      141.35333      300.47493      0.19217234   
    158000   470.14576      1309.1624      1779.3081      120.11413      292.99323      0.19162397   
    159000   501.7693       1340.4801      1842.2494      182.86215      300.00219      0.19698323   
    160000   466.4122       1350.3597      1816.7719      188.7366       302.21326      0.20532216   
    161000   469.33234      1350.527       1819.8594      185.68298      302.25072      0.21075552   
    162000   491.07301      1350.2524      1841.3254      144.01744      302.18926      0.21101901   
    163000   475.43498      1337.1815      1812.6165      148.60209      299.26397      0.20890267   
    164000   478.82397      1355.66        1834.4839      193.97196      303.39948      0.20799855   
    165000   499.39427      1364.9967      1864.391       185.59772      305.48906      0.20445223   
    166000   512.53963      1365.9855      1878.5251      227.03436      305.71035      0.20054742   
    167000   517.00035      1395.2241      1912.2245      201.84399      312.25402      0.19641427   
    168000   507.6116       1395.8365      1903.4481      158.03582      312.39108      0.19432992   
    169000   518.46495      1343.9313      1862.3962      110.36471      300.77458      0.1945585    
    170000   503.55874      1354.2907      1857.8494      141.67556      303.09303      0.20142255   
    171000   474.33958      1387.8976      1862.2372      208.34036      310.61433      0.20667659   
    172000   488.03137      1419.333       1907.3644      260.59533      317.64964      0.20716201   
    173000   503.99116      1367.1253      1871.1164      227.18429      305.96544      0.20252532   
    174000   481.06712      1352.9603      1834.0274      163.35484      302.7953       0.1972013    
    175000   461.89681      1371.239       1833.1358      169.84995      306.8861       0.19677754   
    176000   468.743        1308.6506      1777.3936      166.07756      292.87868      0.19944684   
    177000   464.92751      1282.1304      1747.0579      177.0492       286.94342      0.20378888   
    178000   496.36472      1319.5456      1815.9104      215.7544       295.31702      0.20942887   
    179000   474.95905      1300.7719      1775.731       124.16784      291.11543      0.21033919   
    180000   468.58046      1329.6695      1798.25        58.624389      297.58276      0.20962158   
    181000   469.34912      1331.0347      1800.3838      51.405785      297.8883       0.20749337   
    182000   474.21143      1322.0999      1796.3114      113.3761       295.88868      0.2039795    
    183000   459.34952      1347.8821      1807.2316      130.16725      301.65877      0.19844743   
    184000   490.80539      1351.0695      1841.8749      230.52086      302.37213      0.19547255   
    185000   493.30897      1374.7856      1868.0945      222.12802      307.67983      0.19157875   
    186000   508.17083      1342.982       1851.1529      164.4011       300.56214      0.18857437   
    187000   487.5885       1352.7582      1840.3467      179.30757      302.75007      0.19014245   
    188000   522.9219       1334.8889      1857.8108      185.18287      298.75087      0.19645241   
    189000   462.96237      1377.1787      1840.1411      229.05831      308.21542      0.20352356   
    190000   467.15721      1373.396       1840.5532      314.58884      307.36883      0.20731474   
    191000   475.69609      1391.3185      1867.0145      259.48119      311.37993      0.2064474    
    192000   486.45439      1355.4436      1841.898       179.26003      303.35106      0.20514707   
    193000   493.6967       1319.963       1813.6597      152.27142      295.41043      0.20487147   
    194000   456.44544      1338.4249      1794.8703      139.35214      299.54224      0.2042375    
    195000   465.28224      1310.1005      1775.3828      87.102437      293.20319      0.19857251   
    196000   476.6228       1333.359       1809.9818      79.803102      298.40848      0.19364444   
    197000   501.47661      1324.6731      1826.1497      69.874863      296.46456      0.19151032   
    198000   482.21927      1307.1663      1789.3856      102.10225      292.54651      0.19270109   
    199000   466.69527      1345.7868      1812.482       183.69231      301.18984      0.19885767   
    200000   467.27066      1388.3472      1855.6179      271.99792      310.71495      0.20682584   
    201000   497.80127      1418.7265      1916.5278      295.5717       317.51391      0.20898263   
    202000   491.26269      1378.8         1870.0627      315.55482      308.57827      0.20664977   
    203000   480.43117      1368.6688      1849.1         237.3961       306.31089      0.20086856   
    204000   491.37977      1352.1279      1843.5077      189.68467      302.609        0.19738413   
    205000   477.98197      1376.5532      1854.5351      147.3874       308.07542      0.19667903   
    206000   505.64946      1356.7909      1862.4403      94.640733      303.65258      0.19599467   
    207000   504.4012       1359.163       1863.5642      115.01119      304.18346      0.19734378   
    208000   485.58884      1296.8427      1782.4315      145.46015      290.23605      0.20009163   
    209000   462.57754      1338.0569      1800.6345      129.99426      299.45989      0.2079943    
    210000   483.11007      1321.9613      1805.0714      170.78056      295.85765      0.21532137   
    211000   446.90717      1352.3263      1799.2335      236.69144      302.6534       0.21534497   
    212000   433.44967      1338.0058      1771.4554      226.91561      299.44844      0.21346289   
    213000   495.45896      1309.6416      1805.1006      150.17471      293.10049      0.2104353    
    214000   447.79444      1336.5665      1784.361       94.932933      299.12634      0.20267003   
    215000   468.04013      1292.4154      1760.4556      92.466103      289.24523      0.19716626   
    216000   480.96723      1301.682       1782.6493      133.90147      291.31911      0.19513394   
    217000   491.33487      1319.2879      1810.6228      145.00493      295.25935      0.19724031   
    218000   500.80145      1321.4474      1822.2489      232.58585      295.74265      0.20201568   
    219000   459.85256      1323.3267      1783.1793      236.97175      296.16323      0.20497731   
    220000   461.09207      1345.8396      1806.9317      231.04781      301.20167      0.20687482   
    221000   478.45793      1305.9954      1784.4533      197.19601      292.28444      0.2042736    
    222000   528.46642      1282.1135      1810.5799      110.7477       286.93962      0.20106247   
    223000   454.47494      1325.0708      1779.5458      112.47931      296.55357      0.20178335   
    224000   457.53081      1390.2734      1847.8042      159.62636      311.14604      0.20685766   
    225000   483.60615      1347.9183      1831.5245      112.07965      301.66689      0.21024186   
    226000   479.42855      1354.0117      1833.4403      143.08978      303.0306       0.21005965   
    227000   480.73622      1345.2522      1825.9884      145.75695      301.0702       0.20826909   
    228000   461.70067      1389.1393      1850.84        176.55867      310.89223      0.20623274   
    229000   501.8868       1378.6239      1880.5107      114.07359      308.53886      0.20431855   
    230000   508.55718      1355.168       1863.7251      67.099278      303.28937      0.20656944   
    231000   508.73823      1364.3033      1873.0415      91.169542      305.33388      0.21178608   
    232000   472.69416      1385.4938      1858.188       117.10667      310.07636      0.21474552   
    233000   460.24335      1365.933       1826.1763      160.20738      305.69861      0.21413938   
    234000   473.97824      1364.3394      1838.3176      182.43637      305.34195      0.20946158   
    235000   472.13254      1347.9424      1820.075       237.01415      301.67228      0.20180539   
    236000   488.9344       1344.7142      1833.6486      290.95395      300.94979      0.19745358   
    237000   498.7028       1340.4541      1839.1568      298.54379      299.99637      0.19900585   
    238000   468.77528      1326.1434      1794.9186      334.11153      296.7936       0.20301728   
    239000   459.99265      1353.0516      1813.0442      306.7756       302.81572      0.20691674   
    240000   497.02044      1333.8589      1830.8793      263.30325      298.52036      0.21123028   
    241000   448.14853      1363.9134      1812.0619      194.54097      305.24661      0.21641085   
    242000   484.00903      1389.6726      1873.6817      98.509748      311.01159      0.21554548   
    243000   492.43474      1355.7833      1848.218       57.290854      303.42708      0.20450942   
    244000   478.19221      1347.1513      1825.3435      96.788901      301.49523      0.19687752   
    245000   521.24758      1354.9327      1876.1803      144.16179      303.23671      0.19672601   
    246000   499.66478      1372.9812      1872.646       253.92146      307.27602      0.1998789    
    247000   497.3411       1402.1853      1899.5264      293.75576      313.81194      0.20237363   
    248000   507.43339      1363.5869      1871.0203      307.87193      305.17355      0.20366424   
    249000   518.09253      1336.1026      1854.1951      183.1213       299.0225       0.20339052   
    250000   445.02654      1329.5771      1774.6036      172.03827      297.56208      0.20629722   
    251000   456.18883      1337.7094      1793.8982      133.96474      299.3821       0.20936344   
    252000   488.40688      1296.3859      1784.7928      136.10283      290.13382      0.20902421   
    253000   490.46126      1371.5073      1861.9686      178.98896      306.94615      0.20515924   
    254000   509.22775      1337.2588      1846.4866      220.2338       299.28127      0.19945242   
    255000   504.1525       1353.3203      1857.4728      224.80132      302.87586      0.19325262   
    256000   484.9711       1386.1086      1871.0797      198.49218      310.21394      0.19186862   
    257000   506.80903      1390.2056      1897.0146      166.68089      311.13086      0.19572667   
    258000   491.14295      1339.7163      1830.8593      134.73185      299.83126      0.20078185   
    259000   475.69907      1292.5496      1768.2487      165.97464      289.27525      0.20417022   
    260000   489.53183      1344.7179      1834.2497      146.48         300.95063      0.20575151   
    261000   488.51952      1326.4251      1814.9446      179.3838       296.85666      0.20461706   
    262000   482.83762      1324.0762      1806.9138      137.79158      296.33097      0.20229435   
    263000   495.40442      1301.5676      1796.9721      81.621634      291.29351      0.2038609    
    264000   448.89995      1307.6282      1756.5281      52.030639      292.64987      0.20799517   
    265000   472.09058      1326.5048      1798.5954      171.73055      296.8745       0.21793394   
    266000   493.25628      1336.1654      1829.4217      201.44499      299.03656      0.222999     
    267000   462.17523      1337.4258      1799.601       186.64915      299.31864      0.22108739   
    268000   488.28234      1332.844       1821.1263      247.82747      298.29322      0.21568792   
    269000   457.25311      1381.7851      1839.0382      315.10266      309.24634      0.20930395   
    270000   478.41232      1400.7379      1879.1502      356.20898      313.48802      0.20574341   
    271000   494.81455      1401.2934      1896.1079      348.86688      313.61234      0.20369324   
    272000   495.00005      1371.6329      1866.6329      228.57914      306.97426      0.20119912   
    273000   455.5662       1364.6305      1820.1967      141.41446      305.40711      0.20246471   
    274000   518.89519      1367.0451      1885.9403      102.30523      305.9475       0.21076748   
    275000   473.24749      1356.5424      1829.7898      66.273859      303.59696      0.21421131   
    276000   461.44883      1361.0668      1822.5156      82.938724      304.60954      0.21171451   
    277000   487.26606      1309.6573      1796.9233      149.66555      293.10398      0.20761795   
    278000   441.0866       1312.361       1753.4476      213.70591      293.70908      0.20374155   
    279000   471.65523      1277.4423      1749.0975      319.76586      285.89421      0.19971177   
    280000   480.12491      1336.0101      1816.135       288.13772      299.00179      0.19689785   
    281000   482.63465      1347.986       1830.6207      255.5067       301.68204      0.19840514   
    282000   502.07987      1353.6229      1855.7028      167.60503      302.94359      0.20500621   
    283000   504.60002      1370.7029      1875.3029      127.83506      306.76612      0.21735772   
    284000   489.74264      1363.7452      1853.4879      104.14335      305.20898      0.21975747   
    285000   461.80898      1361.8917      1823.7007      147.97248      304.79416      0.21442287   
    286000   476.36141      1343.036       1819.3974      139.05259      300.57421      0.20855217   
    287000   497.50405      1312.6262      1810.1303      206.95441      293.76844      0.20639545   
    288000   485.20623      1371.6477      1856.854       189.14172      306.97757      0.20249642   
    289000   483.86136      1351.1975      1835.0588      182.77155      302.40077      0.19824537   
    290000   472.86869      1320.2392      1793.1079      229.52924      295.47224      0.19636199   
    291000   497.33688      1292.7624      1790.0992      295.2125       289.32287      0.19889014   
    292000   467.98311      1292.4833      1760.4664      356.34828      289.26042      0.20611355   
    293000   475.82263      1346.9826      1822.8052      333.53379      301.45746      0.21102853   
    294000   459.62655      1355.9047      1815.5313      216.60059      303.45426      0.21057866   
    295000   486.02088      1318.2628      1804.2837      43.399677      295.02993      0.20762832   
    296000   483.75634      1335.9065      1819.6629      2.3851351      298.97863      0.20309114   
    297000   510.93838      1365.1086      1876.047       52.016274      305.5141       0.1992929    
    298000   473.91036      1376.89        1850.8004      144.52762      308.15081      0.19907894   
    299000   497.36071      1388.6841      1886.0448      234.28084      310.79036      0.20548532   
    300000   472.13826      1339.4829      1811.6212      217.99671      299.77903      0.21630822   
    301000   449.17119      1345.0063      1794.1775      224.86482      301.01518      0.22072142   
    302000   465.03625      1338.0082      1803.0444      140.57971      299.44897      0.21759937   
    303000   471.28162      1308.2437      1779.5254      144.58805      292.78763      0.21041342   
    304000   473.02417      1339.8766      1812.9008      139.25597      299.86713      0.20139408   
    305000   503.54132      1327.7936      1831.3349      152.53535      297.16293      0.19672188   
    306000   506.45224      1306.8456      1813.2979      213.41839      292.47474      0.19474474   
    307000   475.54819      1327.3952      1802.9434      196.44722      297.07378      0.1939591    
    308000   485.88944      1290.4988      1776.3882      212.15777      288.81628      0.19816554   
    309000   491.90839      1321.8939      1813.8023      203.1031       295.84256      0.20438788   
    310000   489.9679       1342.3857      1832.3536      127.19845      300.42868      0.20607928   
    311000   486.17083      1359.5856      1845.7565      143.60157      304.27806      0.20284368   
    312000   490.00588      1390.2757      1880.2816      169.11254      311.14655      0.19324301   
    313000   530.92063      1337.516       1868.4366      103.0016       299.33882      0.18658365   
    314000   522.54345      1359.8153      1882.3587      113.38899      304.32945      0.18793376   
    315000   501.19784      1334.67        1835.8678      101.32474      298.70188      0.19267974   
    316000   471.00139      1345.8334      1816.8348      139.88164      301.20028      0.20004304   
    317000   490.49237      1324.5475      1815.0399      144.11111      296.43646      0.20309603   
    318000   485.96678      1319.2023      1805.1691      154.81971      295.24019      0.20446283   
    319000   484.87645      1331.2779      1816.1544      165.00933      297.94273      0.20452493   
    320000   498.47896      1331.506       1829.9849      124.32091      297.99377      0.2025448    
    321000   542.01919      1354.949       1896.9682      94.668499      303.24037      0.19881408   
    322000   487.61241      1357.3155      1844.9279      103.91924      303.77         0.19360065   
    323000   512.18851      1377.8175      1890.006       185.28005      308.35839      0.18830322   
    324000   513.30247      1339.7075      1853.0099      187.68468      299.82928      0.18254847   
    325000   554.30635      1356.4041      1910.7105      186.18421      303.56603      0.176635     
    326000   523.53809      1377.811       1901.349       185.82551      308.35692      0.17418262   
    327000   541.85228      1392.6744      1934.5266      228.63849      311.68338      0.181644     
    328000   504.24304      1335.6737      1839.9167      211.38917      298.92651      0.18925555   
    329000   483.54039      1337.929       1821.4694      188.71243      299.43125      0.1933213    
    330000   477.85274      1300.7071      1778.5598      147.72167      291.10091      0.19769568   
    331000   482.16044      1322.0384      1804.1989      177.18868      295.87491      0.20183728   
    332000   466.31527      1334.9514      1801.2666      228.93285      298.76485      0.20409073   
    333000   495.00158      1295.8089      1790.8104      230.4457       290.00468      0.20302804   
    334000   474.83235      1338.2627      1813.095       243.78163      299.50593      0.20127826   
    335000   485.39292      1336.3795      1821.7725      171.78337      299.08448      0.2031938    
    336000   473.14282      1335.9398      1809.0826      207.19078      298.98606      0.21074398   
    337000   464.74433      1274.7485      1739.4928      150.68247      285.29133      0.21585507   
    338000   447.37412      1299.298       1746.6721      153.78569      290.78556      0.21460657   
    339000   494.84908      1296.514       1791.363       162.01622      290.16249      0.20690981   
    340000   501.16956      1315.7941      1816.9636      191.62204      294.47742      0.19902875   
    341000   522.11318      1357.6802      1879.7933      162.63589      303.85161      0.19525207   
    342000   533.3029       1371.846       1905.1489      175.63002      307.02195      0.19415468   
    343000   478.20891      1377.1672      1855.3761      168.98666      308.21284      0.19428251   
    344000   504.70797      1370.7704      1875.4783      149.03008      306.78122      0.19776493   
    345000   501.49452      1364.948       1866.4425      237.08581      305.47816      0.20522914   
    346000   480.1937       1374.3267      1854.5204      258.7532       307.57714      0.21137438   
    347000   467.42605      1355.2272      1822.6532      361.77292      303.30263      0.21638099   
    348000   488.00722      1352.7661      1840.7733      236.46348      302.75182      0.21666107   
    349000   497.50625      1357.9343      1855.4405      201.10109      303.90848      0.21520026   
    350000   496.6594       1396.868       1893.5274      138.27518      312.62193      0.20747344   
    351000   484.82949      1392.9277      1877.7572      144.84929      311.74008      0.20038745   
    352000   505.6901       1358.4237      1864.1138      193.59606      304.01802      0.19945513   
    353000   497.40001      1342.6416      1840.0416      193.05158      300.48595      0.20088059   
    354000   519.53346      1358.5141      1878.0475      191.85868      304.03823      0.2023194    
    355000   493.09428      1332.6889      1825.7831      222.2914       298.2585       0.20338544   
    356000   492.07984      1353.2578      1845.3377      168.68832      302.86188      0.2059958    
    357000   474.33632      1336.7034      1811.0398      135.21876      299.15697      0.20723501   
    358000   477.28125      1345.5034      1822.7847      90.351321      301.12643      0.20621783   
    359000   472.61886      1334.186       1806.8048      166.80197      298.59356      0.20383661   
    360000   502.09998      1284.6393      1786.7393      189.76939      287.50491      0.19748121   
    361000   487.78494      1287.9348      1775.7198      211.97998      288.24246      0.19265154   
    362000   488.76642      1310.2147      1798.9811      171.22734      293.22874      0.1882575    
    363000   488.23494      1341.9378      1830.1727      145.39186      300.32843      0.18649568   
    364000   496.6407       1357.6478      1854.2885      126.26873      303.84436      0.19069482   
    365000   496.88657      1342.5089      1839.3955      146.88953      300.45626      0.19961311   
    366000   474.56319      1374.8452      1849.4084      102.22448      307.69319      0.20447752   
    367000   468.6842       1353.8515      1822.5357      52.532023      302.99474      0.2044793    
    368000   511.19955      1304.8342      1816.0337      1.0419213      292.02456      0.20339494   
    369000   484.26192      1342.7855      1827.0475      43.380836      300.51816      0.20020185   
    370000   487.60458      1333.0406      1820.6452      216.82954      298.33723      0.19570124   
    371000   503.00109      1294.4853      1797.4864      350.72388      289.70847      0.19274828   
    372000   506.42504      1308.2793      1814.7044      412.12656      292.7956       0.19091997   
    373000   513.59369      1322.5521      1836.1458      388.08549      295.98987      0.19517096   
    374000   466.27492      1357.3054      1823.5804      345.16593      303.76774      0.20547518   
    375000   483.41803      1338.2241      1821.6421      159.26753      299.49729      0.21075752   
    376000   487.5936       1344.3354      1831.929       80.493292      300.86502      0.20983392   
    377000   480.2587       1373.4334      1853.6921      52.839057      307.37721      0.20436778   
    378000   483.65336      1339.1775      1822.8308      46.106527      299.71066      0.19937816   
    379000   498.27605      1297.2731      1795.5492      107.91089      290.33239      0.19659725   
    380000   494.07276      1337.015       1831.0878      169.08527      299.2267       0.1966282    
    381000   474.76033      1298.5748      1773.3351      232.39178      290.6237       0.20019056   
    382000   497.85644      1318.0338      1815.8902      204.25613      294.97867      0.20383419   
    383000   442.10679      1325.6003      1767.7071      192.95763      296.67207      0.2089225    
    384000   470.95115      1343.9371      1814.8882      126.08839      300.77588      0.2115585    
    385000   457.81824      1327.3617      1785.18        132.88236      297.06628      0.21277979   
    386000   477.28771      1296.5727      1773.8604      142.90169      290.17562      0.21283434   
    387000   473.17678      1243.5177      1716.6945      234.54929      278.30181      0.20772537   
    388000   483.20198      1325.7065      1808.9085      252.37788      296.69583      0.20011664   
    389000   478.83021      1330.9857      1809.8159      240.43665      297.87732      0.19546414   
    390000   487.14253      1346.0179      1833.1604      190.71378      301.24156      0.1941146    
    391000   452.23055      1343.9239      1796.1544      210.98872      300.77293      0.1968669    
    392000   477.73418      1322.1235      1799.8577      159.29017      295.89395      0.2009562    
    393000   473.41325      1334.0158      1807.4291      126.10674      298.55548      0.2048406    
    394000   453.4891       1287.6677      1741.1568      148.46002      288.18267      0.20991045   
    395000   486.13549      1317.5427      1803.6782      118.56727      294.86875      0.2103668    
    396000   484.64749      1289.2034      1773.8509      186.79674      288.52638      0.2010526    
    397000   510.75862      1340.5149      1851.2735      297.14505      300.00999      0.19330888   
    398000   532.34614      1313.8978      1846.244       231.07144      294.05303      0.19100168   
    399000   496.44236      1346.5019      1842.9443      225.01167      301.34989      0.19332259   
    400000   500.90127      1351.0992      1852.0005      230.91337      302.37877      0.19866363   
Loop time of 1759.9 on 8 procs for 400000 steps with 1500 atoms

Performance: 9.819 ns/day, 2.444 hours/ns, 227.285 timesteps/s, 340.928 katom-step/s
99.4% CPU use with 8 MPI tasks x 1 OpenMP threads

MPI task timing breakdown:
Section |  min time  |  avg time  |  max time  |%varavg| %total
---------------------------------------------------------------
Pair    | 81.627     | 85.59      | 89.331     |  27.9 |  4.86
Bond    | 3.8032     | 4.0279     | 4.2775     |  10.2 |  0.23
Kspace  | 721.25     | 728.19     | 733.22     |  14.0 | 41.38
Neigh   | 1.4839     | 1.5125     | 1.5291     |   1.5 |  0.09
Comm    | 27.955     | 30.868     | 36.037     |  55.3 |  1.75
Output  | 0.022261   | 0.02411    | 0.035084   |   2.7 |  0.00
Modify  | 866.99     | 884.4      | 893.25     |  30.5 | 50.25
Other   |            | 25.29      |            |       |  1.44

Nlocal:          187.5 ave         211 max         168 min
Histogram: 2 0 1 1 0 2 0 0 1 1
Nghost:        1873.88 ave        1907 max        1847 min
Histogram: 1 1 2 1 0 0 1 0 0 2
Neighs:        17229.4 ave       20810 max       14548 min
Histogram: 2 1 0 1 1 0 1 1 0 1

Total # of neighbors = 137835
Ave neighs/atom = 91.89
Ave special neighs/atom = 2
Neighbor list builds = 2482
Dangerous builds = 0
PPPM initialization ...
  using 12-bit tables for long-range coulomb (src/kspace.cpp:342)
  G vector (1/distance) = 0.27211307
  grid = 48 48 48
  stencil order = 5
  estimated absolute RMS force accuracy = 0.00033435445
  estimated relative force accuracy = 1.0068985e-06
  using single precision FFTW3
  3d grid and FFT values/proc = 29791 13824
Generated 1 of 1 mixed pair_coeff terms from arithmetic mixing rule
Last active /omp style is kspace_style pppm/omp
Setting up Verlet run ...
  Unit style    : real
  Current step  : 0
  Time step     : 0.5
Per MPI rank memory allocation (min/avg/max) = 8.496 | 8.531 | 8.763 Mbytes
   Step         PotEng         KinEng         TotEng         Press           Temp        v_Density   
         0   500.90139      1351.0992      1852.0006      230.91341      302.37877      0.19866363   
      1000   485.68739      1377.244       1862.9314      142.86939      308.23004      0.1968879    
      2000   497.10017      1366.4595      1863.5596      80.585474      305.81643      0.19729628   
      3000   486.85016      1365.6353      1852.4855      107.91141      305.63199      0.20320717   
      4000   444.55003      1327.9735      1772.5236      142.33538      297.2032       0.21242845   
      5000   447.42004      1281.9684      1729.3885      189.57086      286.90717      0.21841728   
      6000   452.55389      1309.7205      1762.2744      266.1782       293.11813      0.21622295   
      7000   465.58194      1308.0461      1773.6281      279.93857      292.74341      0.21180257   
      8000   483.90816      1316.218       1800.1261      268.61926      294.57229      0.20645847   
      9000   475.83952      1333.8589      1809.6984      214.61924      298.52035      0.2026209    
     10000   490.00082      1319.444       1809.4448      166.62557      295.29428      0.20297614   
     11000   474.50089      1322.2418      1796.7427      124.17831      295.92043      0.20543657   
     12000   493.83961      1314.164       1808.0036      134.77291      294.1126       0.20936232   
     13000   468.10005      1345.5063      1813.6064      167.97529      301.12708      0.20878536   
     14000   488.13893      1327.2853      1815.4242      187.1442       297.04917      0.20235213   
     15000   487.22611      1307.0735      1794.2996      210.47581      292.52573      0.19272247   
     16000   458.82348      1344.4483      1803.2717      214.8661       300.89028      0.18886673   
     17000   483.25608      1340.9031      1824.1592      150.83193      300.09686      0.1898866    
     18000   487.65304      1338.7067      1826.3597      104.42198      299.60531      0.19262418   
     19000   482.03893      1299.9347      1781.9736      70.905991      290.92805      0.19604807   
     20000   482.42566      1294.3085      1776.7341      33.376874      289.66889      0.20037083   
     21000   481.48478      1284.3203      1765.8051      34.409983      287.43353      0.20309049   
     22000   471.85524      1320.5117      1792.367       107.43596      295.53324      0.20306782   
     23000   517.45238      1301.3163      1818.7687      153.50509      291.23726      0.19982152   
     24000   494.16075      1287.2685      1781.4292      159.08424      288.09333      0.19566634   
     25000   520.10226      1294.5606      1814.6628      173.3605       289.72532      0.19650488   
     26000   495.56587      1335.6111      1831.177       207.76183      298.91251      0.20463429   
     27000   489.5175       1371.0211      1860.5386      172.29146      306.83733      0.20957056   
     28000   482.96332      1409.3546      1892.318       190.60621      315.41646      0.21064621   
     29000   494.76325      1369.7011      1864.4644      131.27385      306.54193      0.20737656   
     30000   499.91303      1356.2806      1856.1936      131.30701      303.53838      0.20390684   
     31000   491.12085      1351.4272      1842.5481      129.4911       302.45219      0.20281948   
     32000   476.5603       1383.4066      1859.9669      164.20607      309.60924      0.20455558   
     33000   470.54066      1375.581       1846.1217      213.76074      307.85786      0.20608267   
     34000   485.78831      1355.5023      1841.2906      314.56862      303.3642       0.20622811   
     35000   509.01168      1421.8678      1930.8794      315.79616      318.21692      0.19953394   
     36000   508.76529      1380.6944      1889.4597      286.46316      309.00225      0.19155885   
     37000   502.81958      1332.4017      1835.2213      293.02356      298.19424      0.19247505   
     38000   508.61528      1312.8502      1821.4655      216.73375      293.81857      0.19804565   
     39000   475.85046      1351.3849      1827.2354      184.80603      302.44273      0.20563633   
     40000   515.61082      1329.6847      1845.2955      170.23307      297.58615      0.20776211   
     41000   472.51717      1350.5188      1823.0359      151.50238      302.24887      0.2050599    
     42000   488.11861      1351.536       1839.6546      184.69007      302.47652      0.20529928   
     43000   490.72861      1356.4365      1847.1651      179.12589      303.57328      0.20339155   
     44000   519.71421      1332.7337      1852.4479      146.18461      298.26853      0.20257032   
     45000   464.72845      1339.3369      1804.0653      156.66884      299.74634      0.2051286    
     46000   490.7737       1331.7982      1822.5719      171.86814      298.05918      0.21155265   
     47000   448.95585      1336.182       1785.1378      119.4527       299.04027      0.21569329   
     48000   487.71413      1351.1715      1838.8856      168.74531      302.39495      0.21713846   
     49000   502.48971      1326.456       1828.9457      195.45933      296.86358      0.2078465    
     50000   498.00871      1325.54        1823.5487      159.59801      296.65857      0.19835902   
     51000   479.38038      1335.9383      1815.3186      148.83624      298.98572      0.19769294   
     52000   478.73374      1339.8848      1818.6186      169.72275      299.86898      0.19857017   
     53000   481.13609      1281.5398      1762.6759      157.12795      286.81125      0.20014785   
     54000   507.80546      1273.6525      1781.458       159.63282      285.04605      0.20211339   
     55000   483.87196      1324.0676      1807.9395      179.15554      296.32904      0.20314456   
     56000   471.44372      1326.8014      1798.2451      206.82073      296.94087      0.20664207   
     57000   471.98844      1315.3984      1787.3868      244.63833      294.38886      0.21284857   
     58000   448.54974      1284.049       1732.5987      229.23966      287.3728       0.21317194   
     59000   506.24247      1301.135       1807.3775      180.27075      291.19669      0.20738368   
     60000   490.95499      1313.1779      1804.1329      126.96028      293.89192      0.20024875   
     61000   503.9834       1314.7474      1818.7308      66.174885      294.24317      0.19853827   
     62000   491.98214      1333.7317      1825.7138      61.720669      298.49189      0.20101702   
     63000   463.62887      1335.9201      1799.549       84.049774      298.98166      0.20776397   
     64000   439.71204      1361.0047      1800.7168      132.91203      304.59566      0.20991149   
     65000   466.05292      1319.0686      1785.1216      187.30065      295.21027      0.20712689   
     66000   471.59567      1304.7712      1776.3668      267.31639      292.01047      0.20137324   
     67000   481.25984      1296.3909      1777.6507      285.86264      290.13494      0.19627924   
     68000   466.92257      1339.9859      1806.9084      336.49267      299.89158      0.19639494   
     69000   497.89656      1332.109       1830.0055      211.95624      298.12872      0.1987846    
     70000   502.48258      1361.1454      1863.6279      149.29717      304.62713      0.20394947   
     71000   512.31019      1348.9353      1861.2455      42.436036      301.89449      0.20890476   
     72000   481.97844      1353.3534      1835.3319      58.433743      302.88328      0.21026199   
     73000   502.79641      1341.8211      1844.6175      129.63355      300.30231      0.20834045   
     74000   487.75864      1361.0951      1848.8537      221.28127      304.61587      0.2043567    
     75000   519.00726      1343.6848      1862.6921      300.49453      300.71942      0.20018796   
     76000   499.17097      1330.703       1829.874       336.45288      297.81407      0.19706696   
     77000   502.25409      1341.4702      1843.7243      233.54067      300.22379      0.19414182   
     78000   512.44618      1301.196       1813.6422      149.48163      291.21034      0.19265256   
     79000   460.92439      1343.1817      1804.1061      120.78523      300.60682      0.19359844   
     80000   512.92845      1311.0824      1824.0109      30.469632      293.42294      0.19625546   
     81000   501.83751      1299.1109      1800.9484      37.0734        290.74369      0.19918633   
     82000   479.45293      1287.2602      1766.7132      45.258587      288.09148      0.20047027   
     83000   474.52124      1343.3205      1817.8418      127.32888      300.63789      0.20496355   
     84000   477.57293      1356.8138      1834.3867      231.88617      303.65771      0.20846437   
     85000   483.07638      1336.3979      1819.4742      269.30264      299.08859      0.21292128   
     86000   497.81172      1370.5876      1868.3993      261.86787      306.74032      0.21579814   
     87000   469.81265      1414.0476      1883.8603      306.39822      316.46676      0.21628237   
     88000   479.3288       1363.4798      1842.8086      229.71876      305.14958      0.20826748   
     89000   483.2473       1355.6326      1838.8799      258.74788      303.39336      0.1992347    
     90000   484.04017      1324.7321      1808.7722      206.58447      296.47775      0.19572638   
     91000   478.01127      1377.2023      1855.2136      168.34264      308.2207       0.1983633    
     92000   476.01464      1379.7278      1855.7424      154.66737      308.78591      0.20538753   
     93000   498.50122      1371.442       1869.9432      140.67055      306.93154      0.21142386   
     94000   470.73295      1369.0171      1839.7501      235.56804      306.38884      0.2155711    
     95000   461.3865       1357.7673      1819.1538      284.43371      303.87112      0.21520923   
     96000   500.27505      1354.0228      1854.2978      256.29249      303.03307      0.20984974   
     97000   482.26872      1344.6978      1826.9665      236.5624       300.94613      0.20338274   
     98000   494.95501      1357.0688      1852.0238      230.74951      303.71478      0.20246458   
     99000   487.84713      1366.7192      1854.5663      242.73924      305.87456      0.20513487   
    100000   494.96645      1349.0613      1844.0278      190.24442      301.9227       0.21005788   
    101000   470.71962      1360.9758      1831.6955      231.95087      304.58919      0.21224868   
    102000   504.08652      1354.4461      1858.5326      223.00784      303.12782      0.20755816   
    103000   489.09723      1359.8533      1848.9505      251.11953      304.33795      0.20338116   
    104000   493.58196      1385.3518      1878.9337      237.3198       310.04457      0.19845531   
    105000   510.98833      1346.8471      1857.8354      240.08636      301.42714      0.19618984   
    106000   497.79005      1332.4103      1830.2003      216.04719      298.19615      0.19805      
    107000   479.37281      1341.9471      1821.3199      188.96728      300.33051      0.20092385   
    108000   497.83621      1319.0108      1816.847       187.01824      295.19732      0.20049472   
    109000   466.75804      1322.9946      1789.7526      127.3785       296.0889       0.1973047    
    110000   490.72597      1336.2001      1826.9261      153.41016      299.04433      0.19732746   
    111000   484.00288      1307.1796      1791.1825      141.18781      292.54947      0.19818892   
    112000   483.93029      1328.7633      1812.6936      136.70471      297.37995      0.19898695   
    113000   479.00225      1327.0076      1806.0099      129.32686      296.98703      0.20057613   
    114000   436.42346      1340.4316      1776.855       103.68957      299.99134      0.20926417   
    115000   482.20453      1342.9625      1825.167       105.01942      300.55777      0.2186135    
    116000   446.63469      1349.9735      1796.6082      164.07943      302.12685      0.22071333   
    117000   472.87015      1314.4431      1787.3132      159.50028      294.17505      0.21552681   
    118000   494.8946       1304.3568      1799.2514      203.98288      291.91773      0.20903618   
    119000   454.78898      1310.9289      1765.7179      186.49205      293.38859      0.20297453   
    120000   466.23165      1318.8292      1785.0609      185.04887      295.15668      0.20085393   
    121000   485.38612      1339.725       1825.1111      185.60988      299.8332       0.20236834   
    122000   481.58563      1277.1044      1758.69        161.21931      285.81858      0.20250177   
    123000   487.67593      1318.715       1806.391       118.4985       295.13113      0.20314718   
    124000   492.84508      1317.1979      1810.0429      132.92226      294.79158      0.20659659   
    125000   500.62964      1316.3911      1817.0208      151.97858      294.61104      0.21319756   
    126000   444.3954       1284.3159      1728.7113      223.46889      287.43254      0.21604954   
    127000   458.63691      1302.1051      1760.742       321.56081      291.41379      0.21406161   
    128000   475.2834       1367.6163      1842.8997      293.64402      306.07533      0.20739087   
    129000   492.20813      1365.6293      1857.8374      289.55178      305.63063      0.1995496    
    130000   503.95214      1367.9526      1871.9047      257.27432      306.1506       0.19664268   
    131000   475.19722      1356.9382      1832.1354      195.60974      303.68556      0.19705346   
    132000   490.51275      1356.8963      1847.4091      117.20376      303.67619      0.20040556   
    133000   478.63703      1356.3436      1834.9806      130.1768       303.55248      0.20665618   
    134000   485.33174      1360.9809      1846.3127      77.592065      304.59033      0.20946815   
    135000   484.04474      1368.1885      1852.2333      104.79697      306.20341      0.21019146   
    136000   495.57019      1381.4739      1877.0441      88.176047      309.1767       0.20752559   
    137000   479.32368      1339.4098      1818.7335      82.252789      299.76266      0.20515439   
    138000   494.08643      1351.4388      1845.5252      87.08647       302.45478      0.20321537   
    139000   502.00572      1337.2887      1839.2945      116.98532      299.28796      0.2053978    
    140000   491.04246      1395.5132      1886.5556      312.63398      312.31871      0.21306136   
    141000   480.97564      1388.0477      1869.0234      295.13974      310.64793      0.21668464   
    142000   483.69119      1340.3549      1824.0461      329.72666      299.97417      0.22087244   
    143000   482.03244      1340.1952      1822.2276      328.19461      299.93843      0.22414775   
    144000   472.11602      1376.1716      1848.2876      270.75808      307.99002      0.22211033   
    145000   473.01488      1393.4134      1866.4283      259.06674      311.84878      0.21480624   
    146000   518.17158      1328.3339      1846.5055      161.69822      297.28386      0.2099518    
    147000   488.90317      1343.7815      1832.6847      227.60881      300.74106      0.20979229   
    148000   488.02188      1382.5252      1870.5471      196.74626      309.41198      0.20966016   
    149000   522.3521       1397.9109      1920.263       166.44016      312.85532      0.21144684   
    150000   501.01202      1298.737       1799.749       182.8527       290.66         0.21238499   
    151000   471.39616      1309.2815      1780.6777      127.75145      293.0199       0.21060459   
    152000   473.34532      1288.6511      1761.9964      76.854038      288.40276      0.21276836   
    153000   455.26188      1285.8191      1741.0809      98.603677      287.76895      0.21800475   
    154000   456.0262       1305.6971      1761.7233      128.28522      292.21769      0.21888642   
    155000   471.65064      1327.6883      1799.3389      186.41467      297.13936      0.21072586   
    156000   478.87512      1326.0199      1804.8951      263.71257      296.76598      0.20160131   
    157000   480.24565      1342.1963      1822.442       282.0032       300.38629      0.19839007   
    158000   510.26278      1345.6983      1855.9611      223.31119      301.17005      0.19470991   
    159000   485.67042      1393.4279      1879.0983      244.60122      311.85202      0.19370734   
    160000   502.6499       1355.1545      1857.8044      222.71937      303.28636      0.19721712   
    161000   501.81084      1382.3852      1884.196       188.51268      309.38064      0.20199783   
    162000   531.02926      1402.9066      1933.9359      145.793        313.97338      0.2038627    
    163000   465.55709      1374.014       1839.5711      158.00986      307.50715      0.20379321   
    164000   495.27881      1358.2761      1853.555       111.30495      303.98499      0.19539427   
    165000   512.48364      1347.0501      1859.5337      111.09331      301.47258      0.18853488   
    166000   532.01353      1342.1558      1874.1693      153.28443      300.37722      0.18853816   
    167000   501.31551      1344.666       1845.9815      182.14916      300.93901      0.19348685   
    168000   490.98303      1340.3961      1831.3792      193.34163      299.98341      0.2028907    
    169000   470.55952      1369.6583      1840.2178      247.99362      306.53233      0.20829733   
    170000   470.35944      1353.6167      1823.9762      205.11571      302.94221      0.20927004   
    171000   496.97529      1366.6032      1863.5785      161.41147      305.84859      0.20769776   
    172000   481.52169      1340.2143      1821.736       177.24708      299.94271      0.20541094   
    173000   471.44715      1386.1746      1857.6217      261.84634      310.22872      0.20458905   
    174000   479.47352      1361.6109      1841.0845      273.70458      304.73132      0.20562783   
    175000   517.55466      1350.6615      1868.2161      317.52594      302.28081      0.20925405   
    176000   496.71875      1332.5987      1829.3174      362.03798      298.23832      0.21256821   
    177000   483.92277      1393.3993      1877.3221      286.35242      311.84562      0.20661115   
    178000   505.83213      1350.8262      1856.6584      126.86564      302.31768      0.20025902   
    179000   516.32494      1339.7714      1856.0964      69.235806      299.8436       0.19892478   
    180000   521.18453      1373.056       1894.2405      82.943769      307.29275      0.20230693   
    181000   495.55841      1352.5011      1848.0595      196.09668      302.69252      0.20782153   
    182000   472.55547      1363.516       1836.0714      289.6135       305.15767      0.2128755    
    183000   485.92447      1360.4042      1846.3286      351.47656      304.46125      0.21516      
    184000   488.31097      1384.8124      1873.1233      278.13203      309.92385      0.21150254   
    185000   479.57631      1365.0781      1844.6544      254.14822      305.50729      0.2011865    
    186000   497.4851       1350.2346      1847.7197      200.31638      302.18527      0.19261716   
    187000   499.25557      1355.8407      1855.0962      146.57826      303.43992      0.19130048   
    188000   502.18423      1359.1202      1861.3044      162.98398      304.17388      0.19356243   
    189000   520.73905      1338.0585      1858.7976      161.91194      299.46025      0.19726245   
    190000   484.10263      1336.3791      1820.4817      97.123539      299.08438      0.19923149   
    191000   477.88464      1326.9229      1804.8075      111.70124      296.96807      0.20211816   
    192000   475.74919      1319.4765      1795.2257      141.36408      295.30156      0.20292729   
    193000   477.65266      1307.2593      1784.912       179.95736      292.56732      0.20358112   
    194000   488.33127      1283.2947      1771.6259      211.23016      287.20398      0.20548429   
    195000   486.43193      1308.1567      1794.5886      306.89745      292.76815      0.20795056   
    196000   473.92081      1336.9117      1810.8326      269.65078      299.20359      0.20479745   
    197000   500.09566      1381.7191      1881.8147      258.57128      309.23156      0.20052492   
    198000   483.92046      1345.7264      1829.6468      209.50304      301.17632      0.19516591   
    199000   489.25515      1340.091       1829.3462      208.46195      299.91512      0.19263359   
    200000   483.40675      1343.355       1826.7618      215.86733      300.64561      0.19621408   
    201000   494.04331      1349.2279      1843.2712      269.04156      301.95998      0.20554381   
    202000   493.02159      1358.4561      1851.4777      236.02478      304.02527      0.21331182   
    203000   472.94616      1336.4539      1809.4001      73.712727      299.10113      0.21513179   
    204000   462.53626      1351.3325      1813.8688      72.329846      302.43099      0.21468699   
    205000   489.43137      1370.9592      1860.3906      20.776754      306.82348      0.20853909   
    206000   493.28616      1339.7093      1832.9955      68.155626      299.82969      0.20316845   
    207000   487.10963      1313.5636      1800.6732      118.39929      293.97823      0.20025092   
    208000   482.26782      1290.4463      1772.7141      202.15258      288.80452      0.20114394   
    209000   509.71367      1310.3427      1820.0563      213.34453      293.25738      0.20387534   
    210000   516.41243      1309.8265      1826.2389      233.28823      293.14186      0.20823402   
    211000   480.88252      1358.8207      1839.7032      190.97642      304.10686      0.21161221   
    212000   498.67702      1374.4146      1873.0916      120.35819      307.5968       0.2134591    
    213000   495.96139      1386.6453      1882.6067      67.07656       310.33406      0.21265776   
    214000   505.7549       1348.4031      1854.158       11.832518      301.77539      0.20697118   
    215000   473.83647      1364.5203      1838.3568      85.535427      305.38244      0.20457487   
    216000   480.68545      1362.933       1843.6184      144.18295      305.0272       0.20105077   
    217000   513.18494      1331.0564      1844.2414      209.69691      297.89316      0.20149468   
    218000   486.01776      1358.6928      1844.7105      249.87221      304.07823      0.20303511   
    219000   471.26364      1354.4266      1825.6903      356.26647      303.12346      0.20902231   
    220000   478.52702      1368.3654      1846.8924      359.69391      306.24298      0.2146419    
    221000   512.70986      1353.8274      1866.5373      297.89594      302.98936      0.21623988   
    222000   490.19227      1335.4128      1825.6051      154.38016      298.86813      0.20879785   
    223000   491.24614      1326.4243      1817.6704     -16.700509      296.85647      0.19883833   
    224000   487.59698      1306.2326      1793.8296     -87.362005      292.33754      0.19517297   
    225000   515.89544      1319.1507      1835.0461     -41.104587      295.22863      0.1946478    
    226000   477.94984      1319.3974      1797.3473      92.130592      295.28386      0.19739375   
    227000   495.54054      1334.566       1830.1065      271.71094      298.6786       0.20356803   
    228000   443.21187      1358.5119      1801.7237      331.24927      304.03774      0.20912375   
    229000   462.87766      1330.4514      1793.3291      246.53468      297.75776      0.21181187   
    230000   500.11168      1328.1533      1828.265       195.47917      297.24344      0.21312139   
    231000   509.50303      1330.6333      1840.1364      51.377744      297.79847      0.20672865   
    232000   487.13846      1323.0443      1810.1828      49.044825      296.10004      0.20431243   
    233000   485.56879      1358.7781      1844.3469      154.8793       304.09732      0.20653317   
    234000   493.77916      1333.8537      1827.6329      268.27751      298.5192       0.20718038   
    235000   495.01262      1354.9475      1849.9601      308.67167      303.24002      0.20745556   
    236000   483.97555      1357.6843      1841.6598      300.96568      303.85252      0.20742743   
    237000   495.02243      1372.7129      1867.7353      229.52713      307.21596      0.2099218    
    238000   499.3242       1407.0401      1906.3643      163.19673      314.89846      0.21263896   
    239000   473.94344      1372.6648      1846.6083      148.2977       307.20521      0.21866891   
    240000   456.79224      1377.3306      1834.1228      155.47926      308.24941      0.22409304   
    241000   490.16468      1341.3784      1831.5431      50.672181      300.20323      0.21969834   
    242000   494.28562      1364.5736      1858.8593      104.46138      305.39438      0.21147082   
    243000   505.20516      1382.8484      1888.0536      137.81441      309.48431      0.20433576   
    244000   512.36661      1388.8122      1901.1788      188.46104      310.81902      0.1995245    
    245000   513.94274      1315.8671      1829.8098      194.67889      294.49375      0.19826526   
    246000   485.66067      1329.6266      1815.2873      207.49047      297.57317      0.20002826   
    247000   478.1351       1332.3652      1810.5003      235.60251      298.18607      0.2037532    
    248000   488.16023      1345.1144      1833.2747      221.31126      301.03937      0.20598125   
    249000   450.46485      1341.1279      1791.5928      276.12193      300.14718      0.20971945   
    250000   474.10328      1291.8169      1765.9202      276.7323       289.11128      0.21395109   
    251000   464.71252      1276.199       1740.9115      280.05112      285.61594      0.22128582   
    252000   454.35642      1317.3037      1771.6602      257.08016      294.81528      0.22707399   
    253000   465.85975      1309.7459      1775.6057      173.54514      293.12382      0.2228183    
    254000   468.97084      1317.3354      1786.3062      182.09646      294.82237      0.21003932   
    255000   517.95221      1342.0064      1859.9586      200.58578      300.34378      0.20548881   
    256000   499.5856       1347.4698      1847.0554      161.58605      301.56651      0.20653993   
    257000   490.60136      1358.6624      1849.2638      239.01476      304.07144      0.21127179   
    258000   501.42736      1342.2055      1843.6329      206.85977      300.38835      0.21509145   
    259000   469.24437      1339.5407      1808.7851      235.82662      299.79197      0.21646718   
    260000   451.21353      1328.2039      1779.4174      203.60584      297.25475      0.21686996   
    261000   476.66804      1322.269       1798.937       189.03332      295.92651      0.21721104   
    262000   477.1631       1324.8663      1802.0294      149.2342       296.5078       0.21253399   
    263000   485.33002      1296.7781      1782.1081      105.99612      290.2216       0.20337612   
    264000   473.4838       1275.8607      1749.3445      117.30832      285.54025      0.19858348   
    265000   502.88617      1303.7799      1806.6661      182.65158      291.78862      0.20039503   
    266000   499.95389      1321.6482      1821.6021      207.42478      295.78758      0.20583043   
    267000   454.37188      1345.8705      1800.2424      220.87593      301.20859      0.21097066   
    268000   475.01547      1350.6222      1825.6377      181.13431      302.27202      0.21381346   
    269000   484.57647      1376.6204      1861.1969      156.77535      308.09048      0.21649735   
    270000   502.19129      1393.5407      1895.732       90.657597      311.87728      0.21531754   
    271000   506.94801      1396.3013      1903.2494      67.020839      312.49511      0.21239494   
    272000   484.08448      1364.2262      1848.3107      145.13906      305.31662      0.21107069   
    273000   501.7377       1347.4029      1849.1406      190.94011      301.55154      0.20888697   
    274000   489.63746      1338.9187      1828.5561      265.45492      299.65274      0.20902771   
    275000   483.75697      1349.8134      1833.5704      273.44683      302.09101      0.21180816   
    276000   468.625        1339.5226      1808.1476      201.80114      299.78791      0.21484013   
    277000   464.92927      1315.3534      1780.2827      159.73543      294.3788       0.22139974   
    278000   457.32752      1334.8764      1792.2039      139.79759      298.74807      0.22013937   
    279000   487.14329      1328.5276      1815.6708      187.47484      297.32719      0.20898496   
    280000   503.89468      1327.1156      1831.0103      218.34196      297.0112       0.19982927   
    281000   503.49282      1305.9164      1809.4092      244.63337      292.26676      0.19540759   
    282000   492.71997      1404.8893      1897.6093      361.38828      314.41712      0.19716667   
    283000   493.13113      1361.185       1854.3162      286.03703      304.63601      0.20074548   
    284000   484.18153      1357.7838      1841.9654      231.44402      303.87481      0.20723324   
    285000   490.55417      1364.791       1855.3452      153.9971       305.44303      0.21120377   
    286000   476.57909      1354.4099      1830.9889      105.79983      303.11971      0.20877676   
    287000   498.23739      1346.9813      1845.2186      64.985421      301.45717      0.2051099    
    288000   500.68824      1340.4628      1841.1511      178.9895       299.99833      0.20363253   
    289000   516.18201      1336.9214      1853.1034      192.01325      299.20575      0.20088792   
    290000   522.51483      1332.3507      1854.8655      246.98659      298.18282      0.19965521   
    291000   501.38928      1338.8851      1840.2744      209.56348      299.64523      0.19921719   
    292000   519.4063       1337.2116      1856.6178      188.4875       299.27069      0.2012113    
    293000   495.03993      1392.7229      1887.7629      216.19724      311.69425      0.2040232    
    294000   520.95553      1398.2227      1919.1783      186.42522      312.92512      0.20323412   
    295000   502.38079      1343.3446      1845.7254      153.88664      300.64329      0.19894042   
    296000   487.96087      1353.9529      1841.9138      173.24193      303.01744      0.19812901   
    297000   512.54969      1337.9781      1850.5278      265.58595      299.44224      0.20165571   
    298000   536.94124      1365.2215      1902.1627      331.60772      305.53937      0.2054276    
    299000   497.33597      1346.5822      1843.9182      402.84051      301.36787      0.20738984   
    300000   475.30743      1390.4188      1865.7262      388.00025      311.17857      0.20759908   
    301000   502.37735      1348.6102      1850.9875      291.52861      301.82173      0.198072     
    302000   508.28076      1359.3102      1867.591       205.34873      304.21641      0.19256152   
    303000   526.22638      1355.3289      1881.5553      121.28786      303.3254       0.1954859    
    304000   522.11502      1334.8489      1856.9639      33.05026       298.74191      0.20160738   
    305000   464.69578      1367.197       1831.8928      35.067745      305.9815       0.20626898   
    306000   458.66572      1388.4374      1847.1031      47.614307      310.73513      0.20923735   
    307000   469.88661      1321.4715      1791.3581      114.94072      295.74803      0.21055723   
    308000   481.60119      1340.4636      1822.0648      244.68455      299.9985       0.21016588   
    309000   494.70794      1348.0457      1842.7537      308.2465       301.6954       0.20557695   
    310000   495.93463      1334.4382      1830.3728      308.65417      298.65         0.19928449   
    311000   505.48536      1319.725       1825.2104      211.80423      295.35717      0.19481642   
    312000   513.20887      1317.8898      1831.0987      103.22113      294.94644      0.1935547    
    313000   491.26182      1325.0077      1816.2695      80.649962      296.53943      0.19659129   
    314000   465.16008      1316.2446      1781.4047      38.245839      294.57825      0.19983383   
    315000   487.81286      1330.4925      1818.3054      122.67214      297.76696      0.2053904    
    316000   494.43896      1329.4952      1823.9342      248.24076      297.54376      0.21046046   
    317000   495.92471      1357.4033      1853.328       296.67305      303.78965      0.21222168   
    318000   465.7499       1372.829       1838.5789      348.07572      307.24194      0.21051876   
    319000   474.31154      1362.6283      1836.9399      252.71417      304.95901      0.20196295   
    320000   499.04129      1309.2803      1808.3216      105.26573      293.01961      0.19027154   
    321000   520.85215      1325.2469      1846.099       64.804139      296.59297      0.18880418   
    322000   526.28975      1300.1686      1826.4583      86.034721      290.98039      0.19144029   
    323000   505.01607      1300.8507      1805.8667      138.60777      291.13305      0.19811123   
    324000   472.48375      1287.0531      1759.5368      160.49555      288.04512      0.20343704   
    325000   501.48044      1293.7165      1795.197       220.8542       289.53641      0.20516163   
    326000   507.29203      1302.7697      1810.0617      227.95572      291.56254      0.20248687   
    327000   495.98501      1318.8573      1814.8423      209.49079      295.16298      0.19632113   
    328000   525.08649      1359.022       1884.1085      191.45487      304.15191      0.19141295   
    329000   511.82579      1351.4888      1863.3146      199.72068      302.46597      0.19050234   
    330000   524.81951      1360.8763      1885.6958      160.46514      304.56691      0.19220439   
    331000   514.32002      1346.7841      1861.1041      170.69316      301.41305      0.19542311   
    332000   485.59249      1356.5722      1842.1646      214.0127       303.60363      0.19945165   
    333000   507.76486      1351.433       1859.1979      173.61325      302.45348      0.2030953    
    334000   478.43965      1322.2882      1800.7279      220.34656      295.93082      0.20643351   
    335000   498.3244       1300.5583      1798.8827      241.82782      291.06762      0.20764359   
    336000   516.46889      1317.6287      1834.0976      270.62291      294.88801      0.20438783   
    337000   499.4714       1302.6156      1802.087       287.8823       291.52805      0.19499268   
    338000   470.24872      1349.7352      1819.984       254.2354       302.07352      0.19117983   
    339000   483.18417      1321.7345      1804.9187      160.91891      295.80689      0.19361249   
    340000   486.49335      1281.503       1767.9963      81.474187      286.80299      0.19750985   
    341000   529.37536      1278.8676      1808.243       127.73665      286.2132       0.20223008   
    342000   481.89669      1339.0837      1820.9804      172.39022      299.68968      0.2060465    
    343000   482.00915      1309.0864      1791.0956      237.44194      292.97622      0.20775953   
    344000   482.71088      1330.7201      1813.4309      249.50634      297.81788      0.20685782   
    345000   466.56938      1337.7464      1804.3158      284.90508      299.39039      0.20756827   
    346000   460.41377      1333.8759      1794.2897      298.51792      298.52417      0.20641365   
    347000   478.05489      1316.9909      1795.0458      282.13738      294.74526      0.2035048    
    348000   482.1744       1339.5309      1821.7053      255.72848      299.78977      0.20363755   
    349000   494.75658      1327.5808      1822.3374      250.2857       297.11532      0.20673833   
    350000   492.98035      1335.2102      1828.1905      225.61117      298.82278      0.20738407   
    351000   499.66419      1317.0435      1816.7076      185.96925      294.75703      0.20575647   
    352000   490.62143      1308.5175      1799.1389      136.4173       292.8489       0.20502557   
    353000   481.80228      1330.9489      1812.7512      131.80647      297.8691       0.20582078   
    354000   503.214        1318.7372      1821.9512      85.882402      295.1361       0.20577646   
    355000   472.68468      1338.529       1811.2137      100.91466      299.56554      0.21009358   
    356000   444.02652      1300.7924      1744.8189      115.00343      291.12         0.22067427   
    357000   467.69862      1324.4834      1792.182       87.849619      296.4221       0.22478548   
    358000   477.5675       1339.0988      1816.6663      111.3737       299.69305      0.2207806    
    359000   491.06596      1323.9821      1815.048       198.9135       296.30991      0.21195863   
    360000   485.00739      1304.3441      1789.3515      210.20183      291.9149       0.20513795   
    361000   496.68753      1341.0956      1837.7831      256.02163      300.13995      0.20391372   
    362000   478.96865      1322.562       1801.5307      271.275        295.9921       0.20345119   
    363000   486.91345      1339.4131      1826.3266      232.22254      299.7634       0.20207942   
    364000   479.8228       1320.5672      1800.39        187.96739      295.54566      0.19808212   
    365000   518.06663      1329.0466      1847.1132      190.89236      297.44335      0.19781897   
    366000   480.55398      1337.6039      1818.1579      189.41666      299.3585       0.20575585   
    367000   485.55273      1328.1368      1813.6895      207.01246      297.23974      0.21632116   
    368000   467.76142      1325.9074      1793.6688      218.26052      296.74079      0.21642734   
    369000   481.33813      1352.1735      1833.5117      200.8448       302.61922      0.21527572   
    370000   491.24581      1356.2155      1847.4613      260.05678      303.52382      0.21187574   
    371000   511.64969      1387.2657      1898.9154      259.54835      310.47292      0.20567571   
    372000   477.94602      1374.5548      1852.5008      249.62272      307.62818      0.20128344   
    373000   495.03939      1394.1875      1889.2269      223.18431      312.02203      0.20081019   
    374000   502.62393      1352.6473      1855.2712      191.59414      302.72523      0.20374749   
    375000   481.56909      1349.6383      1831.2073      279.72937      302.05181      0.20986018   
    376000   486.98519      1356.9491      1843.9343      232.0833       303.68799      0.21489782   
    377000   493.63083      1362.4707      1856.1015      275.56942      304.92374      0.21729716   
    378000   487.6464       1377.5934      1865.2398      167.4023       308.30823      0.2127319    
    379000   484.34533      1315.5029      1799.8482      151.61202      294.41225      0.20579745   
    380000   500.19572      1315.0492      1815.2449      101.43429      294.31071      0.20120402   
    381000   520.05976      1299.7076      1819.7673      17.682575      290.87723      0.19837142   
    382000   502.97864      1315.8587      1818.8374      27.896685      294.49189      0.20157099   
    383000   470.80037      1379.0668      1849.8671      84.093046      308.63797      0.21290475   
    384000   487.53027      1365.0598      1852.5901      155.25622      305.50319      0.22076603   
    385000   488.33048      1360.5263      1848.8567      247.43655      304.48857      0.22183017   
    386000   475.39086      1391.5338      1866.9247      308.9563       311.42812      0.21478751   
    387000   489.08455      1362.3088      1851.3934      288.16834      304.88751      0.20743234   
    388000   528.06938      1335.1683      1863.2377      224.77171      298.8134       0.20386371   
    389000   511.01623      1376.5984      1887.6146      227.50341      308.08554      0.20446685   
    390000   509.09794      1337.7506      1846.8485      174.67432      299.39132      0.20643625   
    391000   494.63455      1336.5794      1831.214       174.65227      299.12922      0.20933713   
    392000   485.57299      1361.1148      1846.6878      125.37804      304.62029      0.21283263   
    393000   469.11666      1319.2795      1788.3962      161.55013      295.25747      0.22046614   
    394000   453.78185      1314.6202      1768.402       204.74506      294.2147       0.22938358   
    395000   459.40369      1297.2993      1756.703       245.45143      290.33825      0.23211577   
    396000   466.85857      1269.4282      1736.2868      251.37697      284.10064      0.22494125   
    397000   520.28217      1258.2902      1778.5724      290.19385      281.60793      0.21662056   
    398000   465.49191      1334.92        1800.4119      250.93133      298.75784      0.21399172   
    399000   484.27574      1339.0872      1823.3629      265.12336      299.69045      0.21387164   
    400000   485.60948      1346.3014      1831.9109      219.95676      301.30502      0.21194569   
    401000   482.55202      1378.1167      1860.6687      194.794        308.42535      0.21099624   
    402000   495.63116      1345.8402      1841.4713      163.04585      301.20179      0.21139494   
    403000   498.11422      1379.4072      1877.5215      91.717084      308.71417      0.21087648   
    404000   511.13772      1335.6488      1846.7865      43.43816       298.92094      0.20900752   
    405000   492.81727      1346.0765      1838.8938      47.576573      301.25469      0.20354186   
    406000   522.85102      1367.4569      1890.3079      46.546658      306.03967      0.19813268   
    407000   509.06966      1351.6109      1860.6805      72.966457      302.49329      0.19704395   
    408000   492.70696      1360.5443      1853.2513      139.17653      304.49261      0.20368501   
    409000   511.72896      1340.2866      1852.0156      200.77557      299.9589       0.20977693   
    410000   487.25642      1340.3012      1827.5576      299.83722      299.96216      0.2140596    
    411000   465.87876      1291.785       1757.6638      240.50631      289.10413      0.21303016   
    412000   461.30861      1349.3979      1810.7065      231.98139      301.99802      0.2113597    
    413000   485.58356      1323.938       1809.5215      163.81548      296.30004      0.21126861   
    414000   466.55119      1339.8003      1806.3515      80.868384      299.85006      0.20943816   
    415000   465.93027      1332.9266      1798.8569      96.385974      298.31172      0.20705836   
    416000   511.25119      1330.8848      1842.136       68.544619      297.85475      0.20352275   
    417000   502.16281      1330.8988      1833.0616      92.01328       297.85788      0.19970529   
    418000   528.41316      1305.8579      1834.271       119.56875      292.25367      0.19788347   
    419000   488.40663      1313.2036      1801.6102      115.63645      293.89766      0.20014735   
    420000   457.00975      1340.923       1797.9327      151.67327      300.10131      0.20912673   
    421000   485.03086      1319.8179      1804.8488      185.66469      295.37796      0.22073083   
    422000   463.27495      1270.8725      1734.1475      169.61356      284.42388      0.22253501   
    423000   495.59239      1285.7161      1781.3085      166.79325      287.74591      0.21817871   
    424000   452.54583      1338.0939      1790.6397      132.36185      299.46815      0.21205166   
    425000   496.42373      1343.8609      1840.2846      165.70557      300.75883      0.20895613   
    426000   497.58601      1320.5376      1818.1236      111.70865      295.53903      0.20344898   
    427000   490.57127      1336.5604      1827.1317      145.57769      299.12496      0.20075968   
    428000   476.6892       1299.9093      1776.5985      227.23942      290.92237      0.2011179    
    429000   484.50776      1312.2217      1796.7294      205.57222      293.6779       0.20013867   
    430000   499.7898       1327.1869      1826.9767      292.75261      297.02716      0.20113287   
    431000   468.91529      1313.3971      1782.3124      299.42304      293.94098      0.20543472   
    432000   463.41591      1325.7518      1789.1677      283.68638      296.70597      0.21668505   
    433000   469.11561      1346.2634      1815.379       262.62766      301.2965       0.22080485   
    434000   492.18924      1331.6281      1823.8173      236.44021      298.0211       0.21759551   
    435000   489.60873      1290.5277      1780.1364      193.75516      288.82275      0.21070183   
    436000   486.42592      1323.4588      1809.8847      148.31658      296.1928       0.20686587   
    437000   501.89511      1325.6235      1827.5186      160.01651      296.67726      0.20424286   
    438000   485.37825      1316.8162      1802.1945      93.778623      294.70617      0.20462817   
    439000   487.87162      1351.4612      1839.3328      95.311218      302.45979      0.20802      
    440000   479.44191      1336.5703      1816.0123      129.57894      299.12719      0.21103327   
    441000   468.64321      1333.4263      1802.0695      201.17482      298.42355      0.21365703   
    442000   483.88077      1307.0824      1790.9631      225.09256      292.52772      0.21148291   
    443000   463.47287      1266.0503      1729.5232      258.85234      283.34466      0.20484414   
    444000   467.94551      1338.6089      1806.5544      264.36958      299.58343      0.19756231   
    445000   492.914        1320.7626      1813.6766      184.95948      295.58938      0.19478655   
    446000   502.45904      1284.068       1786.527       145.53149      287.37705      0.20051567   
    447000   491.3738       1328.5983      1819.9721      171.39387      297.34302      0.20892151   
    448000   469.96707      1328.6047      1798.5718      220.55151      297.34447      0.21066474   
    449000   496.58459      1293.2357      1789.8203      150.61286      289.4288       0.20806766   
    450000   475.33341      1264.8137      1740.1471      37.596359      283.0679       0.20456351   
    451000   483.32313      1334.5601      1817.8832      2.7623121      298.67729      0.20344319   
    452000   517.96691      1292.0478      1810.0147      39.373988      289.16294      0.20203107   
    453000   482.82235      1280.3865      1763.2088      80.30783       286.55312      0.19884473   
    454000   492.06795      1310.6758      1802.7437      128.59423      293.33193      0.1984937    
    455000   521.92857      1312.0274      1833.956       133.50936      293.63443      0.20381499   
    456000   498.06535      1301.3406      1799.406       203.63511      291.24271      0.21198351   
    457000   453.72369      1320.7066      1774.4303      248.16079      295.57686      0.21235824   
    458000   463.96166      1292.0885      1756.0501      198.0957       289.17205      0.20491335   
    459000   478.93242      1304.8311      1783.7635      187.38615      292.02388      0.19825552   
    460000   491.16539      1325.6467      1816.8121      185.24818      296.68245      0.19757359   
    461000   493.55375      1326.2318      1819.7855      182.97364      296.81339      0.20006582   
    462000   517.75279      1319.6296      1837.3824      90.471289      295.33582      0.20108124   
    463000   512.33949      1318.0579      1830.3974      66.294136      294.98407      0.20057499   
    464000   504.72972      1332.3016      1837.0314      109.02757      298.17184      0.20229557   
    465000   521.02742      1372.8353      1893.8627      211.71918      307.24335      0.209508     
    466000   482.74962      1357.4411      1840.1907      303.04145      303.79811      0.2171374    
    467000   485.84346      1336.4818      1822.3252      390.2148       299.10736      0.21742584   
    468000   483.00654      1327.5198      1810.5264      380.87235      297.10167      0.20995395   
    469000   483.88855      1349.4726      1833.3611      317.24633      302.01474      0.20299583   
    470000   506.93868      1327.6565      1834.5951      188.60811      297.13224      0.20070382   
    471000   496.61059      1293.8342      1790.4448      75.56876       289.56276      0.20176849   
    472000   505.59073      1326.3676      1831.9584      11.211662      296.8438       0.20629949   
    473000   494.60457      1322.7368      1817.3414      81.271674      296.03122      0.21308764   
    474000   471.65901      1311.8438      1783.5028      170.51919      293.59333      0.21542501   
    475000   515.21005      1318.6949      1833.905       237.38965      295.12663      0.21540725   
    476000   492.47393      1347.4051      1839.879       249.75048      301.55202      0.2137273    
    477000   507.04056      1333.0949      1840.1354      244.76023      298.34937      0.20989174   
    478000   505.18396      1330.17        1835.354       189.01459      297.69478      0.20047338   
    479000   519.9207       1308.3337      1828.2544      172.83376      292.80777      0.19610828   
    480000   495.61427      1295.3344      1790.9487      182.47739      289.8985       0.19518681   
    481000   472.11462      1306.0607      1778.1753      185.78099      292.29906      0.19691345   
    482000   480.56673      1320.8219      1801.3886      229.67933      295.60265      0.20231248   
    483000   508.53325      1301.6222      1810.1554      263.98691      291.30572      0.20752416   
    484000   473.83106      1337.718       1811.549       352.61996      299.38403      0.20959286   
    485000   493.61807      1305.6748      1799.2928      249.78118      292.2127       0.20723228   
    486000   480.65871      1336.4571      1817.1158      231.94304      299.10183      0.201846     
    487000   505.18209      1326.0678      1831.2499      61.765069      296.77669      0.19191296   
    488000   519.05041      1290.4235      1809.4739      33.608918      288.79942      0.19258222   
    489000   512.85121      1331.5975      1844.4487      15.216299      298.01425      0.19920257   
    490000   469.31886      1344.77        1814.0889      95.537064      300.9623       0.20489883   
    491000   487.97977      1345.2755      1833.2553      152.74516      301.07542      0.20790467   
    492000   509.72206      1374.6784      1884.4005      221.77195      307.65585      0.21084443   
    493000   512.42387      1357.0009      1869.4248      226.43699      303.6996       0.21195006   
    494000   474.01639      1364.1914      1838.2078      213.95453      305.30885      0.20869012   
    495000   492.55595      1364.2156      1856.7715      166.09707      305.31425      0.20444547   
    496000   523.68649      1349.6422      1873.3286      174.98534      302.05268      0.20073865   
    497000   525.19945      1339.7779      1864.9773      113.79602      299.84504      0.19771371   
    498000   513.32127      1360.4047      1873.7259      121.00939      304.46135      0.19981695   
    499000   493.76458      1353.6218      1847.3864      178.97923      302.94333      0.20922113   
    500000   492.70052      1373.8308      1866.5313      211.40945      307.46614      0.21472521   
    501000   484.95777      1343.7316      1828.6894      228.09851      300.72989      0.21115374   
    502000   498.51369      1330.5489      1829.0625      232.68555      297.77957      0.20484174   
    503000   497.21652      1339.9392      1837.1557      220.08463      299.88114      0.19917085   
    504000   506.69076      1374.1965      1880.8873      181.18878      307.54801      0.19725783   
    505000   510.86657      1345.5625      1856.4291      160.96589      301.13964      0.19886064   
    506000   526.84026      1337.7523      1864.5925      120.71627      299.39171      0.20345134   
    507000   468.66814      1295.1471      1763.8152      165.94841      289.85658      0.20788155   
    508000   487.68577      1298.8326      1786.5184      154.27266      290.68141      0.20870797   
    509000   500.36038      1310.9166      1811.277       173.28082      293.38583      0.20870566   
    510000   505.79498      1316.1888      1821.9838      130.83892      294.56576      0.20696485   
    511000   486.47896      1344.869       1831.348       226.30527      300.98444      0.20614452   
    512000   501.33463      1381.6555      1882.9901      212.48295      309.21733      0.2036281    
    513000   509.20529      1334.8812      1844.0865      202.83792      298.74916      0.20460637   
    514000   502.49346      1349.9282      1852.4216      190.29136      302.11669      0.20805567   
    515000   483.58985      1302.9645      1786.5544      147.15888      291.60613      0.21401664   
    516000   491.42951      1326.2736      1817.7031      131.65086      296.82276      0.21913091   
    517000   478.88947      1363.8929      1842.7824      124.90926      305.24203      0.21608805   
    518000   494.39099      1376.7802      1871.1712      185.64919      308.12623      0.21003683   
    519000   505.44349      1378.587       1884.0304      224.17836      308.53059      0.20387493   
    520000   515.37885      1387.4921      1902.8709      232.42871      310.52357      0.19717272   
    521000   483.94517      1346.6398      1830.585       239.4427       301.38075      0.19555757   
    522000   496.54702      1364.8138      1861.3608      313.62176      305.44814      0.203354     
    523000   490.58275      1328.3934      1818.9761      315.70732      297.29716      0.20953739   
    524000   506.20764      1316.5708      1822.7784      304.13876      294.65124      0.2143079    
    525000   508.98855      1310.3967      1819.3853      216.84856      293.26948      0.21427034   
    526000   490.5929       1345.0765      1835.6694      139.47907      301.03089      0.2118599    
    527000   469.68542      1346.7696      1816.455       97.315037      301.40979      0.20783845   
    528000   486.69941      1336.1991      1822.8986      56.023204      299.04411      0.20278358   
    529000   509.88165      1325.7157      1835.5974      67.659518      296.69791      0.19940655   
    530000   487.91109      1360.9328      1848.8438      133.09627      304.57955      0.19963432   
    531000   481.78522      1363.9909      1845.7761      199.37213      305.26397      0.20489151   
    532000   473.90157      1297.8529      1771.7545      227.26182      290.46215      0.21692649   
    533000   480.59017      1340.3734      1820.9635      249.2712       299.97831      0.22366282   
    534000   461.90987      1363.7716      1825.6815      229.50665      305.21489      0.22277189   
    535000   477.17447      1361.4775      1838.6519      265.30828      304.70145      0.22104869   
    536000   498.40727      1370.0759      1868.4832      311.21472      306.6258       0.21545871   
    537000   472.71603      1365.4385      1838.1545      285.95299      305.58794      0.20869108   
    538000   503.28595      1353.1722      1856.4582      271.30474      302.84272      0.20673932   
    539000   495.32932      1398.2219      1893.5512      268.27418      312.92494      0.20748653   
    540000   485.61547      1355.4594      1841.0748      194.87102      303.35459      0.20818593   
    541000   485.18547      1336.1854      1821.3709      152.91916      299.04103      0.21029683   
    542000   491.80552      1326.9903      1818.7959      181.14726      296.98316      0.21231608   
    543000   487.89009      1345.9523      1833.8424      197.50758      301.22689      0.21057246   
    544000   510.58468      1379.1766      1889.7613      221.72257      308.66256      0.20899006   
    545000   495.88528      1356.3211      1852.2064      237.31832      303.54745      0.20927337   
    546000   519.58719      1407.7327      1927.3199      283.8229       315.05347      0.21244384   
    547000   497.60028      1380.4955      1878.0958      291.15818      308.95773      0.21225403   
    548000   486.99512      1346.8654      1833.8605      214.4013       301.43125      0.20668348   
    549000   519.61781      1345.4208      1865.0386      132.80878      301.10793      0.19796238   
    550000   515.89063      1334.5291      1850.4197      115.92872      298.67035      0.19276002   
    551000   510.17588      1345.8967      1856.0726      148.07631      301.21444      0.19329301   
    552000   560.6888       1312.8933      1873.5821      167.89632      293.8282       0.19920569   
    553000   482.05664      1314.0923      1796.149       164.61303      294.09656      0.20830111   
    554000   458.0944       1312.7544      1770.8488      142.85504      293.79713      0.2131475    
    555000   456.07502      1303.1473      1759.2224      130.3291       291.64705      0.21398728   
    556000   488.52798      1303.6977      1792.2257      129.09505      291.77023      0.21072821   
    557000   506.29281      1305.1113      1811.4041      126.29311      292.08658      0.20800203   
    558000   491.62124      1330.4536      1822.0749      139.85833      297.75826      0.20453148   
    559000   483.54967      1328.9062      1812.4559      110.76379      297.41193      0.20312358   
    560000   511.37248      1311.2528      1822.6253      96.178171      293.46106      0.20457859   
    561000   470.92146      1326.9696      1797.8911      172.92024      296.97853      0.20905592   
    562000   490.02419      1338.8004      1828.8246      257.73947      299.62629      0.21854779   
    563000   485.97501      1327.4409      1813.4159      350.75013      297.084        0.21981142   
    564000   505.72558      1324.0218      1829.7474      257.1751       296.3188       0.21273188   
    565000   506.93769      1363.4067      1870.3444      255.51023      305.13322      0.20582215   
    566000   506.26881      1365.9165      1872.1853      154.90202      305.69492      0.20290018   
    567000   486.08873      1386.042       1872.1307      86.605559      310.19904      0.20398396   
    568000   503.34404      1356.3099      1859.6539      88.657334      303.54494      0.20684531   
    569000   502.23717      1354.5167      1856.7539      99.967861      303.14362      0.20845076   
    570000   506.76365      1330.306       1837.0696      123.18141      297.72521      0.20729223   
    571000   484.46257      1350.8738      1835.3364      195.22992      302.32833      0.20735913   
    572000   486.40908      1353.5235      1839.9326      193.39767      302.92135      0.20701751   
    573000   487.42426      1335.8012      1823.2254      179.80351      298.95505      0.20581632   
    574000   496.24797      1317.6926      1813.9406      177.45606      294.90232      0.20634382   
    575000   525.43343      1325.4982      1850.9316      230.23102      296.64921      0.209874     
    576000   502.38584      1311.4291      1813.8149      233.57319      293.50052      0.2141006    
    577000   465.68257      1306.2143      1771.8969      336.52187      292.33344      0.22097838   
    578000   446.73796      1318.7212      1765.4591      321.86455      295.1325       0.22369978   
    579000   461.77154      1269.3046      1731.0761      212.41569      284.07298      0.21801422   
    580000   506.56887      1309.7642      1816.333       143.06224      293.12791      0.2075166    
    581000   502.1875       1305.5877      1807.7752      40.503382      292.1932       0.20245524   
    582000   468.07409      1294.0896      1762.1637      22.886232      289.61991      0.20296164   
    583000   489.89643      1317.1115      1807.0079      10.3525        294.77226      0.20428918   
    584000   471.59958      1326.5892      1798.1887      43.33764       296.89338      0.20570871   
    585000   483.9904       1274.2899      1758.2803      117.74191      285.1887       0.20879426   
    586000   463.05008      1307.2808      1770.3309      185.63242      292.57214      0.2159676    
    587000   492.58471      1301.5667      1794.1514      187.48696      291.2933       0.221165     
    588000   478.90889      1335.4193      1814.3281      271.30987      298.86957      0.22421878   
    589000   471.94022      1362.6054      1834.5456      292.6329       304.95389      0.22521535   
    590000   490.73326      1339.75        1830.4832      237.76629      299.8388       0.22117279   
    591000   481.94536      1370.6361      1852.5815      152.43312      306.75118      0.21114745   
    592000   479.656        1344.4925      1824.1485      94.836535      300.90019      0.20191003   
    593000   496.02516      1323.2981      1819.3233      34.659112      296.15683      0.19966795   
    594000   499.07683      1284.9589      1784.0357      98.755427      287.57644      0.20221415   
    595000   480.90401      1332.9068      1813.8109      155.68801      298.30729      0.20976614   
    596000   499.93952      1307.5105      1807.45        281.88123      292.62353      0.21691218   
    597000   490.3303       1330.6761      1821.0064      246.5147       297.80803      0.21664381   
    598000   463.46619      1360.0133      1823.4795      236.0428       304.37377      0.21277006   
    599000   511.82946      1331.7651      1843.5946      236.23097      298.05177      0.20833906   
    600000   532.63824      1367.8568      1900.495       184.33876      306.12915      0.20299914   
    601000   506.81555      1362.4478      1869.2633      196.58662      304.91861      0.20114971   
    602000   509.89503      1377.2608      1887.1559      201.37884      308.2338       0.20288035   
    603000   508.58658      1370.6307      1879.2173      265.67754      306.74997      0.20634649   
    604000   503.52673      1371.2479      1874.7746      241.08222      306.8881       0.21187041   
    605000   472.37989      1320.6348      1793.0147      218.04806      295.56078      0.21517371   
    606000   484.77763      1289.7679      1774.5455      206.74426      288.65271      0.21581796   
    607000   498.04589      1297.0247      1795.0705      170.50262      290.27678      0.20992748   
    608000   479.87572      1324.4519      1804.3276      146.10651      296.41505      0.20246032   
    609000   506.08377      1320.6098      1826.6936      201.39232      295.55519      0.20005527   
    610000   484.6763       1323.6192      1808.2955      188.91738      296.22868      0.20228004   
    611000   465.71315      1297.6155      1763.3287      114.9601       290.40902      0.20972251   
    612000   487.08314      1334.0981      1821.1813      111.15963      298.5739       0.21864774   
    613000   469.45848      1323.6175      1793.076       71.39443       296.22831      0.21680988   
    614000   482.21668      1296.2027      1778.4194      72.968326      290.09282      0.21152094   
    615000   483.69114      1295.0547      1778.7459      129.55494      289.83591      0.20956429   
    616000   458.92075      1346.1941      1805.1148      248.8936       301.281        0.20979848   
    617000   518.04915      1341.7666      1859.8157      283.32631      300.29011      0.21219146   
    618000   499.10702      1384.4796      1883.5867      291.12409      309.84939      0.21382514   
    619000   506.31611      1379.3036      1885.6197      242.27827      308.69097      0.21594375   
    620000   491.38388      1376.7484      1868.1323      123.52193      308.11912      0.21331392   
    621000   472.67545      1376.2881      1848.9635      138.32653      308.0161       0.20891087   
    622000   506.12311      1365.0725      1871.1956      140.72701      305.50603      0.20374143   
    623000   528.66732      1373.9626      1902.6299      134.87389      307.49565      0.19848971   
    624000   496.60231      1358.6797      1855.282       123.92032      304.07531      0.19537877   
    625000   521.90658      1377.0659      1898.9725      195.14082      308.19018      0.20032281   
    626000   531.07844      1327.7639      1858.8424      181.78472      297.1563       0.20780203   
    627000   501.91988      1337.7228      1839.6427      215.1185       299.38511      0.21365549   
    628000   479.14854      1351.561       1830.7095      189.99097      302.48212      0.2139066    
    629000   472.66886      1351.9933      1824.6622      215.53458      302.57888      0.21182423   
    630000   487.23944      1317.2593      1804.4988      191.14207      294.80535      0.20837531   
    631000   467.31103      1304.3139      1771.6249      197.82841      291.90812      0.20235725   
    632000   478.71739      1338.0812      1816.7986      232.23882      299.46532      0.19837705   
    633000   519.33843      1295.262       1814.6004      129.40305      289.88229      0.19683058   
    634000   501.34646      1316.6258      1817.9722      145.95913      294.66355      0.20091376   
    635000   484.8367       1342.6345      1827.4712      138.52796      300.48435      0.20731593   
    636000   476.18098      1352.9191      1829.1         164.054        302.78606      0.21303873   
    637000   458.51949      1331.8499      1790.3694      206.12857      298.07073      0.21885477   
    638000   486.84366      1324.0287      1810.8723      155.91509      296.32034      0.21929749   
    639000   473.89563      1350.2589      1824.1545      144.49858      302.1907       0.21533522   
    640000   503.5122       1345.5231      1849.0354      122.22665      301.13084      0.2115743    
    641000   493.01734      1359.6455      1852.6628      121.60755      304.29145      0.20892724   
    642000   492.45178      1379.6182      1872.07        209.50641      308.76138      0.20855524   
    643000   514.36778      1333.0767      1847.4445      238.30202      298.34531      0.20480179   
    644000   499.73326      1310.0773      1809.8106      317.38539      293.19799      0.20274919   
    645000   508.04481      1337.0332      1845.078       300.99541      299.23078      0.20634486   
    646000   519.80896      1338.9078      1858.7168      231.49032      299.65032      0.21477847   
    647000   480.23404      1359.2764      1839.5104      136.83608      304.20884      0.21829703   
    648000   509.20615      1348.2851      1857.4913      120.35272      301.74898      0.21816353   
    649000   491.76481      1376.044       1867.8088      191.82614      307.96147      0.20759527   
    650000   526.83101      1352.162       1878.993       211.97746      302.61664      0.19871855   
    651000   527.4391       1365.5865      1893.0256      239.0505       305.62107      0.19776546   
    652000   527.12291      1331.6257      1858.7487      248.74565      298.02058      0.19816667   
    653000   502.89086      1379.4619      1882.3528      162.25902      308.72641      0.19706161   
    654000   512.65865      1352.9859      1865.6445      146.85277      302.80101      0.19782628   
    655000   521.00358      1372.2502      1893.2537      110.17646      307.1124       0.1981582    
    656000   493.82328      1344.3837      1838.207       103.83575      300.87584      0.20245023   
    657000   473.9636       1335.1023      1809.0659      83.659362      298.79863      0.21055123   
    658000   499.70192      1351.2311      1850.933       181.43499      302.40829      0.21686035   
    659000   499.69808      1324.2455      1823.9435      242.74425      296.36885      0.21643503   
    660000   479.04252      1330.6462      1809.6887      334.0631       297.80134      0.21549579   
    661000   506.58485      1347.5297      1854.1146      352.65675      301.57992      0.20807993   
    662000   517.96899      1356.6404      1874.6094      266.12387      303.61891      0.19979121   
    663000   533.45901      1354.1663      1887.6253      201.88033      303.0652       0.19887705   
    664000   515.61213      1399.2004      1914.8125      127.45787      313.14392      0.20114702   
    665000   530.8021       1371.4687      1902.2708      76.184259      306.93752      0.20230547   
    666000   508.10984      1362.0333      1870.1431      65.396436      304.82584      0.20636851   
    667000   487.85791      1334.3436      1822.2015      147.4399       298.62884      0.2107703    
    668000   489.55987      1315.0841      1804.644       132.66938      294.31853      0.20830365   
    669000   495.57013      1329.9472      1825.5173      159.42716      297.64492      0.20796173   
    670000   475.50437      1329.2742      1804.7786      209.30745      297.4943       0.21156182   
    671000   493.65799      1287.3536      1781.0116      247.49765      288.11237      0.21581044   
    672000   520.44954      1286.5975      1807.047       246.8227       287.94316      0.21440439   
    673000   493.53693      1320.0445      1813.5814      154.77092      295.42867      0.20598012   
    674000   517.50954      1328.0194      1845.5289      145.84376      297.21346      0.20156383   
    675000   511.04738      1312.4926      1823.54        127.00489      293.73853      0.19980294   
    676000   491.79679      1335.3207      1827.1175      94.923209      298.84752      0.20497863   
    677000   506.27238      1319.7277      1826.0001      126.10779      295.35777      0.21049695   
    678000   494.79806      1336.5632      1831.3613      151.18885      299.1256       0.21173874   
    679000   511.50105      1328.1995      1839.7006      167.89651      297.25378      0.20981401   
    680000   470.58464      1375.5909      1846.1755      213.46621      307.86007      0.20545871   
    681000   508.5814       1347.2523      1855.8337      234.71794      301.51782      0.2028783    
    682000   515.66283      1319.9706      1835.6335      195.78396      295.41213      0.20006437   
    683000   493.22685      1346.7799      1840.0067      175.99828      301.4121       0.19827837   
    684000   503.0549       1327.8367      1830.8916      127.34495      297.17258      0.1989283    
    685000   505.55712      1349.1067      1854.6638      126.02625      301.93284      0.20508834   
    686000   493.02375      1334.739       1827.7627      132.47861      298.71732      0.21226954   
    687000   509.63441      1334.1433      1843.7777      117.22077      298.584        0.21158245   
    688000   534.21241      1370.2504      1904.4628      68.366599      306.66486      0.19696475   
    689000   550.28049      1362.6862      1912.9667      162.31803      304.97198      0.18803714   
    690000   545.9496       1377.7023      1923.6519      217.19546      308.33261      0.18708981   
    691000   545.33535      1418.4008      1963.7362      280.79365      317.44102      0.19024929   
    692000   525.69697      1375.1269      1900.8239      244.83587      307.75622      0.19441477   
    693000   535.84623      1334.6939      1870.5401      139.21385      298.70723      0.19897872   
    694000   512.69802      1366.0815      1878.7795      107.18537      305.73184      0.20369829   
    695000   520.63539      1384.3711      1905.0065      92.150607      309.82509      0.20489317   
    696000   518.63479      1414.724       1933.3588      192.94236      316.61814      0.2080037    
    697000   521.04093      1351.9486      1872.9895      153.83874      302.56886      0.21274689   
    698000   491.14873      1354.3053      1845.4541      140.39891      303.09631      0.21746165   
    699000   485.75201      1341.8098      1827.5618      115.86438      300.29978      0.21858126   
    700000   460.68522      1340.9869      1801.6721      141.89043      300.11561      0.21868476   
    701000   503.62166      1318.1732      1821.7948      229.41349      295.00986      0.21922133   
    702000   480.23828      1372.0812      1852.3195      206.39232      307.07459      0.21574082   
    703000   502.8667       1342.7943      1845.661       190.15198      300.52012      0.21132043   
    704000   539.61664      1396.4305      1936.0471      200.51653      312.52401      0.20907574   
    705000   503.62322      1356.494       1860.1172      186.26827      303.58615      0.20794788   
    706000   520.70849      1325.8226      1846.531       179.11466      296.72181      0.20977681   
    707000   506.0149       1317.9965      1824.0114      205.66666      294.97033      0.21446242   
    708000   506.16413      1294.7347      1800.8988      248.94895      289.76428      0.21560919   
    709000   480.09888      1296.8133      1776.9122      165.11846      290.22948      0.20954083   
    710000   501.15137      1347.2797      1848.4311      177.38424      301.52396      0.20514557   
    711000   505.25896      1338.3169      1843.5759      123.24684      299.51808      0.20259954   
    712000   502.97121      1306.496       1809.4672      141.09114      292.39648      0.2022572    
    713000   476.53468      1313.4029      1789.9376      196.12261      293.94227      0.2027924    
    714000   506.74754      1346.3431      1853.0907      265.00753      301.31436      0.20623477   
    715000   489.0362       1348.9389      1837.9751      292.87276      301.8953       0.21394884   
    716000   508.80863      1335.0162      1843.8249      272.71112      298.77937      0.21831392   
    717000   491.23664      1345.9853      1837.222       248.11619      301.23428      0.21827974   
    718000   523.3445       1385.4293      1908.7738      134.60504      310.06193      0.21396609   
    719000   512.67158      1363.618       1876.2896      84.682633      305.18051      0.20803004   
    720000   514.71496      1340.2916      1855.0065      116.62163      299.96         0.20686288   
    721000   499.46842      1339.8149      1839.2833      204.36754      299.85333      0.21147047   
    722000   463.74745      1314.5493      1778.2968      246.51739      294.19883      0.22076729   
    723000   463.34543      1326.3303      1789.6758      207.45065      296.83545      0.22583806   
    724000   475.17241      1323.2044      1798.3768      223.50236      296.13585      0.22684769   
    725000   461.8877       1304.8296      1766.7173      150.32691      292.02354      0.21558921   
    726000   480.11071      1327.072       1807.1827      220.20883      297.00144      0.21086546   
    727000   479.64925      1344.4397      1824.0889      173.59515      300.88836      0.20924344   
    728000   507.79838      1316.9474      1824.7458      138.26687      294.73553      0.20892974   
    729000   487.15175      1306.2124      1793.3642      164.75133      292.33302      0.20911463   
    730000   481.88659      1329.5511      1811.4377      99.973261      297.55628      0.20375144   
    731000   497.02717      1339.0167      1836.0439      62.31744       299.67468      0.19975767   
    732000   493.46968      1315.878       1809.3477      101.41141      294.4962       0.20031002   
    733000   522.08034      1302.8504      1824.9308      65.504398      291.5806       0.20832778   
    734000   461.3298       1325.5142      1786.844       204.86681      296.65279      0.21858411   
    735000   454.3443       1347.1717      1801.516       243.20843      301.49978      0.22034289   
    736000   467.81384      1326.1778      1793.9917      221.73693      296.80132      0.21762469   
    737000   495.43053      1341.3689      1836.7995      161.80176      300.20112      0.21267338   
    738000   512.18309      1339.5602      1851.7433      110.51166      299.79633      0.20821835   
    739000   489.61259      1352.9251      1842.5377      101.4633       302.78742      0.206799     
    740000   531.63449      1367.4489      1899.0834      19.691544      306.03787      0.20745763   
    741000   501.50643      1349.0575      1850.5639      27.26388       301.92183      0.20770278   
    742000   496.5347       1351.0897      1847.6244      54.748762      302.37665      0.20836067   
    743000   512.30073      1360.4094      1872.7102      164.18307      304.46242      0.21121202   
    744000   470.83762      1369.7743      1840.612       221.0132       306.55831      0.21247512   
    745000   495.41613      1358.3644      1853.7805      292.48558      304.00474      0.21248488   
    746000   509.05076      1367.2731      1876.3238      268.50136      305.99852      0.21179067   
    747000   514.79481      1386.7822      1901.577       277.68892      310.36469      0.21354547   
    748000   480.77022      1380.9133      1861.6835      290.12009      309.05122      0.2187077    
    749000   508.96521      1354.3036      1863.2688      204.26877      303.09592      0.220388     
    750000   485.51628      1354.8396      1840.3559      172.27432      303.21588      0.21380515   
    751000   515.36209      1362.5869      1877.949       103.43749      304.94975      0.20584896   
    752000   490.97024      1354.6156      1845.5858      97.780907      303.16575      0.20702702   
    753000   484.53758      1374.7248      1859.2624      138.56171      307.66624      0.2104353    
    754000   493.61833      1353.8005      1847.4189      179.14508      302.98334      0.21096952   
    755000   487.95328      1365.208       1853.1613      195.06474      305.53636      0.20985185   
    756000   516.20535      1350.1583      1866.3637      204.74502      302.1682       0.20861093   
    757000   501.89607      1297.1289      1799.025       196.10325      290.30012      0.20268489   
    758000   505.6273       1366.9548      1872.5821      158.18875      305.92728      0.19483269   
    759000   520.27351      1352.7631      1873.0366      185.37538      302.75115      0.19034945   
    760000   508.45166      1359.2716      1867.7233      189.26147      304.20778      0.19014872   
    761000   500.36122      1385.3654      1885.7266      154.38047      310.04761      0.19319199   
    762000   509.67041      1329.8685      1839.5389      138.12523      297.62731      0.20078998   
    763000   502.35449      1289.6269      1791.9814      100.70565      288.62114      0.21101826   
    764000   454.73805      1275.9877      1730.7258      101.3413       285.56868      0.21525865   
    765000   503.06976      1311.0206      1814.0904      74.180159      293.4091       0.21639642   
    766000   495.12952      1298.1924      1793.322       52.757494      290.53813      0.21294542   
    767000   474.26665      1317.4399      1791.7066      105.63946      294.84576      0.20780164   
    768000   531.94455      1302.908       1834.8525      120.7303       291.59348      0.20463329   
    769000   495.41973      1278.6308      1774.0505      143.99779      286.16019      0.20246761   
    770000   481.02868      1312.1156      1793.1442      202.33091      293.65416      0.2021093    
    771000   497.78795      1319.8293      1817.6173      312.81475      295.38051      0.20693564   
    772000   446.1125       1299.4265      1745.539       315.25203      290.81432      0.21925934   
    773000   503.32572      1306.2256      1809.5514      335.73477      292.33598      0.2252102    
    774000   488.16424      1339.7757      1827.94        262.07115      299.84456      0.2217008    
    775000   484.43662      1352.6796      1837.1162      158.10776      302.73246      0.21796247   
    776000   488.88215      1356.0726      1844.9548      114.04002      303.49183      0.21772231   
    777000   516.39261      1326.6816      1843.0742      114.451        296.91407      0.21860741   
    778000   478.07022      1340.2707      1818.341       128.55235      299.95534      0.21584155   
    779000   506.85223      1309.6848      1816.537       151.85768      293.11015      0.20912719   
    780000   491.00718      1320.6292      1811.6363      169.96885      295.55952      0.20328477   
    781000   501.10392      1330.3248      1831.4287      185.58654      297.72942      0.20230707   
    782000   495.68822      1340.8638      1836.552       205.44948      300.08808      0.20831893   
    783000   498.77391      1350.5774      1849.3513      243.17558      302.26199      0.2201613    
    784000   521.26797      1392.8211      1914.0891      246.2621       311.71623      0.22496327   
    785000   495.58951      1372.5535      1868.143       203.78152      307.18029      0.22293061   
    786000   504.58799      1355.965       1860.5529      130.44805      303.46774      0.21784654   
    787000   489.21376      1357.129       1846.3427      130.50994      303.72825      0.21377444   
    788000   487.45163      1375.7689      1863.2206      71.821369      307.89991      0.21005272   
    789000   510.40987      1370.1075      1880.5174      99.764904      306.63287      0.20845276   
    790000   485.72798      1364.8397      1850.5677      126.25957      305.45393      0.2086188    
    791000   499.72226      1334.9237      1834.6459      184.60318      298.75865      0.20963474   
    792000   474.77477      1357.2076      1831.9824      233.22211      303.74585      0.21288429   
    793000   489.67461      1370.3885      1860.0631      286.79943      306.69576      0.21702009   
    794000   479.68226      1351.525       1831.2072      290.22191      302.47406      0.21832978   
    795000   534.77514      1345.1126      1879.8877      189.85094      301.03895      0.21560136   
    796000   498.99558      1334.4783      1833.4739      157.07629      298.65899      0.20997689   
    797000   506.55224      1290.1556      1796.7078      101.97109      288.73947      0.20521223   
    798000   495.65284      1303.586       1799.2388      66.404333      291.74522      0.20190494   
    799000   508.37138      1305.7508      1814.1221      105.95586      292.2297       0.20148789   
    800000   514.45688      1322.5872      1837.0441      179.52017      295.99773      0.20227222   
    801000   487.15731      1304.1624      1791.3198      270.82971      291.87423      0.20580753   
    802000   471.63599      1348.1072      1819.7432      337.91233      301.70917      0.20956282   
    803000   494.34402      1368.1061      1862.4501      284.08383      306.18495      0.20671127   
    804000   510.01972      1362.6898      1872.7095      197.08786      304.97276      0.2004225    
    805000   507.88639      1356.3985      1864.2849      92.457862      303.56477      0.19747692   
    806000   516.3225       1329.0225      1845.345       57.351729      297.43796      0.20079598   
    807000   508.09709      1327.5476      1835.6447      64.436221      297.10788      0.20782183   
    808000   470.6865       1334.7693      1805.4558      121.3344       298.72412      0.2121235    
    809000   487.45312      1344.946       1832.3992      206.26647      301.00169      0.21026679   
    810000   487.73162      1308.609       1796.3407      231.04131      292.86939      0.20755118   
    811000   519.13907      1318.1383      1837.2774      254.52097      295.00206      0.20586062   
    812000   492.67767      1317.9278      1810.6054      270.38912      294.95494      0.20533798   
    813000   488.62923      1268.1363      1756.7656      258.61124      283.81151      0.20695464   
    814000   484.30398      1307.8663      1792.1703      270.10776      292.70316      0.20838123   
    815000   499.85475      1309.4827      1809.3374      173.18366      293.06491      0.2052092    
    816000   514.0251       1330.49        1844.5151      118.27629      297.76639      0.20318588   
    817000   504.82313      1328.756       1833.5791      88.414954      297.37832      0.20808839   
    818000   465.98337      1298.8249      1764.8083      110.59642      290.67968      0.21943371   
    819000   462.16447      1307.6018      1769.7663      196.64852      292.64397      0.22635801   
    820000   458.94726      1284.4765      1743.4238      259.19174      287.46848      0.22486502   
    821000   479.99621      1362.8916      1842.8878      192.96723      305.01793      0.21712343   
    822000   511.359        1336.9292      1848.2882      169.4017       299.20749      0.21297129   
    823000   512.03802      1321.3756      1833.4136      142.94003      295.72657      0.21027979   
    824000   480.02549      1325.6679      1805.6934      97.282443      296.68721      0.20671854   
    825000   504.97379      1317.4949      1822.4687      140.23716      294.85806      0.20675052   
    826000   493.9365       1323.8111      1817.7476      173.7569       296.27165      0.20606661   
    827000   461.7712       1316.092       1777.8632      214.82937      294.5441       0.20292579   
    828000   507.71106      1316.7007      1824.4117      144.41072      294.68032      0.19698899   
    829000   540.3274       1316.4195      1856.7469      100.0609       294.61739      0.195345     
    830000   493.08948      1322.1898      1815.2792      167.48811      295.90878      0.20015734   
    831000   492.80959      1333.744       1826.5536      182.93782      298.49464      0.20731114   
    832000   503.29353      1333.3218      1836.6153      200.17536      298.40015      0.21383908   
    833000   496.52011      1332.6517      1829.1718      273.03074      298.25018      0.2201369    
    834000   458.28082      1365.4613      1823.7422      215.21694      305.59305      0.22108013   
    835000   487.23084      1329.9881      1817.2189      155.3117       297.65406      0.21860679   
    836000   504.3446       1265.3581      1769.7027      62.702223      283.18974      0.21419895   
    837000   479.68497      1313.4791      1793.164       76.967033      293.95931      0.21127981   
    838000   470.24658      1333.143       1803.3896      108.22928      298.36014      0.21331799   
    839000   483.79431      1303.3253      1787.1196      167.63028      291.68687      0.2178638    
    840000   500.2816       1302.5824      1802.864       229.20881      291.52062      0.22270488   
    841000   465.27004      1324.355       1789.6251      283.72032      296.39337      0.22362966   
    842000   514.16595      1367.0299      1881.1958      178.80571      305.94409      0.21489804   
    843000   498.88243      1373.8043      1872.6868      189.49627      307.46023      0.20716159   
    844000   514.37502      1355.6117      1869.9867      155.34628      303.38868      0.20316401   
    845000   474.18799      1382.4949      1856.6829      196.08041      309.4052       0.20345216   
    846000   506.59745      1314.532       1821.1294      233.6318       294.19495      0.2093869    
    847000   499.07407      1311.259       1810.3331      219.45186      293.46246      0.21580213   
    848000   474.44822      1334.6027      1809.0509      266.62228      298.68681      0.21971493   
    849000   481.94603      1334.4583      1816.4044      279.7219       298.65451      0.22026954   
    850000   476.62209      1320.9463      1797.5684      337.42799      295.63049      0.21642102   
    851000   476.17014      1353.5215      1829.6917      239.2992       302.9209       0.20917095   
    852000   514.83738      1337.0976      1851.935       129.112        299.2452       0.20547557   
    853000   511.6255       1320.5715      1832.197       86.626475      295.5466       0.20451027   
    854000   515.5216       1310.5349      1826.0565      68.053698      293.3004       0.2083487    
    855000   467.3192       1322.2853      1789.6045      116.814        295.93016      0.21545144   
    856000   488.10032      1327.2635      1815.3638      163.86639      297.04429      0.21925074   
    857000   505.29546      1320.1801      1825.4756      222.84843      295.45902      0.21892108   
    858000   496.76053      1336.1038      1832.8643      223.51962      299.02277      0.21605829   
    859000   489.86126      1329.5085      1819.3697      158.53913      297.54672      0.21416221   
    860000   493.85947      1312.1024      1805.9618      124.18282      293.6512       0.21132826   
    861000   528.84359      1346.8206      1875.6642      108.96436      301.42121      0.20897356   
    862000   510.65171      1342.1158      1852.7675      197.94996      300.36827      0.21005057   
    863000   516.13716      1309.964       1826.1012      299.9142       293.17264      0.2117707    
    864000   497.78338      1335.5232      1833.3065      248.89767      298.89282      0.21334675   
    865000   473.45432      1331.0152      1804.4695      168.83954      297.88394      0.2136635    
    866000   499.19482      1317.0528      1816.2476      103.57778      294.75911      0.21422845   
    867000   523.3934       1321.3163      1844.7097      5.4624425      295.7133       0.21033517   
    868000   534.54988      1350.7356      1885.2855      79.489897      302.2974       0.20298951   
    869000   511.36457      1392.1512      1903.5157      148.11237      311.56629      0.19473145   
    870000   506.06158      1419.5409      1925.6024      205.36684      317.69616      0.19332257   
    871000   498.33028      1354.1604      1852.4907      255.72107      303.06387      0.19817243   
    872000   509.62086      1342.2947      1851.9156      192.86707      300.40832      0.20211152   
    873000   485.22231      1350.687       1835.9094      228.51224      302.28653      0.20508348   
    874000   479.9072       1296.1552      1776.0624      227.469        290.0822       0.20542461   
    875000   506.5659       1301.3319      1807.8978      242.32904      291.24075      0.20847457   
    876000   482.21247      1322.3244      1804.5369      299.02398      295.93893      0.21195002   
    877000   493.22258      1324.1701      1817.3926      133.61863      296.35198      0.20865458   
    878000   542.51069      1267.6346      1810.1452      23.331307      283.69922      0.19809693   
    879000   522.54364      1284.8538      1807.3975     -8.4916145      287.55292      0.19090566   
    880000   505.57407      1329.7691      1835.3432      64.268541      297.60505      0.19377911   
    881000   519.89027      1324.7151      1844.6054      137.80255      296.47397      0.20060504   
    882000   494.93712      1360.5322      1855.4693      200.66942      304.48989      0.20497823   
    883000   481.78168      1348.7875      1830.5692      196.34331      301.86141      0.20652586   
    884000   463.37717      1314.8806      1778.2578      189.00999      294.27299      0.20659715   
    885000   497.27508      1323.4364      1820.7115      206.96004      296.18779      0.20707132   
    886000   527.06036      1296.8682      1823.9286      151.75124      290.24177      0.20628195   
    887000   471.03601      1285.9691      1757.0051      157.0785       287.80253      0.20576473   
    888000   488.66619      1298.1011      1786.7673      190.31987      290.5177       0.20986888   
    889000   471.60626      1330.3454      1801.9517      193.16193      297.73403      0.21350894   
    890000   505.92633      1319.5162      1825.4425      188.97845      295.31042      0.21486839   
    891000   503.3275       1310.4186      1813.7461      167.25128      293.27438      0.21415697   
    892000   491.3873       1298.4255      1789.8128      143.38883      290.59028      0.20923457   
    893000   474.99396      1305.3936      1780.3875      135.77348      292.14976      0.20480631   
    894000   506.69484      1302.2348      1808.9296      104.13309      291.44282      0.20132889   
    895000   517.10498      1278.2048      1795.3097      145.6309       286.06485      0.20067395   
    896000   509.2208       1322.3025      1831.5233      245.57295      295.93401      0.20601934   
    897000   471.82312      1334.1745      1805.9976      294.88087      298.59099      0.21455      
    898000   490.6463       1294.5049      1785.1512      245.97323      289.71286      0.21857147   
    899000   491.35855      1336.9535      1828.312       207.66986      299.21293      0.22048527   
    900000   464.31894      1319.7884      1784.1074      212.85828      295.37136      0.21886457   
    901000   478.55746      1334.2904      1812.8479      134.81257      298.61693      0.21180101   
    902000   497.85817      1340.4914      1838.3496      71.675694      300.00473      0.20359557   
    903000   498.65666      1313.8046      1812.4613      27.868339      294.03217      0.20134785   
    904000   495.00237      1340.267       1835.2694      84.632346      299.95451      0.2032241    
    905000   487.60864      1321.5764      1809.1851      116.99857      295.77152      0.20655654   
    906000   505.35622      1332.3954      1837.7517      174.332        298.19284      0.2090136    
    907000   469.36609      1324.6539      1794.02        248.26764      296.46027      0.2114208    
    908000   492.43205      1335.4982      1827.9302      330.22883      298.88723      0.21492584   
    909000   453.89513      1312.9759      1766.871       408.19324      293.8467       0.21504303   
    910000   469.83519      1357.5187      1827.3539      351.91071      303.81547      0.21090524   
    911000   501.29282      1342.7807      1844.0736      254.67383      300.51709      0.20466079   
    912000   500.53895      1359.4041      1859.943       160.58906      304.23742      0.20002956   
    913000   518.63983      1335.1975      1853.8373      96.449916      298.81994      0.19615992   
    914000   534.46885      1337.0102      1871.479       47.148849      299.22562      0.19662023   
    915000   528.2838       1356.0281      1884.3119      136.95319      303.48186      0.20405985   
    916000   496.74252      1325.2831      1822.0256      154.81379      296.60108      0.20955417   
    917000   483.45912      1341.4284      1824.8875      238.06687      300.21443      0.21247979   
    918000   478.0875       1328.1806      1806.2681      217.23354      297.24954      0.21422773   
    919000   505.04899      1293.1921      1798.2411      210.26221      289.41905      0.21815158   
    920000   501.0681       1325.3365      1826.4046      220.65049      296.61304      0.22160072   
    921000   497.84939      1341.2711      1839.1205      134.89672      300.17923      0.219781     
    922000   471.35633      1350.8003      1822.1567      63.800515      302.31189      0.21671398   
    923000   477.57162      1369.2063      1846.7779      33.461234      306.43118      0.21441203   
    924000   518.29432      1382.6492      1900.9435      54.841816      309.43972      0.21505355   
    925000   511.27163      1336.4516      1847.7232      127.10666      299.10061      0.21800711   
    926000   498.80516      1372.3789      1871.1841      73.081134      307.14122      0.21400658   
    927000   516.28255      1369.8869      1886.1694      143.78209      306.58349      0.20964412   
    928000   502.67531      1373.5824      1876.2577      190.95888      307.41056      0.20354831   
    929000   516.48205      1356.4071      1872.8892      281.36883      303.5667       0.20284038   
    930000   491.30047      1379.5806      1870.881       368.7549       308.75296      0.20704205   
    931000   503.19586      1367.3044      1870.5003      404.87338      306.00553      0.21224046   
    932000   487.70585      1336.0867      1823.7926      413.36349      299.01895      0.22086655   
    933000   488.62562      1332.9278      1821.5534      311.66254      298.31198      0.22722471   
    934000   501.71416      1323.1413      1824.8554      231.60551      296.12173      0.22646874   
    935000   478.55461      1313.8306      1792.3852      146.1828       294.03799      0.21690623   
    936000   452.49897      1340.7048      1793.2038      97.609271      300.05249      0.21094414   
    937000   518.16384      1320.4061      1838.5699      36.10228       295.50959      0.20934623   
    938000   498.76726      1322.4034      1821.1707      78.009508      295.9566       0.20887071   
    939000   521.42807      1314.168       1835.596       105.26491      294.11349      0.20530816   
    940000   506.13744      1350.9929      1857.1303      180.89091      302.35498      0.20220097   
    941000   503.36793      1381.8078      1885.1757      212.20173      309.25141      0.20056824   
    942000   487.22316      1362.0803      1849.3035      197.64314      304.83637      0.20114642   
    943000   538.40527      1345.2918      1883.697       174.7157       301.07906      0.20733908   
    944000   505.90355      1423.0051      1928.9086      174.05336      318.47146      0.21725615   
    945000   493.45415      1363.3392      1856.7933      143.27972      305.11811      0.21984269   
    946000   491.42637      1345.5418      1836.9682      105.767        301.13502      0.21716328   
    947000   492.81929      1368.0027      1860.822       151.02057      306.1618       0.21398288   
    948000   496.91347      1396.2298      1893.1433      218.4948       312.47909      0.2111816    
    949000   497.85253      1374.6611      1872.5136      184.68534      307.65197      0.20634538   
    950000   507.21787      1335.6006      1842.8185      127.57607      298.91016      0.2016189    
    951000   508.50503      1331.7221      1840.2271      148.31085      298.04214      0.20224367   
    952000   467.86513      1307.7386      1775.6038      135.72659      292.67459      0.20421898   
    953000   489.83146      1316.5788      1806.4103      154.23171      294.65304      0.20753343   
    954000   499.01538      1307.1924      1806.2078      147.92371      292.55234      0.20877341   
    955000   500.17242      1299.8603      1800.0328      153.37507      290.91141      0.20908456   
    956000   475.67404      1273.8489      1749.523       130.9119       285.09001      0.20792819   
    957000   496.903        1321.5446      1818.4476      209.18217      295.76439      0.20833915   
    958000   502.02743      1320.2034      1822.2308      212.48628      295.46423      0.20867075   
    959000   480.37715      1293.6931      1774.0703      142.24877      289.53118      0.2046633    
    960000   515.55552      1339.3649      1854.9204      90.971708      299.7526       0.19970668   
    961000   518.78062      1343.9346      1862.7153      121.10298      300.77533      0.19691995   
    962000   508.45212      1343.3095      1851.7616      130.50559      300.63542      0.19597828   
    963000   509.69045      1331.856       1841.5465      199.27766      298.07211      0.20132013   
    964000   468.84616      1363.7008      1832.5469      298.93576      305.19903      0.2116295    
    965000   501.90526      1349.475       1851.3803      314.00633      302.01528      0.21744656   
    966000   473.69076      1360.2129      1833.9037      319.82466      304.41845      0.21470943   
    967000   491.10248      1384.5443      1875.6468      287.37717      309.86385      0.21125214   
    968000   512.94941      1393.8387      1906.7881      155.74512      311.94396      0.20626567   
    969000   508.26747      1413.8811      1922.1485      95.795211      316.42949      0.20244847   
    970000   510.5379       1346.5618      1857.0997      0.57138703     301.36331      0.19951207   
    971000   499.34469      1337.2912      1836.6359      91.63059       299.28852      0.20361355   
    972000   483.22627      1327.2988      1810.5251      196.49819      297.05219      0.20874718   
    973000   492.89938      1315.2476      1808.147       198.32887      294.35511      0.2141569    
    974000   502.55801      1307.1556      1809.7136      193.43841      292.54411      0.21859623   
    975000   493.54425      1281.0141      1774.5584      176.91857      286.6936       0.22429533   
    976000   461.46247      1332.2812      1793.7437      111.58527      298.16728      0.22742158   
    977000   478.73876      1303.7011      1782.4399      107.81816      291.77099      0.22354303   
    978000   487.79718      1328.3737      1816.1709      102.20422      297.29276      0.21215618   
    979000   495.05975      1327.0091      1822.0688      128.54768      296.98736      0.20424655   
    980000   503.86381      1318.9697      1822.8335      195.45554      295.18813      0.20475165   
    981000   501.79706      1366.2605      1868.0576      269.1304       305.77191      0.20818894   
    982000   469.87753      1347.2403      1817.1178      281.05586      301.51514      0.20966467   
    983000   503.04341      1345.8334      1848.8768      250.93073      301.20027      0.21030654   
    984000   498.80946      1356.7262      1855.5356      272.21458      303.6381       0.20807977   
    985000   517.5432       1357.4316      1874.9748      264.1004       303.79597      0.20542695   
    986000   526.70451      1393.0012      1919.7057      232.21893      311.75653      0.20299433   
    987000   532.84545      1374.6527      1907.4982      99.916596      307.6501       0.20446205   
    988000   492.53109      1350.7845      1843.3156      89.356969      302.30835      0.21277479   
    989000   503.0489       1334.3959      1837.4448      105.15493      298.64055      0.21843559   
    990000   513.71294      1352.0286      1865.7415      132.94252      302.58677      0.21925386   
    991000   494.32673      1365.9006      1860.2273      144.80728      305.69136      0.21422869   
    992000   485.15894      1366.4301      1851.589       212.08181      305.80986      0.21014011   
    993000   474.03893      1324.2742      1798.3131      248.73071      296.37528      0.20822627   
    994000   517.78944      1309.1503      1826.9397      244.60796      292.99052      0.20551529   
    995000   488.76788      1359.8474      1848.6153      200.13125      304.33664      0.20133654   
    996000   531.30594      1338.3116      1869.6175      168.76364      299.51688      0.19738614   
    997000   502.80477      1362.9892      1865.794       121.02605      305.03978      0.19558906   
    998000   541.39242      1377.6976      1919.0901      132.99269      308.33156      0.19951166   
    999000   510.16478      1326.0325      1836.1972      209.92572      296.76879      0.20968968   
   1000000   499.21846      1341.8875      1841.106       237.84843      300.31719      0.21627324   
   1001000   493.9535       1331.6924      1825.6459      252.06092      298.03548      0.21496024   
   1002000   517.88882      1294.5609      1812.4497      212.88576      289.72539      0.20872626   
   1003000   515.43618      1351.7212      1867.1573      206.25196      302.51797      0.20263834   
   1004000   535.8761       1375.0146      1910.8907      153.10334      307.73109      0.20040585   
   1005000   522.41703      1379.9838      1902.4008      89.293201      308.8432       0.20143512   
   1006000   496.20348      1369.6749      1865.8784      104.69032      306.53605      0.20729254   
   1007000   492.55663      1354.4438      1847.0005      112.32347      303.12731      0.21625762   
   1008000   490.47039      1305.7343      1796.2047      146.55585      292.22601      0.22106516   
   1009000   483.16303      1306.0098      1789.1728      159.75967      292.28767      0.21630629   
   1010000   481.17483      1374.2442      1855.419       130.08127      307.55868      0.20824452   
   1011000   509.84455      1349.0208      1858.8653      204.78729      301.91362      0.207244     
   1012000   509.09854      1340.1376      1849.2361      175.8691       299.92555      0.20591526   
   1013000   516.23909      1321.9935      1838.2325      173.79655      295.86485      0.20578192   
   1014000   497.93232      1340.0017      1837.934       199.47739      299.89513      0.20598371   
   1015000   511.15081      1369.7126      1880.8634      105.32701      306.5445       0.2053999    
   1016000   483.4676       1323.8325      1807.3001      167.76084      296.27642      0.20872284   
   1017000   484.82291      1289.9284      1774.7513      168.0855       288.68862      0.21644324   
   1018000   486.90477      1273.5041      1760.4089      239.17494      285.01283      0.22410051   
   1019000   479.14865      1319.8613      1799.01        246.66055      295.38767      0.22572158   
   1020000   474.05157      1299.0893      1773.1409      219.50254      290.73886      0.22288341   
   1021000   497.71864      1320.0238      1817.7424      243.58249      295.42404      0.21683807   
   1022000   519.12849      1333.5835      1852.712       159.08033      298.45873      0.20982665   
   1023000   529.89086      1346.0588      1875.9497      91.409616      301.25073      0.20572854   
   1024000   524.77142      1348.9056      1873.677       67.703097      301.88785      0.20449621   
   1025000   527.28885      1387.1197      1914.4085      38.323154      310.44023      0.20586817   
   1026000   510.85028      1370.2403      1881.0906      115.00178      306.6626       0.2085475    
   1027000   494.4031       1359.3152      1853.7183      269.09901      304.21753      0.21010096   
   1028000   497.56124      1375.7964      1873.3576      377.25134      307.90606      0.21161409   
   1029000   504.15366      1385.5564      1889.71        392.58403      310.09036      0.21431227   
   1030000   520.43279      1358.1732      1878.606       299.85424      303.96194      0.21577762   
   1031000   509.82321      1366.6598      1876.483       154.76707      305.86127      0.21415519   
   1032000   532.9353       1332.8294      1865.7647      55.927792      298.28996      0.21319495   
   1033000   493.31216      1390.6573      1883.9695      107.56932      311.23196      0.21252558   
   1034000   507.86662      1367.3269      1875.1935      160.04925      306.01057      0.21268668   
   1035000   505.70483      1349.1329      1854.8377      253.81532      301.93871      0.21183242   
   1036000   520.07724      1343.0286      1863.1059      193.94966      300.57256      0.2077693    
   1037000   477.28175      1331.5679      1808.8496      198.27872      298.00762      0.20611675   
   1038000   512.26438      1336.3662      1848.6306      150.34257      299.08151      0.20841782   
   1039000   473.71164      1367.4591      1841.1708      200.70829      306.04016      0.21453637   
   1040000   498.7313       1321.5486      1820.2799      203.49107      295.76529      0.21827342   
   1041000   486.45167      1293.2811      1779.7327      221.82888      289.43896      0.21643639   
   1042000   511.76809      1306.2514      1818.0194      174.99185      292.34173      0.20963399   
   1043000   505.92841      1338.1532      1844.0816      151.23674      299.48142      0.20150479   
   1044000   494.72563      1328.9599      1823.6855      161.71545      297.42395      0.2005136    
   1045000   533.85482      1304.5769      1838.4317      115.27051      291.96699      0.20036914   
   1046000   511.80288      1353.7273      1865.5302      108.00789      302.96695      0.20158488   
   1047000   499.14573      1381.8694      1881.0151      181.13016      309.2652       0.20391124   
   1048000   534.85622      1311.5478      1846.404       238.29482      293.52708      0.20596848   
   1049000   505.04657      1339.1477      1844.1942      280.11121      299.704        0.20896176   
   1050000   507.08968      1320.7675      1827.8572      248.61018      295.59048      0.21207287   
   1051000   509.33526      1333.9301      1843.2653      242.63091      298.53628      0.21269634   
   1052000   492.91992      1334.7776      1827.6975      100.63737      298.72597      0.2102775    
   1053000   482.53653      1352.3522      1834.8887      101.31949      302.65919      0.21362022   
   1054000   477.01844      1357.8882      1834.9067      143.4604       303.89817      0.21849214   
   1055000   474.8973       1392.795       1867.6923      205.64938      311.71039      0.22056429   
   1056000   482.16233      1356.2443      1838.4066      244.37004      303.53025      0.21963355   
   1057000   493.49236      1359.6455      1853.1379      285.21489      304.29145      0.21830971   
   1058000   510.38031      1337.2673      1847.6476      364.60633      299.28316      0.21755312   
   1059000   500.74856      1354.5606      1855.3092      377.6262       303.15345      0.2129916    
   1060000   524.29125      1337.6379      1861.9292      388.74854      299.36611      0.20673256   
   1061000   522.05809      1312.9765      1835.0346      253.41357      293.84683      0.20220247   
   1062000   492.71961      1342.2302      1834.9498      233.88887      300.39387      0.202918     
   1063000   481.96234      1368.5373      1850.4997      140.25297      306.28146      0.20824678   
   1064000   480.80504      1349.2802      1830.0852      15.046698      301.97168      0.21483283   
   1065000   493.12261      1317.5731      1810.6957      46.16814       294.87556      0.22230131   
   1066000   479.70985      1326.7306      1806.4404      49.831538      296.92502      0.22502725   
   1067000   503.61034      1292.0718      1795.6821      203.12502      289.16831      0.22484045   
   1068000   447.93786      1308.4628      1756.4006      277.49929      292.83666      0.21882162   
   1069000   472.59164      1316.6719      1789.2635      281.67048      294.67387      0.21090566   
   1070000   495.11074      1310.3917      1805.5024      237.55035      293.26835      0.20414941   
   1071000   496.46225      1319.16        1815.6222      212.4243       295.23071      0.20204238   
   1072000   513.23043      1319.3121      1832.5425      203.50129      295.26475      0.20252163   
   1073000   526.1756       1331.1633      1857.3389      144.41989      297.91707      0.20355169   
   1074000   504.31976      1346.6515      1850.9712      190.59393      301.38337      0.20502186   
   1075000   503.94935      1351.9612      1855.9105      203.64888      302.57169      0.20560629   
   1076000   520.75719      1346.092       1866.8491      242.54071      301.25814      0.21496766   
   1077000   466.27534      1379.0454      1845.3208      287.58801      308.6332       0.22212535   
   1078000   494.97027      1344.1796      1839.1498      227.36015      300.83014      0.2208209    
   1079000   521.56698      1337.21        1858.777       195.44905      299.27035      0.21668841   
   1080000   499.80111      1347.2716      1847.0727      132.42701      301.52215      0.21333733   
   1081000   530.10884      1367.742       1897.8508      138.69278      306.10347      0.21284626   
   1082000   498.2641       1357.3365      1855.6006      108.56192      303.77469      0.2116965    
   1083000   520.78954      1377.0325      1897.822       156.85889      308.18269      0.21206814   
   1084000   495.56683      1377.416       1872.9828      196.57939      308.26853      0.21286425   
   1085000   515.16031      1362.1702      1877.3305      206.45305      304.85649      0.20814067   
   1086000   526.60058      1334.0224      1860.623       169.24408      298.55695      0.20013223   
   1087000   535.86852      1364.1238      1899.9923      178.93876      305.29371      0.19577246   
   1088000   525.87359      1339.063       1864.9366      153.04991      299.68506      0.19934453   
   1089000   515.7441       1337.5763      1853.3204      112.18176      299.35232      0.20545809   
   1090000   512.03366      1353.1386      1865.1722      39.85773       302.83519      0.20995744   
   1091000   492.03058      1373.5399      1865.5705      44.800472      307.40105      0.21025588   
   1092000   500.52465      1373.5728      1874.0974      91.472088      307.40841      0.20929569   
   1093000   520.36092      1331.3637      1851.7246      199.21731      297.96193      0.20751888   
   1094000   492.9386       1317.0546      1809.9932      212.58867      294.75953      0.20400098   
   1095000   502.38333      1352.0358      1854.4192      260.25788      302.5884       0.20583446   
   1096000   493.95557      1370.9137      1864.8692      242.66108      306.81329      0.2185211    
   1097000   478.44589      1323.5839      1802.0298      105.10841      296.22079      0.22672175   
   1098000   477.19807      1308.2027      1785.4008      61.104596      292.77845      0.22492823   
   1099000   482.58818      1353.7554      1836.3436      24.325104      302.97325      0.21872612   
   1100000   497.0838       1351.7207      1848.8045      21.20367       302.51787      0.21641202   
   1101000   477.2473       1326.2218      1803.4691      87.927008      296.81115      0.21564027   
   1102000   462.95483      1355.6931      1818.6479      232.49708      303.40689      0.21498126   
   1103000   485.17578      1275.2823      1760.4581      266.85397      285.41079      0.21108364   
   1104000   497.13751      1312.1765      1809.314       281.36862      293.66779      0.20989518   
   1105000   481.22648      1330.9866      1812.2131      236.00764      297.87754      0.21571803   
   1106000   462.50183      1322.498       1784.9998      162.63535      295.97776      0.2271268    
   1107000   485.24716      1284.1361      1769.3833      71.573786      287.39231      0.22885057   
   1108000   487.08667      1283.8065      1770.8932      135.54818      287.31854      0.2237501    
   1109000   475.3926       1355.6921      1831.0847      180.05752      303.40668      0.21932881   
   1110000   470.7527       1338.8037      1809.5564      256.53654      299.62703      0.22013778   
   1111000   482.52796      1331.2156      1813.7436      289.85958      297.92879      0.22168224   
   1112000   451.5075       1346.4507      1797.9582      325.82624      301.33842      0.22663773   
   1113000   470.01238      1335.4613      1805.4737      328.92111      298.87898      0.23766465   
   1114000   474.04867      1350.9156      1824.9643      263.0317       302.33768      0.24487012   
   1115000   466.80869      1374.5169      1841.3256      311.78594      307.6197       0.24618539   
   1116000   478.21175      1342.8803      1821.092       210.96404      300.53936      0.23340113   
   1117000   488.72471      1329.5148      1818.2395      108.55818      297.54814      0.22531291   
   1118000   482.53023      1335.2839      1817.8141      116.8562       298.83928      0.22486086   
   1119000   493.36127      1379.8274      1873.1887      70.630596      308.8082       0.22091884   
   1120000   486.43843      1384.1918      1870.6302      158.65438      309.78497      0.21473961   
   1121000   515.70556      1359.3162      1875.0218      175.31824      304.21776      0.20708761   
   1122000   522.84947      1346.8019      1869.6514      120.42201      301.41704      0.20399978   
   1123000   487.98786      1325.1408      1813.1287      65.92181       296.56924      0.20549441   
   1124000   511.19759      1381.9901      1893.1876      87.747321      309.29221      0.20993447   
   1125000   529.0384       1367.9529      1896.9913      119.11242      306.15068      0.2140756    
   1126000   475.79927      1399.1028      1874.9021      168.80903      313.12208      0.21247298   
   1127000   517.52768      1346.4698      1863.9974      190.99373      301.3427       0.20549299   
   1128000   510.5583       1375.9685      1886.5268      294.08082      307.94457      0.20241928   
   1129000   496.74659      1305.6075      1802.354       314.66007      292.19763      0.20211293   
   1130000   501.79849      1336.2334      1838.0319      286.17724      299.05177      0.20508054   
   1131000   504.80682      1341.93        1846.7369      178.08084      300.3267       0.20808345   
   1132000   494.62262      1369.656       1864.2787      136.81872      306.53183      0.21504285   
   1133000   488.04255      1360.2313      1848.2738      118.57834      304.42256      0.22029825   
   1134000   505.26232      1362.4591      1867.7214      142.53575      304.92115      0.22366826   
   1135000   508.08886      1362.0961      1870.185       242.8204       304.83991      0.22616978   
   1136000   494.89002      1340.0958      1834.9858      234.36961      299.91618      0.22283276   
   1137000   492.88007      1371.2296      1864.1096      238.09615      306.88399      0.21836293   
   1138000   526.38221      1413.0488      1939.431       195.98686      316.24322      0.2128479    
   1139000   515.84552      1360.9115      1876.757       172.75449      304.57478      0.20917989   
   1140000   497.25262      1358.7207      1855.9734      125.35549      304.08449      0.20879939   
   1141000   483.6624       1379.0364      1862.6988      161.42623      308.63117      0.2185651    
   1142000   491.95519      1398.4629      1890.4181      118.83462      312.97887      0.22851217   
   1143000   495.86422      1362.2163      1858.0805      158.5684       304.8668       0.22876639   
   1144000   506.41937      1353.8785      1860.2979      251.20915      303.00079      0.22257384   
   1145000   505.30761      1336.3656      1841.6732      220.66147      299.08136      0.21459952   
   1146000   515.08454      1306.9179      1822.0024      231.35958      292.4909       0.20903905   
   1147000   508.9407       1280.3744      1789.3151      202.87197      286.55042      0.2056794    
   1148000   492.26559      1302.404       1794.6696      99.739637      291.48068      0.20323829   
   1149000   472.89199      1331.8168      1804.7088      71.540753      298.06333      0.20874981   
   1150000   484.58628      1331.921       1816.5073      78.214396      298.08665      0.21585624   
   1151000   476.08001      1315.6592      1791.7392      84.268782      294.44723      0.21651451   
   1152000   507.83623      1274.5173      1782.3535      159.11668      285.23959      0.21654308   
   1153000   469.20655      1298.8611      1768.0677      165.32535      290.68778      0.21499615   
   1154000   493.49011      1322.3175      1815.8076      175.60618      295.93737      0.21194559   
   1155000   493.54083      1324.2546      1817.7954      134.73087      296.3709       0.20767241   
   1156000   478.72563      1385.0374      1863.763       113.82447      309.9742       0.20176359   
   1157000   527.39303      1383.5998      1910.9928      88.605886      309.65247      0.19052862   
   1158000   585.93209      1366.4739      1952.406       105.02371      305.81967      0.18801661   
   1159000   531.73578      1342.1362      1873.872       150.3769       300.37284      0.19340225   
   1160000   538.2551       1369.4648      1907.7199      251.42063      306.48902      0.20337144   
   1161000   486.66415      1354.541       1841.2052      292.27169      303.14907      0.20808829   
   1162000   503.52521      1340.1811      1843.7063      305.26773      299.93527      0.2126564    
   1163000   529.02889      1382.8405      1911.8694      199.28409      309.48254      0.21167522   
   1164000   487.43341      1364.4895      1851.9229     -3.767203       305.37556      0.21052153   
   1165000   508.30405      1347.3289      1855.6329     -80.288552      301.53497      0.21424404   
   1166000   529.38778      1313.4919      1842.8797     -84.751069      293.96218      0.21886958   
   1167000   486.84181      1334.8833      1821.7251      46.745315      298.74963      0.22082924   
   1168000   486.79737      1302.9575      1789.7549      156.74384      291.60457      0.2142115    
   1169000   518.69213      1331.2215      1849.9136      286.25187      297.9301       0.20530985   
   1170000   506.82979      1304.7872      1811.617       303.81646      292.01405      0.20151526   
   1171000   522.34834      1312.5629      1834.9113      305.81939      293.75427      0.20407763   
   1172000   475.97165      1341.9442      1817.9159      200.07269      300.32988      0.20712097   
   1173000   458.63319      1336.5091      1795.1422      35.796081      299.11347      0.21312061   
   1174000   495.55556      1329.3972      1824.9527     -24.086809      297.52181      0.21950659   
   1175000   529.7372       1300.4224      1830.1596     -90.205831      291.03721      0.21975295   
   1176000   454.94278      1346.7499      1801.6927      35.916449      301.4054       0.21766929   
   1177000   485.57018      1366.541       1852.1112      136.57265      305.83468      0.21505111   
   1178000   513.42899      1322.3841      1835.8131      281.78068      295.95227      0.21272289   
   1179000   491.76162      1359.7189      1851.4805      350.44399      304.30787      0.20787239   
   1180000   490.3526       1366.6759      1857.0285      360.94666      305.86488      0.20671352   
   1181000   514.58177      1378.3553      1892.9371      292.39539      308.47875      0.21280677   
   1182000   488.34662      1356.7329      1845.0795      167.10805      303.6396       0.21868676   
   1183000   472.81913      1371.924       1844.7431      55.205757      307.03941      0.22211051   
   1184000   510.54915      1332.1531      1842.7023      45.601002      298.13861      0.22275481   
   1185000   502.81803      1349.4163      1852.2343      144.29901      302.00214      0.21994106   
   1186000   460.60902      1338.7082      1799.3172      203.33369      299.60564      0.21483715   
   1187000   494.03464      1321.8446      1815.8793      261.35566      295.83154      0.21337827   
   1188000   511.31661      1301.2219      1812.5385      282.81731      291.21614      0.21252391   
   1189000   473.31825      1342.6687      1815.987       365.59405      300.49202      0.21327726   
   1190000   499.69751      1317.5262      1817.2237      365.22266      294.86507      0.21464777   
   1191000   508.73829      1328.3144      1837.0527      239.06077      297.27949      0.21230271   
   1192000   486.81102      1310.7678      1797.5789      76.65647       293.35253      0.21136039   
   1193000   492.13564      1339.9247      1832.0604     -27.265603      299.87791      0.21151253   
   1194000   503.29677      1302.5797      1805.8764     -145.38195      291.52         0.20944504   
   1195000   491.66429      1336.5152      1828.1795     -70.611915      299.11485      0.20870864   
   1196000   481.19698      1341.8039      1823.0009      49.703571      300.29847      0.20769065   
   1197000   502.18816      1295.7374      1797.9255      158.41007      289.98869      0.20301723   
   1198000   524.53301      1329.3101      1853.8431      211.18924      297.50232      0.19447871   
   1199000   500.55154      1337.3957      1837.9473      272.9319       299.31191      0.19576041   
   1200000   499.52261      1331.6952      1831.2178      238.19055      298.03613      0.20280397   
   1201000   489.29009      1324.4368      1813.7268      208.692        296.41166      0.21314429   
   1202000   502.80185      1314.8026      1817.6044      81.983853      294.25551      0.21595592   
   1203000   487.39339      1310.4041      1797.7975      20.473015      293.27113      0.21360264   
   1204000   472.18189      1289.4005      1761.5824      68.488231      288.57049      0.21310233   
   1205000   499.08736      1332.6184      1831.7057      114.64669      298.24272      0.21259456   
   1206000   531.18531      1284.2337      1815.419       78.364317      287.41413      0.20919168   
   1207000   516.28614      1347.5209      1863.807       174.47738      301.57794      0.20650468   
   1208000   486.54249      1360.042       1846.5845      107.52802      304.38018      0.20279402   
   1209000   518.68451      1332.0688      1850.7533      85.246957      298.11974      0.20085493   
   1210000   503.68237      1317.9255      1821.6079      91.350854      294.95444      0.20462583   
   1211000   490.95168      1346.5505      1837.5022      179.45288      301.36076      0.21625529   
   1212000   492.03189      1389.9399      1881.9718      205.31333      311.07139      0.21974501   
   1213000   509.05642      1352.4897      1861.5461      231.28567      302.68996      0.21773323   
   1214000   514.36686      1336.5119      1850.8788      274.60511      299.11411      0.21482799   
   1215000   503.19211      1333.0997      1836.2918      213.00474      298.35046      0.21389746   
   1216000   492.90115      1289.494       1782.3951      202.02703      288.5914       0.21740208   
   1217000   482.86189      1327.2103      1810.0722      187.42965      297.03239      0.21709453   
   1218000   510.12623      1324.6655      1834.7917      89.574176      296.46285      0.20543228   
   1219000   509.28443      1393.3461      1902.6305      28.454825      311.83371      0.19670592   
   1220000   523.70429      1356.3552      1880.0594      96.957025      303.55507      0.19712464   
   1221000   527.04294      1360.9886      1888.0315      98.210224      304.59204      0.19864639   
   1222000   522.95881      1372.8845      1895.8433      170.65424      307.25437      0.20573438   
   1223000   487.38553      1392.5011      1879.8867      217.54838      311.64461      0.21279985   
   1224000   495.31747      1313.9446      1809.2621      230.19567      294.0635       0.21668593   
   1225000   493.94543      1335.4714      1829.4168      233.6032       298.88123      0.220892     
   1226000   478.02265      1362.2662      1840.2888      257.13393      304.87797      0.22333992   
   1227000   503.18921      1332.4125      1835.6017      173.37041      298.19665      0.21989966   
   1228000   478.67032      1350.9999      1829.6702      244.40606      302.35654      0.21699745   
   1229000   500.28328      1312.9838      1813.2671      222.33827      293.84847      0.21118457   
   1230000   488.316        1277.5392      1765.8552      196.58276      285.91589      0.20409115   
   1231000   525.89001      1337.5744      1863.4644      170.01884      299.35189      0.19478054   
   1232000   489.09785      1379.1148      1868.2127      142.04209      308.64872      0.19192821   
   1233000   492.4166       1338.7464      1831.1629      145.09706      299.61418      0.1989692    
   1234000   471.22118      1319.4064      1790.6276      130.57982      295.28586      0.20895884   
   1235000   499.96817      1328.1755      1828.1436      146.557        297.2484       0.21369783   
   1236000   521.91016      1300.2975      1822.2076      139.12037      291.00924      0.21320018   
   1237000   501.24888      1315.3733      1816.6222      186.28971      294.38325      0.21035383   
   1238000   522.0741       1312.8578      1834.9319      195.23534      293.82027      0.20524433   
   1239000   511.82647      1337.4421      1849.2686      210.49815      299.32229      0.20083917   
   1240000   546.78505      1304.3899      1851.1749      240.50286      291.92513      0.19806133   
   1241000   515.71686      1312.1709      1827.8877      242.31033      293.66653      0.19968501   
   1242000   484.60062      1353.7689      1838.3695      213.60705      302.97626      0.20804675   
   1243000   469.4812       1322.332       1791.8132      105.2508       295.94062      0.21849571   
   1244000   455.19593      1308.0684      1763.2644      35.718829      292.7484       0.22033433   
   1245000   509.65413      1326.2376      1835.8917      13.812501      296.8147       0.21460017   
   1246000   527.51993      1352.5413      1880.0613      82.27175       302.70153      0.20948876   
   1247000   494.8232       1341.27        1836.0932      242.32946      300.17899      0.20700283   
   1248000   509.30429      1337.8815      1847.1858      357.00591      299.42063      0.20745281   
   1249000   516.34349      1337.5702      1853.9136      425.55313      299.35095      0.20977522   
   1250000   496.11246      1322.9465      1819.059       372.27541      296.07814      0.21108638   
   1251000   511.8122       1321.3161      1833.1283      287.6479       295.71325      0.21346623   
   1252000   483.72448      1354.4126      1838.1371      142.24415      303.12031      0.21327916   
   1253000   477.02973      1336.6171      1813.6468      32.027438      299.13764      0.20725701   
   1254000   519.8438       1297.5706      1817.4144     -44.145644      290.39897      0.20009117   
   1255000   496.66053      1291.5962      1788.2567     -40.299934      289.06188      0.19894571   
   1256000   481.83439      1342.2894      1824.1238      91.901027      300.40713      0.20567268   
   1257000   531.5327       1311.0135      1842.5462      211.71943      293.40751      0.2116304    
   1258000   500.31828      1319.8711      1820.1894      219.34543      295.38986      0.21302418   
   1259000   505.56971      1244.2791      1749.8488      235.7902       278.47221      0.21240576   
   1260000   483.68894      1318.4576      1802.1465      214.03934      295.07352      0.20926352   
   1261000   489.46062      1336.6094      1826.0701      158.27873      299.13594      0.2053672    
   1262000   503.50933      1333.0662      1836.5755      78.601391      298.34294      0.20138423   
   1263000   490.15609      1345.2218      1835.3779      37.667813      301.06341      0.20037366   
   1264000   520.73955      1274.7509      1795.4904      102.98348      285.29186      0.20680229   
   1265000   505.79352      1349.514       1855.3075      143.4031       302.024        0.21244138   
   1266000   494.33162      1367.3042      1861.6358      209.43686      306.00549      0.21499151   
   1267000   508.20736      1372.455       1880.6624      259.69028      307.15826      0.21593779   
   1268000   501.28573      1336.4181      1837.7038      260.63992      299.0931       0.21150279   
   1269000   539.53614      1313.4908      1853.027       197.65321      293.96194      0.20420861   
   1270000   496.75193      1350.2351      1846.987       193.63582      302.18539      0.20161749   
   1271000   511.15484      1325.1169      1836.2717      151.3799       296.56387      0.2035949    
   1272000   489.32997      1325.5039      1814.8339      103.22366      296.6505       0.207261     
   1273000   494.05076      1340.4312      1834.482       153.49027      299.99126      0.21180919   
   1274000   509.03051      1321.5961      1830.6266      148.6112       295.77591      0.21404138   
   1275000   511.85866      1341.4761      1853.3348      166.46799      300.2251       0.21649192   
   1276000   499.02217      1372.5563      1871.5785      206.42214      307.18092      0.22134562   
   1277000   514.93195      1367.8401      1882.7721      168.44643      306.12542      0.2216859    
   1278000   483.4094       1378.3959      1861.8053      159.61365      308.48782      0.21589012   
   1279000   509.22152      1353.2884      1862.5099      145.41455      302.86872      0.20842634   
   1280000   541.86269      1368.4414      1910.304       149.33728      306.25998      0.20649724   
   1281000   518.77378      1341.6866      1860.4604      193.07935      300.27222      0.20778943   
   1282000   529.69001      1371.6901      1901.3802      163.81719      306.98707      0.20938938   
   1283000   480.40781      1378.9772      1859.385       138.98565      308.61793      0.21536141   
   1284000   496.39468      1347.777       1844.1717      200.66439      301.63526      0.22452731   
   1285000   456.55028      1350.1815      1806.7318      176.67275      302.17339      0.2274115    
   1286000   484.08896      1311.9024      1795.9913      145.72945      293.60644      0.22462597   
   1287000   513.71814      1334.8994      1848.6175      89.672382      298.75322      0.21545747   
   1288000   512.45426      1347.5814      1860.0357      114.20151      301.59149      0.21218414   
   1289000   524.70346      1321.3285      1846.032       97.361109      295.71604      0.21229295   
   1290000   517.85067      1321.1648      1839.0155      111.88963      295.6794       0.2129654    
   1291000   494.24682      1316.1785      1810.4253      191.68246      294.56346      0.21141221   
   1292000   510.98623      1349.5816      1860.5678      250.44627      302.03914      0.20784767   
   1293000   520.5492       1339.6695      1860.2187      350.07649      299.82079      0.20917171   
   1294000   507.62948      1362.8493      1870.4788      350.0984       305.00848      0.20937592   
   1295000   520.09788      1365.7983      1885.8961      297.35897      305.66845      0.20824427   
   1296000   527.5561       1347.4228      1874.9789      211.27661      301.556        0.20505178   
   1297000   523.6645       1330.6376      1854.3021      121.19818      297.79943      0.20103402   
   1298000   537.06786      1319.6446      1856.7124      86.398791      295.33916      0.19920843   
   1299000   524.65538      1303.8908      1828.5462      108.90811      291.81345      0.20084421   
   1300000   552.65665      1303.9172      1856.5739      86.063118      291.81935      0.20579799   
   1301000   493.08891      1322.9157      1816.0047      198.75483      296.07126      0.21457495   
   1302000   509.46387      1322.3218      1831.7856      248.12952      295.93832      0.21771769   
   1303000   505.28267      1317.5364      1822.819       220.54919      294.86734      0.21759194   
   1304000   499.42017      1304.0859      1803.5061      223.84182      291.8571       0.21427305   
   1305000   496.38018      1267.4333      1763.8135      129.64658      283.65418      0.20858778   
   1306000   522.5745       1290.2502      1812.8247      70.43889       288.76064      0.20708671   
   1307000   505.70656      1329.1773      1834.8839      12.035493      297.47261      0.20503875   
   1308000   529.54863      1314.1852      1843.7338      8.3602801      294.11733      0.20067243   
   1309000   513.55702      1309.1263      1822.6833      100.92751      292.98515      0.19775306   
   1310000   493.14343      1274.1579      1767.3013      209.30686      285.15914      0.19939844   
   1311000   491.64384      1313.0718      1804.7157      253.40534      293.86817      0.20957593   
   1312000   481.98287      1359.63        1841.6129      259.02467      304.288        0.21681757   
   1313000   470.34603      1307.2571      1777.6031      139.31252      292.56682      0.21781821   
   1314000   514.92145      1304.3857      1819.3072      158.85066      291.92421      0.21853427   
   1315000   517.07301      1334.054       1851.127       147.02478      298.56403      0.21558441   
   1316000   522.27761      1337.4891      1859.7668      101.80255      299.33282      0.21076499   
   1317000   522.12975      1382.9554      1905.0852      118.68985      309.50826      0.20901756   
   1318000   533.87884      1347.0136      1880.8924      202.8064       301.4644       0.20995767   
   1319000   515.54668      1379.3246      1894.8713      333.21796      308.69568      0.2098584    
   1320000   523.91386      1340.886       1864.7999      416.66369      300.09304      0.21413082   
   1321000   509.76975      1374.9799      1884.7497      413.1561       307.72333      0.2212657    
   1322000   489.86078      1355.6349      1845.4957      261.34962      303.39387      0.22584055   
   1323000   488.06746      1323.4949      1811.5624      122.39239      296.20089      0.22367474   
   1324000   492.94751      1331.9787      1824.9263      86.03475       298.09958      0.21577844   
   1325000   497.86279      1320.8218      1818.6846      126.1732       295.60263      0.20615334   
   1326000   502.13309      1310.7612      1812.8942      93.929331      293.35104      0.20103369   
   1327000   538.91931      1320.8599      1859.7792      133.0794       295.61115      0.20120344   
   1328000   523.4585       1337.7479      1861.2063      118.3013       299.39072      0.20525742   
   1329000   488.11496      1382.3103      1870.4253      170.30327      309.36389      0.21289088   
   1330000   495.57405      1396.2178      1891.7919      218.00467      312.47641      0.21755535   
   1331000   502.21099      1361.1019      1863.3129      216.06062      304.6174       0.21730058   
   1332000   498.09507      1353.9798      1852.0749      297.58376      303.02346      0.21759037   
   1333000   516.62976      1350.6566      1867.2864      245.48962      302.27972      0.21854959   
   1334000   509.52404      1367.4469      1876.971       148.16382      306.03743      0.21808921   
   1335000   537.64133      1389.3462      1926.9876      77.40026       310.93854      0.21147892   
   1336000   521.79268      1353.8347      1875.6273     -11.04956       302.99097      0.19977792   
   1337000   504.62168      1348.5721      1853.1937      31.668653      301.8132       0.19694355   
   1338000   535.21144      1315.8099      1851.0213      53.719754      294.48095      0.20200729   
   1339000   492.99922      1350.2849      1843.2841      198.46889      302.19653      0.20993374   
   1340000   497.99713      1364.7669      1862.7641      266.43144      305.43764      0.21230763   
   1341000   513.67295      1369.7936      1883.4665      253.70122      306.56262      0.21100302   
   1342000   514.49256      1361.399       1875.8915      231.31279      304.68388      0.21207387   
   1343000   499.8861       1373.4062      1873.2923      150.52341      307.37112      0.21410574   
   1344000   508.91717      1364.867       1873.7842      95.953728      305.46004      0.21513551   
   1345000   520.65777      1324.9375      1845.5952      57.927696      296.52372      0.21699828   
   1346000   513.24765      1344.0053      1857.2529      111.02921      300.79114      0.22079423   
   1347000   476.62551      1352.1882      1828.8137      185.8075       302.62249      0.21908762   
   1348000   482.92109      1348.4292      1831.3503      138.27953      301.78123      0.21258201   
   1349000   506.81389      1289.3319      1796.1458      162.61307      288.55512      0.20492715   
   1350000   512.44948      1276.1667      1788.6161      183.52127      285.60872      0.20217715   
   1351000   521.98394      1299.2894      1821.2734      210.41288      290.78364      0.20347714   
   1352000   504.8257       1339.4556      1844.2813      160.52982      299.77292      0.20508029   
   1353000   494.67771      1371.6028      1866.2805      138.33065      306.96753      0.20692936   
   1354000   506.89732      1357.1662      1864.0635      144.94345      303.73658      0.21010779   
   1355000   518.37838      1335.5685      1853.9469      142.43019      298.90298      0.21304782   
   1356000   482.54107      1399.0111      1881.5522      268.84671      313.10155      0.21474561   
   1357000   501.52607      1351.2212      1852.7473      247.93145      302.40608      0.21180858   
   1358000   537.99615      1346.9997      1884.9958      157.77283      301.46129      0.20599655   
   1359000   513.14658      1351.0607      1864.2073      101.03189      302.37016      0.20536369   
   1360000   493.51517      1374.6981      1868.2132      106.39754      307.66025      0.21162724   
   1361000   497.56614      1375.6966      1873.2627      149.92781      307.88372      0.21786351   
   1362000   499.71628      1339.6433      1839.3596      185.59993      299.81491      0.21911389   
   1363000   511.74327      1340.9843      1852.7276      182.25906      300.11504      0.21801973   
   1364000   506.69         1341.6375      1848.3275      139.51629      300.26123      0.21526655   
   1365000   508.93015      1346.834       1855.7642      145.87524      301.42421      0.21410422   
   1366000   511.39222      1361.3994      1872.7917      123.99622      304.68399      0.21083864   
   1367000   495.96675      1350.4462      1846.413       108.51928      302.23264      0.20836737   
   1368000   495.71221      1344.0187      1839.7309      110.96072      300.79413      0.20956977   
   1369000   492.52827      1350.34        1842.8683      101.83208      302.20887      0.21076614   
   1370000   526.60787      1354.9833      1881.5911      95.837345      303.24804      0.20915195   
   1371000   540.34494      1359.2547      1899.5997      108.69135      304.204        0.20498877   
   1372000   549.53665      1373.5209      1923.0575      226.79808      307.39679      0.20301017   
   1373000   521.11465      1377.5757      1898.6904      219.49784      308.30427      0.2023306    
   1374000   522.18981      1359.0177      1881.2075      190.15046      304.15096      0.20690512   
   1375000   462.91295      1324.4689      1787.3819      151.55712      296.41887      0.21547585   
   1376000   494.75411      1315.3534      1810.1075      164.61293      294.37878      0.22229618   
   1377000   464.53326      1314.3565      1778.8897      104.82767      294.15567      0.21998747   
   1378000   505.73361      1271.861       1777.5946      107.16703      284.64511      0.21440665   
   1379000   512.6119       1312.026       1824.6379      155.57323      293.63412      0.21010984   
   1380000   510.04088      1334.667       1844.7078      296.17927      298.7012       0.20499911   
   1381000   517.56928      1320.7575      1838.3268      287.58444      295.58824      0.20019282   
   1382000   521.65358      1309.2207      1830.8742      214.65435      293.00627      0.20087555   
   1383000   507.98118      1268.4521      1776.4332      147.85054      283.88218      0.20696817   
   1384000   487.78873      1330.5386      1818.3273      195.1846       297.77726      0.21359988   
   1385000   480.66993      1357.6184      1838.2884      158.82298      303.83779      0.21496415   
   1386000   467.71773      1331.4974      1799.2152      185.42835      297.99186      0.21505593   
   1387000   497.91811      1335.2636      1833.1818      187.19609      298.83474      0.21336141   
   1388000   472.25905      1332.0349      1804.294       238.22704      298.11215      0.21082973   
   1389000   497.88814      1318.9908      1816.879       302.43751      295.19286      0.21042922   
   1390000   503.75698      1322.8237      1826.5807      335.77952      296.05066      0.2104243    
   1391000   526.81312      1326.4719      1853.285       279.95005      296.86714      0.2106555    
   1392000   492.34126      1386.4367      1878.778       184.90219      310.28739      0.2138839    
   1393000   508.79361      1340.0394      1848.833       38.688026      299.90356      0.21613985   
   1394000   517.1703       1339.5347      1856.705      -9.9720601      299.79061      0.21877546   
   1395000   512.17297      1345.0687      1857.2417      5.3342372      301.02913      0.2229399    
   1396000   484.13942      1285.4448      1769.5842      102.37587      287.68519      0.22745036   
   1397000   474.97587      1304.2043      1779.1801      203.42258      291.88359      0.2247039    
   1398000   520.52342      1311.9525      1832.476       293.51637      293.61767      0.21427829   
   1399000   525.24243      1345.2313      1870.4737      282.68149      301.06552      0.20786157   
   1400000   528.25746      1358.6821      1886.9395      229.02262      304.07584      0.20679268   
   1401000   489.02467      1397.2155      1886.2402      237.37212      312.69971      0.21051126   
   1402000   535.60067      1392.025       1927.6256      262.26669      311.53804      0.21556229   
   1403000   509.75775      1333.3866      1843.1443      260.25233      298.41465      0.21662137   
   1404000   505.48799      1341.4617      1846.9497      265.96352      300.22189      0.21674533   
   1405000   488.87032      1361.486       1850.3563      315.59653      304.70335      0.21589097   
   1406000   507.75407      1332.9045      1840.6586      284.10456      298.30676      0.21013775   
   1407000   507.41246      1351.6304      1859.0428      217.25322      302.49765      0.19921818   
   1408000   498.63836      1332.6426      1831.281       157.11237      298.24815      0.19579499   
   1409000   529.04205      1332.3833      1861.4254      114.35018      298.19012      0.19737926   
   1410000   494.16686      1349.4299      1843.5968      108.98194      302.00519      0.20322583   
   1411000   484.86004      1330.244       1815.104       124.74652      297.71133      0.20907965   
   1412000   515.96464      1291.5516      1807.5162      156.92568      289.05189      0.2114889    
   1413000   518.00327      1330.1312      1848.1344      230.34247      297.68609      0.21165258   
   1414000   529.72384      1305.6399      1835.3637      217.89448      292.20488      0.20947683   
   1415000   506.5973       1289.3153      1795.9126      231.80704      288.55142      0.20671805   
   1416000   518.98236      1342.559       1861.5414      151.82613      300.46747      0.19962397   
   1417000   513.56173      1308.164       1821.7258      50.515708      292.7698       0.19192311   
   1418000   547.60259      1321.9239      1869.5265      46.633748      295.84928      0.19147903   
   1419000   533.23408      1321.341       1854.5751      39.882744      295.71883      0.19673192   
   1420000   472.90647      1366.2697      1839.1762      153.00429      305.77397      0.21010426   
   1421000   503.7162       1388.6028      1892.319       334.83637      310.77217      0.21490997   
   1422000   516.60189      1410.974       1927.5759      369.64984      315.77887      0.21055597   
   1423000   508.1232       1401.0386      1909.1618      322.85594      313.55531      0.20530928   
   1424000   513.64096      1381.8129      1895.4539      202.80476      309.25257      0.20393817   
   1425000   527.59465      1353.7581      1881.3528      90.509386      302.97385      0.20735675   
   1426000   519.4864       1357.4747      1876.9611      66.725279      303.80563      0.21091017   
   1427000   510.81669      1361.7794      1872.5961      72.127183      304.76902      0.21255097   
   1428000   497.22445      1314.3047      1811.5291      87.779729      294.14409      0.21258083   
   1429000   509.28939      1344.8313      1854.1207      195.05991      300.97601      0.20942063   
   1430000   513.30403      1334.7491      1848.0531      291.44937      298.71958      0.20296226   
   1431000   502.29441      1362.3413      1864.6357      370.93254      304.89479      0.20063579   
   1432000   514.15151      1331.2056      1845.3571      348.14947      297.92654      0.20283996   
   1433000   488.26439      1348.1404      1836.4048      285.832        301.71659      0.21178502   
   1434000   493.79712      1328.3008      1822.0979      192.52604      297.27644      0.21888861   
   1435000   482.4816       1338.1036      1820.5852      125.59174      299.47034      0.21981078   
   1436000   534.31552      1311.8506      1846.1661      128.86677      293.59486      0.22074716   
   1437000   497.01572      1318.5861      1815.6019      140.78021      295.10229      0.21945835   
   1438000   489.98517      1339.1965      1829.1817      273.28732      299.71494      0.22006695   
   1439000   489.51596      1351.2843      1840.8002      302.98331      302.4202       0.22104111   
   1440000   488.07593      1349.1291      1837.2051      258.27113      301.93787      0.22328041   
   1441000   512.98019      1344.0833      1857.0635      135.85789      300.80859      0.22281265   
   1442000   509.6157       1327.9412      1837.5569      47.149784      297.19596      0.21991226   
   1443000   523.20279      1304.5557      1827.7585     -23.002608      291.96224      0.21418478   
   1444000   502.57849      1305.8306      1808.4091      12.771787      292.24758      0.20879736   
   1445000   527.59825      1322.117       1849.7153      53.000749      295.8925       0.20657026   
   1446000   517.49336      1375.2066      1892.7         97.106444      307.77407      0.20576329   
   1447000   546.42101      1337.263       1883.684       195.98222      299.28221      0.21413453   
   1448000   500.85774      1357.0936      1857.9513      285.171        303.72034      0.22738392   
   1449000   498.54655      1384.8268      1883.3734      276.5685       309.92708      0.22816914   
   1450000   502.15881      1358.2972      1860.456       309.0642       303.9897       0.22292298   
   1451000   494.03121      1357.1412      1851.1724      326.8291       303.73098      0.21452585   
   1452000   514.92628      1377.0934      1892.0197      319.30864      308.19634      0.21008596   
   1453000   510.75618      1331.8209      1842.5771      245.11231      298.06425      0.20564265   
   1454000   525.14449      1320.9269      1846.0714      175.7544       295.62616      0.20219676   
   1455000   480.77317      1367.9309      1848.7041      155.17527      306.14574      0.20389118   
   1456000   508.4754       1316.0438      1824.5192      118.28977      294.53331      0.20750473   
   1457000   505.58755      1317.4214      1823.0089      92.535071      294.84161      0.21295598   
   1458000   494.68366      1342.1097      1836.7934      193.56823      300.36692      0.22180247   
   1459000   466.43657      1285.3517      1751.7882      194.07307      287.66434      0.22512743   
   1460000   496.54513      1285.4613      1782.0064      109.69995      287.68887      0.22392604   
   1461000   487.34003      1338.6052      1825.9452      160.54178      299.58259      0.22147287   
   1462000   505.45064      1347.136       1852.5866      88.12952       301.4918       0.21387528   
   1463000   511.81682      1338.6847      1850.5015      139.17064      299.60039      0.21022934   
   1464000   490.83095      1360.1028      1850.9338      131.91725      304.39381      0.20954915   
   1465000   489.34468      1357.657       1847.0017      161.97711      303.84642      0.20973733   
   1466000   501.26009      1349.7145      1850.9746      237.02557      302.06888      0.2097316    
   1467000   499.71763      1360.7238      1860.4414      238.7012       304.53277      0.20803257   
   1468000   495.88415      1366.3338      1862.218       253.24909      305.78831      0.20567605   
   1469000   536.99364      1351.9288      1888.9225      200.71848      302.56444      0.20279596   
   1470000   520.27561      1338.335       1858.6106      155.24292      299.52211      0.20192842   
   1471000   487.50631      1317.1188      1804.6251      162.90492      294.77388      0.20560996   
   1472000   523.07698      1322.471       1845.548       129.14527      295.97172      0.21106604   
   1473000   511.73364      1300.5244      1812.2581      40.546611      291.06003      0.21691806   
   1474000   465.46812      1350.0994      1815.5675     -19.902323      302.15502      0.2223474    
   1475000   511.58318      1354.3436      1865.9267     -26.717663      303.10487      0.2210803    
   1476000   520.11462      1324.2205      1844.3351      79.979335      296.36326      0.21061575   
   1477000   511.84996      1301.7405      1813.5905      194.62962      291.33219      0.20232041   
   1478000   519.45318      1307.8211      1827.2743      249.58309      292.69305      0.19944773   
   1479000   520.44121      1312.1737      1832.615       327.88682      293.66718      0.19880888   
   1480000   512.9914       1326.6251      1839.6165      245.61895      296.90142      0.20080782   
   1481000   530.608        1326.9992      1857.6072      258.95917      296.98515      0.20502861   
   1482000   519.56516      1333.0998      1852.6649      179.42218      298.35047      0.20846757   
   1483000   490.66038      1366.3185      1856.9789      116.96985      305.78488      0.21296466   
   1484000   496.29085      1364.6666      1860.9575      73.500139      305.41519      0.21485509   
   1485000   506.71341      1291.445       1798.1584      8.0053052      289.02804      0.2099828    
   1486000   533.09259      1312.7485      1845.8411      31.479517      293.79581      0.20240805   
   1487000   516.60694      1321.1397      1837.7466      94.78258       295.67377      0.19712333   
   1488000   505.44118      1343.7901      1849.2313      105.89198      300.74298      0.19672736   
   1489000   551.23662      1306.1167      1857.3533      142.49594      292.3116       0.19992383   
   1490000   498.32001      1319.5284      1817.8484      189.40203      295.31316      0.20387449   
   1491000   494.77277      1338.5405      1833.3133      235.41959      299.56811      0.20895896   
   1492000   484.54713      1341.619       1826.1661      226.11183      300.25709      0.2137086    
   1493000   506.25768      1333.4023      1839.6599      255.38393      298.41816      0.22267013   
   1494000   504.30847      1360.1509      1864.4594      222.53372      304.40457      0.23108857   
   1495000   497.75947      1343.7833      1841.5428      193.94237      300.74146      0.23411723   
   1496000   515.33946      1365.4867      1880.8262      103.54089      305.59873      0.22632564   
   1497000   514.74945      1348.1794      1862.9289      27.248699      301.72532      0.21326718   
   1498000   520.32814      1365.2894      1885.6176      154.23886      305.55458      0.21172483   
   1499000   519.51072      1411.9606      1931.4713      269.55926      315.99967      0.21294713   
   1500000   484.51519      1357.3462      1841.8614      343.57947      303.77687      0.21594536   
   1501000   472.73324      1362.6489      1835.3821      391.48942      304.96362      0.21784631   
   1502000   496.11102      1356.3532      1852.4643      299.91592      303.55464      0.21774445   
   1503000   511.57562      1344.9357      1856.5113      217.03648      300.99936      0.22032328   
   1504000   500.45774      1363.9624      1864.4201      179.65749      305.25759      0.22501513   
   1505000   455.0697       1358.5633      1813.633       176.92869      304.04925      0.23095499   
   1506000   470.70259      1303.4093      1774.1119      175.1091       291.70567      0.23155535   
   1507000   481.94615      1316.1509      1798.0971      137.82318      294.55727      0.2245344    
   1508000   517.70013      1375.7762      1893.4763      97.997238      307.90154      0.21582283   
   1509000   515.57786      1378.6045      1894.1823      78.510489      308.53451      0.20867147   
   1510000   537.38735      1362.8534      1900.2408      22.76839       305.0094       0.20426754   
   1511000   510.62414      1376.992       1887.6161      86.346739      308.17363      0.20233304   
   1512000   527.03486      1318.6232      1845.6581      204.55677      295.11058      0.20270484   
   1513000   503.2703       1325.2306      1828.5009      260.80661      296.58932      0.20390853   
   1514000   526.60839      1325.9499      1852.5583      323.75615      296.7503       0.20801317   
   1515000   504.48364      1348.1285      1852.6122      329.29807      301.71393      0.21322395   
   1516000   482.11218      1348.1431      1830.2553      256.87445      301.7172       0.21622858   
   1517000   491.29215      1296.6216      1787.9138      193.11188      290.18658      0.21905031   
   1518000   508.29734      1328.7772      1837.0746      96.704173      297.38307      0.21732635   
   1519000   523.88943      1346.2897      1870.1792      103.69434      301.30241      0.21054253   
   1520000   485.02138      1345.0837      1830.1051      104.33352      301.0325       0.20307873   
   1521000   517.10628      1327.3481      1844.4544      80.589653      297.06324      0.19947989   
   1522000   556.48039      1316.7843      1873.2647      102.79901      294.69904      0.19996547   
   1523000   501.9826       1337.9556      1839.9382      121.46236      299.43721      0.20561313   
   1524000   484.49982      1332.3832      1816.883       147.47302      298.19009      0.21254639   
   1525000   464.05283      1310.4485      1774.5013      163.76022      293.28105      0.21699585   
   1526000   494.35487      1331.1378      1825.4927      144.20442      297.91138      0.21818791   
   1527000   504.54638      1322.5153      1827.0617      183.44752      295.98163      0.21737413   
   1528000   461.56563      1318.1955      1779.7611      235.96289      295.01486      0.21674493   
   1529000   510.25278      1334.6233      1844.876       328.02942      298.69143      0.21690883   
   1530000   499.23645      1316.1553      1815.3918      268.80951      294.55826      0.21181003   
   1531000   525.77714      1292.3639      1818.141       301.39281      289.23369      0.21008586   
   1532000   515.45927      1339.936       1855.3953      226.43727      299.88043      0.20918201   
   1533000   521.21619      1362.5195      1883.7357      118.99737      304.93466      0.21053194   
   1534000   515.19515      1331.5895      1846.7846      57.126422      298.01246      0.21709631   
   1535000   507.0978       1366.2405      1873.3383      75.71159       305.76744      0.22112586   
   1536000   493.55307      1352.8417      1846.3947      86.094027      302.76874      0.22270531   
   1537000   516.83517      1332.3626      1849.1978      129.62177      298.18549      0.22146835   
   1538000   507.68215      1348.7302      1856.4124      249.04257      301.84859      0.21742258   
   1539000   489.65412      1367.5931      1857.2472      256.65113      306.07014      0.21269973   
   1540000   463.90901      1401.4605      1865.3695      165.44677      313.64973      0.20705367   
   1541000   521.38958      1366.1255      1887.5151      101.66532      305.74169      0.20277606   
   1542000   521.99864      1382.714       1904.7127      125.59379      309.45424      0.20379832   
   1543000   511.71228      1368.1963      1879.9086      166.97886      306.20514      0.20957654   
   1544000   493.88954      1327.0294      1820.9189      219.25327      296.9919       0.21903571   
   1545000   491.80387      1331.958       1823.7618      250.69046      298.09492      0.22167245   
   1546000   497.561        1320.5209      1818.0819      222.30315      295.53529      0.21810224   
   1547000   492.44058      1317.1711      1809.6117      178.18425      294.7856       0.20993424   
   1548000   498.44187      1299.8006      1798.2424      158.57419      290.89803      0.206142     
   1549000   517.90231      1322.2488      1840.1511      119.70147      295.922        0.20482779   
   1550000   530.68501      1295.9648      1826.6498      55.586379      290.03959      0.2026539    
   1551000   511.82321      1343.6284      1855.4516      96.103217      300.70679      0.20407694   
   1552000   515.42944      1338.8154      1854.2449      143.57378      299.62964      0.20980955   
   1553000   482.40601      1371.5855      1853.9915      194.02246      306.96365      0.22251294   
   1554000   489.83378      1354.9049      1844.7387      285.80746      303.23051      0.23065246   
   1555000   495.27484      1378.9771      1874.2519      278.60629      308.6179       0.22666008   
   1556000   468.20587      1359.4685      1827.6743      228.29395      304.25183      0.22107629   
   1557000   530.59314      1345.614       1876.2071      228.0382       301.15116      0.21721419   
   1558000   506.93808      1338.9165      1845.8546      243.15812      299.65226      0.21119928   
   1559000   496.48336      1356.0479      1852.5313      243.88814      303.4863       0.21021297   
   1560000   510.52172      1354.5747      1865.0964      198.96493      303.1566       0.21048281   
   1561000   519.87747      1332.536       1852.4134      122.81596      298.22428      0.20994027   
   1562000   511.587        1341.189       1852.776       119.70177      300.16085      0.21119947   
   1563000   508.93512      1364.5665      1873.5017      119.72542      305.39279      0.21600963   
   1564000   518.92525      1337.9518      1856.877       181.96923      299.43635      0.22470754   
   1565000   485.9097       1379.2739      1865.1836      237.36403      308.68434      0.23042925   
   1566000   492.23537      1396.8537      1889.0891      320.89664      312.61873      0.22922089   
   1567000   504.33907      1335.1842      1839.5232      312.77205      298.81695      0.22110649   
   1568000   501.76191      1329.5014      1831.2633      215.70125      297.54514      0.21405989   
   1569000   526.89938      1313.8546      1840.754       207.95174      294.04335      0.21259185   
   1570000   517.3429       1331.5222      1848.8651      131.61703      297.99739      0.21012403   
   1571000   485.45848      1317.9192      1803.3777      116.53739      294.95302      0.20815973   
   1572000   520.74946      1323.2374      1843.9869      103.63871      296.14325      0.20955719   
   1573000   504.61078      1297.479       1802.0898      177.07293      290.37846      0.21519804   
   1574000   482.28743      1316.2555      1798.543       229.73704      294.58069      0.22018964   
   1575000   475.75254      1303.346       1779.0986      272.42001      291.69152      0.22496996   
   1576000   471.1407       1297.5372      1768.6779      250.73353      290.39148      0.22920948   
   1577000   482.94316      1313.9162      1796.8593      199.77818      294.05714      0.22785126   
   1578000   519.88859      1321.6328      1841.5214      113.66873      295.78413      0.21602331   
   1579000   537.7933       1296.1107      1833.9041      62.389241      290.07225      0.20840575   
   1580000   523.89723      1286.7424      1810.6397      1.3534004      287.9756       0.20509385   
   1581000   525.85269      1280.4443      1806.297      -3.5395121      286.56606      0.20599559   
   1582000   465.34182      1325.4746      1790.8164      89.948067      296.64393      0.20942617   
   1583000   530.28192      1301.9161      1832.198       135.18991      291.37149      0.21081179   
   1584000   516.57072      1300.254       1816.8247      118.7553       290.99952      0.21332187   
   1585000   469.69734      1282.8774      1752.5747      156.16099      287.1106       0.22015871   
   1586000   483.18987      1305.4985      1788.6884      234.17571      292.17325      0.23231138   
   1587000   499.03412      1320.8617      1819.8958      232.24651      295.61155      0.23399763   
   1588000   500.78227      1321.1469      1821.9292      217.71237      295.6754       0.2287966    
   1589000   493.46431      1369.7817      1863.246       270.82466      306.55996      0.22365234   
   1590000   487.52776      1370.8286      1858.3563      309.15424      306.79425      0.22014728   
   1591000   505.13977      1352.3847      1857.5244      248.31989      302.66646      0.21446929   
   1592000   508.52762      1368.4094      1876.9371      185.55258      306.25284      0.2120917    
   1593000   513.50743      1375.4444      1888.9519      135.49228      307.82729      0.21066702   
   1594000   517.79924      1341.0401      1858.8393      39.222219      300.12752      0.20711476   
   1595000   510.02628      1328.8798      1838.9061      69.2128        297.40603      0.20679951   
   1596000   507.63016      1346.5609      1854.191       194.30357      301.36309      0.2122891    
   1597000   503.84675      1356.6789      1860.5257      286.06562      303.62753      0.21995888   
   1598000   480.95503      1385.9257      1866.8808      303.84057      310.17303      0.22184946   
   1599000   492.65959      1364.0766      1856.7362      329.24486      305.28314      0.21769273   
   1600000   527.57971      1338.7942      1866.3739      287.44388      299.6249       0.20920071   
   1601000   519.43074      1348.1248      1867.5555      202.9563       301.71309      0.20316664   
   1602000   514.06834      1346.0077      1860.076       148.98158      301.23928      0.20313531   
   1603000   519.44414      1348.7582      1868.2023      91.255577      301.85484      0.20401689   
   1604000   520.32531      1322.0842      1842.4096      64.417602      295.88517      0.20741872   
   1605000   510.79561      1314.7102      1825.5058      108.8366       294.23485      0.21394899   
   1606000   500.43947      1332.1433      1832.5828      144.23468      298.13641      0.21654358   
   1607000   452.01444      1358.5465      1810.561       204.91662      304.0455       0.21802736   
   1608000   482.62412      1344.1779      1826.802       202.14533      300.82978      0.21886723   
   1609000   475.85967      1317.5631      1793.4228      210.83114      294.87332      0.21587384   
   1610000   505.058        1321.4226      1826.4806      328.25811      295.7371       0.21289748   
   1611000   489.04336      1308.027       1797.0703      271.76324      292.73912      0.2053105    
   1612000   518.5261       1319.8514      1838.3775      262.68594      295.38545      0.20133308   
   1613000   509.55961      1340.646       1850.2056      204.17971      300.03932      0.20412932   
   1614000   519.56706      1319.5444      1839.1114      138.53221      295.31674      0.20934415   
   1615000   489.47645      1327.348       1816.8245      129.53679      297.06321      0.21047083   
   1616000   469.30123      1253.2013      1722.5026      152.4201       280.46903      0.20947832   
   1617000   498.63476      1325.1046      1823.7394      205.99997      296.56113      0.21036643   
   1618000   501.27437      1329.9178      1831.1921      275.68985      297.63833      0.21286212   
   1619000   494.70615      1316.0831      1810.7893      229.59224      294.5421       0.21261674   
   1620000   476.90893      1335.5825      1812.4915      215.12288      298.90611      0.20861445   
   1621000   504.63454      1291.3316      1795.9662      136.85748      289.00267      0.20065152   
   1622000   516.97431      1337.7133      1854.6876      132.67615      299.38299      0.19744442   
   1623000   512.64377      1335.9878      1848.6316      168.09896      298.99681      0.2024435    
   1624000   496.84749      1319.4854      1816.3329      145.48529      295.30355      0.21026851   
   1625000   510.24269      1331.5319      1841.7746      139.09588      297.99957      0.2162075    
   1626000   483.88671      1326.5809      1810.4676      73.68287       296.89153      0.21780184   
   1627000   493.61912      1339.2759      1832.895       166.38474      299.73269      0.21538092   
   1628000   498.50366      1316.1423      1814.646       266.80539      294.55535      0.21080088   
   1629000   503.11073      1341.9815      1845.0922      337.16994      300.33821      0.20915023   
   1630000   514.43766      1324.985       1839.4227      342.34784      296.53437      0.21086921   
   1631000   502.49251      1324.3919      1826.8844      300.12407      296.40162      0.22053066   
   1632000   484.18913      1320.5464      1804.7355      269.01428      295.54099      0.23136636   
   1633000   478.0675       1336.0111      1814.0786      146.8796       299.00203      0.23054711   
   1634000   473.35998      1340.701       1814.061       69.557301      300.05164      0.22359795   
   1635000   488.13892      1359.5683      1847.7073      53.389924      304.27419      0.21749938   
   1636000   500.90051      1338.7267      1839.6272      110.04996      299.60979      0.21447699   
   1637000   501.69064      1366.7643      1868.4549      151.26522      305.88466      0.21190059   
   1638000   531.46191      1366.2317      1897.6936      180.88947      305.76546      0.21056883   
   1639000   532.47026      1378.1071      1910.5773      342.90413      308.42319      0.21189274   
   1640000   506.25269      1364.4308      1870.6835      371.05439      305.36241      0.21438133   
   1641000   512.64369      1351.4259      1864.0696      386.3397       302.45188      0.2206029    
   1642000   464.52355      1311.4229      1775.9465      322.49344      293.49915      0.23186416   
   1643000   466.97954      1332.3708      1799.3503      219.89448      298.18732      0.24009047   
   1644000   468.42019      1313.9381      1782.3583      76.79263       294.06205      0.23299837   
   1645000   495.94195      1370.185       1866.1269      85.158565      306.65021      0.22084963   
   1646000   542.26997      1330.3918      1872.6617      100.92967      297.74441      0.21351116   
   1647000   511.58256      1361.1198      1872.7024      159.67712      304.62141      0.20759612   
   1648000   502.98863      1344.1721      1847.1607      211.9115       300.82847      0.20586004   
   1649000   515.2492       1334.6347      1849.8839      242.90943      298.69399      0.20913516   
   1650000   518.15662      1395.2789      1913.4355      313.07935      312.26628      0.21630397   
   1651000   495.08355      1353.5236      1848.6071      334.59269      302.92135      0.21724697   
   1652000   527.30393      1341.4399      1868.7438      235.82407      300.217        0.21383384   
   1653000   518.39432      1374.6872      1893.0815      116.16115      307.65782      0.20851994   
   1654000   527.3234       1371.9744      1899.2978      75.786323      307.05068      0.20541251   
   1655000   563.66382      1376.4443      1940.1082      82.731336      308.05107      0.20649669   
   1656000   520.27689      1330.8451      1851.122       4.9960146      297.84586      0.20612388   
   1657000   498.84025      1347.2652      1846.1055      65.867996      301.52072      0.20824637   
   1658000   510.46048      1351.7563      1862.2168      108.32973      302.52584      0.20935113   
   1659000   514.80206      1336.9266      1851.7287      210.69786      299.20692      0.21173527   
   1660000   485.76908      1296.1807      1781.9498      345.1304       290.0879       0.21639668   
   1661000   487.59659      1322.669       1810.2656      387.87307      296.01603      0.21920142   
   1662000   493.33749      1317.9465      1811.284       297.7837       294.95914      0.22020022   
   1663000   505.1947       1330.4261      1835.6208      169.86798      297.7521       0.2244697    
   1664000   480.15836      1352.9519      1833.1102      45.359619      302.79341      0.23095465   
   1665000   492.49734      1323.5017      1815.9991     -50.445519      296.2024       0.23527665   
   1666000   466.23742      1299.0826      1765.3201     -97.680113      290.73736      0.23286016   
   1667000   485.93529      1262.7915      1748.7268     -54.163021      282.61532      0.22191488   
   1668000   506.95059      1296.8316      1803.7822      66.806427      290.23357      0.20988332   
   1669000   507.58928      1322.186       1829.7753      204.85456      295.90795      0.20461538   
   1670000   537.10053      1340.8611      1877.9617      255.4424       300.08748      0.20304105   
   1671000   542.09701      1353.2776      1895.3746      299.07072      302.8663       0.2062318    
   1672000   533.26924      1409.0787      1942.3479      351.97904      315.3547       0.21408658   
   1673000   500.20087      1377.8811      1878.082       198.74114      308.37262      0.2180332    
   1674000   511.77187      1341.9227      1853.6946      128.5622       300.32505      0.21634318   
   1675000   501.06801      1340.6908      1841.7589      56.676845      300.04936      0.21246448   
   1676000   513.60161      1302.1444      1815.746       65.140623      291.42259      0.20717532   
   1677000   513.47992      1260.4132      1773.8931      83.521803      282.08306      0.20473069   
   1678000   509.41998      1328.5854      1838.0053      141.89856      297.34013      0.20454384   
   1679000   525.31837      1330.1226      1855.4409      125.78334      297.68416      0.20737144   
   1680000   530.02529      1305.8016      1835.8268      144.55419      292.24107      0.20862572   
   1681000   519.08159      1372.9347      1892.0163      68.728197      307.26561      0.20833019   
   1682000   482.9909       1338.9726      1821.9635      51.454001      299.66481      0.21332316   
   1683000   510.89634      1302.7712      1813.6675      103.33834      291.56287      0.22041187   
   1684000   490.90306      1350.969       1841.8721      124.96654      302.34964      0.22020898   
   1685000   483.85808      1381.0345      1864.8926      127.86658      309.07835      0.21713013   
   1686000   532.39015      1330.5941      1862.9842      96.754364      297.78968      0.21616966   
   1687000   526.85578      1353.563       1880.4188      109.57147      302.93018      0.21659024   
   1688000   530.94227      1355.3356      1886.2779      154.3547       303.3269       0.21732172   
   1689000   530.17373      1392.944       1923.1178      267.52555      311.74374      0.21753019   
   1690000   515.89183      1393.3126      1909.2044      211.7589       311.82622      0.21700831   
   1691000   482.00614      1357.1902      1839.1963      287.16155      303.74195      0.21989723   
   1692000   502.79376      1328.6483      1831.4421      289.23147      297.35422      0.22526842   
   1693000   481.06391      1313.4972      1794.5611      230.05014      293.96337      0.22589833   
   1694000   483.48751      1284.0552      1767.5427      97.966198      287.37419      0.21886636   
   1695000   522.85183      1323.4583      1846.3101      87.004582      296.19268      0.20921829   
   1696000   514.45116      1314.8462      1829.2973      13.818758      294.26527      0.20474528   
   1697000   484.93325      1337.7204      1822.6536      43.032747      299.38457      0.20591755   
   1698000   523.70306      1288.0935      1811.7966      96.025569      288.27798      0.20934134   
   1699000   522.62612      1304.1055      1826.7316      150.45812      291.86149      0.20870302   
   1700000   515.30648      1325.4429      1840.7494      184.08637      296.63684      0.20973447   
   1701000   539.52174      1294.5909      1834.1126      215.31789      289.73209      0.2103616    
   1702000   483.78428      1271.685       1755.4693      185.94522      284.60572      0.20956173   
   1703000   519.78717      1299.6938      1819.481       153.62099      290.87415      0.20860166   
   1704000   534.32737      1304.7926      1839.12        79.841899      292.01526      0.20422589   
   1705000   540.46108      1322.4566      1862.9177      99.959404      295.9685       0.19624473   
   1706000   524.43723      1345.4306      1869.8678      155.1188       301.11012      0.19144125   
   1707000   552.00338      1349.2585      1901.2618      260.07065      301.96681      0.19213746   
   1708000   538.96613      1341.6614      1880.6275      318.06492      300.26657      0.19611491   
   1709000   506.56164      1317.135       1823.6966      345.62344      294.77751      0.20164397   
   1710000   505.56594      1344.1953      1849.7613      174.99428      300.83367      0.20350571   
   1711000   537.00012      1325.1396      1862.1397      71.255671      296.56895      0.20702586   
   1712000   508.90217      1323.3596      1832.2618     -20.148088      296.1706       0.20946454   
   1713000   517.49675      1302.1016      1819.5983     -55.186047      291.413        0.20708454   
   1714000   520.14928      1346.5302      1866.6794      74.345666      301.35621      0.20399437   
   1715000   527.6546       1337.9606      1865.6152      96.342745      299.43833      0.20506877   
   1716000   496.41561      1345.3632      1841.7788      147.32804      301.09505      0.21317103   
   1717000   488.70342      1313.4064      1802.1098      267.80878      293.94305      0.21993631   
   1718000   474.81772      1336.4848      1811.3025      217.36659      299.10804      0.22050227   
   1719000   494.77244      1318.2377      1813.0101      205.81409      295.0243       0.22002728   
   1720000   473.82528      1340.2737      1814.099       119.70731      299.95601      0.21642099   
   1721000   486.89026      1357.2707      1844.161       103.7079       303.75997      0.21276411   
   1722000   482.25455      1313.9454      1796.1999      28.647296      294.06368      0.20392865   
   1723000   493.88207      1313.0266      1806.9087      9.5295036      293.85805      0.19928896   
   1724000   520.62363      1315.4921      1836.1157      47.612879      294.40982      0.19996298   
   1725000   527.59261      1325.878       1853.4706      36.789785      296.73421      0.20678508   
   1726000   446.21384      1352.0998      1798.3137      147.45907      302.60271      0.21423852   
   1727000   492.55816      1296.4339      1788.9921      199.00716      290.14458      0.21451741   
   1728000   477.77861      1306.6599      1784.4385      196.42508      292.43317      0.21316948   
   1729000   467.82413      1351.835       1819.6591      212.88828      302.54345      0.21487586   
   1730000   492.83077      1365.7636      1858.5943      200.34775      305.66069      0.21476926   
   1731000   486.86138      1360.8923      1847.7537      107.1009       304.5705       0.21183771   
   1732000   514.53494      1354.1515      1868.6865      172.06374      303.06189      0.21258118   
   1733000   496.57289      1354.3484      1850.9213      260.95027      303.10596      0.21766678   
   1734000   474.88073      1366.0168      1840.8976      384.68706      305.71737      0.22754935   
   1735000   492.1626       1382.434       1874.5966      452.57173      309.39157      0.23134235   
   1736000   516.6262       1365.5994      1882.2256      399.85485      305.62396      0.22582612   
   1737000   515.74768      1359.8168      1875.5645      277.48717      304.3298       0.21621729   
   1738000   497.48725      1375.4697      1872.957       245.46257      307.83295      0.20920763   
   1739000   512.0587       1336.0803      1848.139       157.74953      299.01752      0.20521958   
   1740000   519.14072      1314.9452      1834.0859      115.77901      294.28743      0.20661787   
   1741000   477.2129       1354.5296      1831.7425      184.75306      303.1465       0.21257798   
   1742000   497.82454      1352.4318      1850.2564      272.97858      302.67702      0.2177147    
   1743000   502.6208       1336.8129      1839.4337      253.48286      299.18147      0.2184668    
   1744000   520.49466      1336.7186      1857.2132      243.20918      299.16036      0.21709344   
   1745000   492.28794      1380.0597      1872.3476      239.25755      308.8602       0.2146867    
   1746000   515.63177      1350.1059      1865.7377      131.69692      302.15648      0.20669782   
   1747000   500.64777      1384.6695      1885.3173      118.06496      309.89188      0.19839143   
   1748000   552.5468       1397.0675      1949.6143      148.49279      312.66658      0.19666413   
   1749000   523.878        1397.0267      1920.9046      116.45551      312.65743      0.19849477   
   1750000   495.67043      1360.4185      1856.089       130.53732      304.46446      0.20552962   
   1751000   508.06593      1309.6544      1817.7203      189.82969      293.10334      0.2173532    
   1752000   496.85178      1317.89        1814.7418      215.76269      294.94649      0.21986101   
   1753000   508.72754      1326.0968      1834.8243      162.57484      296.78318      0.2179568    
   1754000   487.96993      1331.755       1819.7249      166.51739      298.0495       0.2145342    
   1755000   541.15617      1316.9464      1858.1025      124.98815      294.7353       0.20894595   
   1756000   493.11087      1305.1248      1798.2357      113.19371      292.08962      0.20466868   
   1757000   538.63217      1309.9199      1848.5521      108.66434      293.16276      0.20402708   
   1758000   503.41361      1315.9896      1819.4032      123.88179      294.52117      0.2093571    
   1759000   503.78884      1335.6874      1839.4763      157.54991      298.92959      0.21601609   
   1760000   500.22842      1328.8564      1829.0848      158.31971      297.40079      0.22162527   
   1761000   499.18618      1329.8178      1829.0039      297.83137      297.61595      0.22461545   
   1762000   490.13486      1322.8856      1813.0204      299.88189      296.0645       0.22104151   
   1763000   499.08412      1293.8123      1792.8964      206.43761      289.55785      0.21482517   
   1764000   501.07663      1321.4907      1822.5673      122.03699      295.75233      0.21281328   
   1765000   497.79722      1330.0036      1827.8009      94.576547      297.65754      0.21534013   
   1766000   489.18605      1354.0053      1843.1913      52.023035      303.02916      0.21702729   
   1767000   519.164        1367.7241      1886.8881      71.511181      306.09945      0.2174214    
   1768000   522.4211       1371.7557      1894.1768      106.90044      307.00173      0.21345066   
   1769000   526.19593      1346.0461      1872.242       200.46681      301.24787      0.2052735    
   1770000   545.73714      1362.3878      1908.1249      310.62796      304.90519      0.19811737   
   1771000   546.29747      1370.9272      1917.2247      307.3608       306.81633      0.19822468   
   1772000   531.53614      1355.6697      1887.2058      276.24956      303.40166      0.20916713   
   1773000   495.13209      1373.9897      1869.1217      185.869        307.5017       0.21741528   
   1774000   488.27418      1342.8248      1831.099       125.47786      300.52694      0.21988137   
   1775000   510.40285      1307.2037      1817.6066      20.587505      292.55487      0.21688398   
   1776000   507.65275      1295.2069      1802.8596      42.728147      289.86996      0.21277833   
   1777000   494.79019      1297.2233      1792.0135      102.14575      290.32124      0.20888761   
   1778000   516.41445      1315.4755      1831.8899      234.65921      294.40611      0.20526339   
   1779000   528.53567      1355.9161      1884.4518      270.41409      303.45681      0.20330648   
   1780000   526.84965      1366.7252      1893.5748      329.79819      305.8759       0.2067003    
   1781000   505.49721      1377.0574      1882.5546      294.10827      308.18828      0.21477117   
   1782000   489.08381      1389.8769      1878.9608      309.60896      311.05731      0.22213511   
   1783000   484.02803      1352.8547      1836.8827      261.36541      302.77166      0.2202194    
   1784000   513.11196      1363.7224      1876.8344      189.18731      305.20388      0.21242502   
   1785000   479.27126      1355.7652      1835.0364      181.16196      303.42302      0.20618956   
   1786000   503.55608      1339.9079      1843.464       175.55399      299.87415      0.20428481   
   1787000   519.25512      1315.5073      1834.7624      207.6874       294.41324      0.20564226   
   1788000   512.51199      1327.6293      1840.1413      233.38967      297.12616      0.20974591   
   1789000   495.96326      1308.4726      1804.4358      238.08635      292.83885      0.21461243   
   1790000   499.75798      1338.3885      1838.1465      253.75386      299.5341       0.21814892   
   1791000   488.75038      1384.4554      1873.2058      258.77527      309.84396      0.21952092   
   1792000   494.22896      1356.7532      1850.9821      175.99752      303.64414      0.21523684   
   1793000   545.24506      1284.9365      1830.1815      38.15735       287.57142      0.20262826   
   1794000   500.55559      1330.4417      1830.9973      34.985555      297.75559      0.19910717   
   1795000   484.25779      1335.7449      1820.0027      50.162991      298.94245      0.20238191   
   1796000   528.88183      1295.6492      1824.531       30.939943      289.96894      0.20528379   
   1797000   472.34752      1286.0112      1758.3588      119.58763      287.81196      0.20876543   
   1798000   494.28899      1307.1666      1801.4556      181.54063      292.54658      0.2118378    
   1799000   484.07853      1340.0176      1824.0961      206.67331      299.89868      0.21159109   
   1800000   485.77697      1343.0178      1828.7948      242.49138      300.57015      0.21201721   
   1801000   524.41957      1288.2059      1812.6255      222.69294      288.30312      0.21552045   
   1802000   527.24064      1313.9205      1841.1612      296.82126      294.05811      0.22543523   
   1803000   462.84999      1341.6603      1804.5103      282.94367      300.26632      0.22912617   
   1804000   485.84604      1318.6801      1804.5262      154.47348      295.12332      0.22361295   
   1805000   464.70132      1267.367       1732.0684      185.29683      283.63934      0.21846596   
   1806000   479.68142      1319.5087      1799.1901      177.6237       295.30876      0.21360939   
   1807000   519.13946      1325.7829      1844.9224      186.7659       296.71295      0.21222545   
   1808000   483.80969      1328.1253      1811.9349      242.97901      297.23716      0.21161468   
   1809000   489.93789      1323.471       1813.4088      229.79874      296.19552      0.21432392   
   1810000   514.05384      1324.7818      1838.8356      198.14974      296.48889      0.22531184   
   1811000   472.7432       1342.7507      1815.4939      204.54654      300.51037      0.23355854   
   1812000   482.74252      1331.2127      1813.9552      229.71734      297.92813      0.23451874   
   1813000   476.12945      1330.824       1806.9535      175.45678      297.84115      0.22982853   
   1814000   468.03112      1299.2844      1767.3155      184.51305      290.78251      0.22178262   
   1815000   515.32186      1301.7212      1817.0431      32.893167      291.32787      0.21334625   
   1816000   506.67583      1312.1406      1818.8164      126.85946      293.65975      0.21232881   
   1817000   485.04601      1332.9079      1817.9539      185.41004      298.30752      0.21459127   
   1818000   485.77843      1358.1411      1843.9195      182.61969      303.95477      0.21741187   
   1819000   499.99607      1370.1702      1870.1663      161.95036      306.6469       0.22000433   
   1820000   537.92639      1373.7944      1911.7208      205.64547      307.45802      0.22241681   
   1821000   500.679        1336.5846      1837.2636      157.02524      299.13038      0.2230149    
   1822000   496.14551      1325.5849      1821.7304      219.20609      296.66863      0.22300034   
   1823000   470.14225      1331.5482      1801.6904      242.77715      298.00321      0.22071528   
   1824000   515.55965      1314.9761      1830.5357      225.42968      294.29434      0.21311129   
   1825000   496.17285      1337.2471      1833.42        211.66387      299.27865      0.20563474   
   1826000   502.85171      1318.1474      1820.9991      193.96044      295.00409      0.20489136   
   1827000   526.9997       1309.0573      1836.057       188.86813      292.96972      0.20981124   
   1828000   489.99202      1342.0618      1832.0538      177.94405      300.35618      0.21306533   
   1829000   489.4649       1339.9536      1829.4185      202.99229      299.88437      0.21594884   
   1830000   501.65784      1326.9225      1828.5803      117.45423      296.96797      0.21843067   
   1831000   512.31941      1322.4975      1834.8169      95.786069      295.97765      0.21786766   
   1832000   479.34965      1360.2606      1839.6103      111.66178      304.42912      0.21570011   
   1833000   510.47323      1342.0188      1852.492       159.7051       300.34655      0.21320719   
   1834000   504.83204      1340.4453      1845.2773      169.63182      299.9944       0.21203581   
   1835000   524.99932      1341.7811      1866.7804      187.15387      300.29336      0.21277061   
   1836000   518.59203      1370.8623      1889.4543      146.4445       306.8018       0.21319052   
   1837000   540.98679      1373.6948      1914.6816      241.49166      307.43571      0.21367559   
   1838000   501.1215       1408.8906      1910.0121      269.78822      315.31261      0.21253026   
   1839000   533.49582      1362.5878      1896.0836      294.7997       304.94994      0.20973688   
   1840000   534.66525      1352.4847      1887.15        359.1696       302.68886      0.20852994   
   1841000   484.17507      1365.2361      1849.4112      282.45763      305.54265      0.20808636   
   1842000   513.4158       1372.2576      1885.6734      272.03488      307.11407      0.20846367   
   1843000   514.06837      1355.9577      1870.026       181.5346       303.46611      0.20797721   
   1844000   512.67201      1346.2356      1858.9076      155.71048      301.2903       0.21508081   
   1845000   496.53401      1305.223       1801.757       103.99315      292.11158      0.22128755   
   1846000   479.52934      1352.1874      1831.7168     -3.7375259      302.62232      0.22109885   
   1847000   515.91337      1320.6443      1836.5576      18.63378       295.5629       0.21588361   
   1848000   495.07729      1361.1849      1856.2622     -1.5123683      304.63597      0.21011635   
   1849000   499.03603      1389.2135      1888.2495      102.00011      310.90882      0.20496762   
   1850000   526.84643      1371.747       1898.5934      169.12483      306.9998       0.19642976   
   1851000   538.01965      1350.4734      1888.4931      215.87015      302.23873      0.19316443   
   1852000   538.97835      1340.0289      1879.0072      251.39612      299.90121      0.19848177   
   1853000   507.83973      1309.1463      1816.986       259.89503      292.98962      0.2075861    
   1854000   525.47753      1312.5374      1838.0149      235.85278      293.74856      0.21235569   
   1855000   510.91185      1318.8583      1829.7702      173.37332      295.16319      0.2110271    
   1856000   496.90419      1307.1299      1804.0341      140.22378      292.53835      0.20778846   
   1857000   511.12444      1346.181       1857.3054      111.3052       301.27806      0.20550532   
   1858000   522.82279      1346.0822      1868.905       114.85907      301.25595      0.20530543   
   1859000   524.476        1350.1232      1874.5992      190.69389      302.16034      0.20639761   
   1860000   495.48882      1356.0589      1851.5477      251.45468      303.48877      0.21222549   
   1861000   485.78379      1304.2105      1789.9943      167.76304      291.885        0.22164748   
   1862000   488.15448      1315.9875      1804.1419      214.56524      294.52069      0.22822908   
   1863000   500.50309      1329.6623      1830.1654      181.94706      297.58116      0.22671455   
   1864000   503.8719       1314.1093      1817.9812      219.86925      294.10036      0.22400184   
   1865000   491.24864      1345.7489      1836.9975      246.30529      301.18136      0.22093977   
   1866000   531.2825       1346.5852      1877.8677      215.52299      301.36854      0.21802454   
   1867000   541.51731      1375.3008      1916.8181      209.8057       307.79513      0.21597148   
   1868000   516.77984      1353.2761      1870.056       148.57278      302.86597      0.21150509   
   1869000   509.79406      1370.449       1880.2431      107.53123      306.7093       0.20766832   
   1870000   522.85536      1368.4995      1891.3548      93.591732      306.27299      0.20645611   
   1871000   530.57908      1396.5031      1927.0822      182.83276      312.54026      0.213093     
   1872000   503.63261      1396.4186      1900.0512      258.83408      312.52136      0.22251868   
   1873000   509.1324       1364.1588      1873.2912      249.3231       305.30153      0.22174157   
   1874000   519.29191      1340.9281      1860.22        227.979        300.10245      0.21069981   
   1875000   549.58726      1307.0825      1856.6697      184.98578      292.52774      0.20141826   
   1876000   518.51692      1329.9016      1848.4185      216.36176      297.6347       0.20018203   
   1877000   506.27741      1319.5934      1825.8708      152.5148       295.32772      0.20205652   
   1878000   508.49826      1316.581       1825.0793      82.604374      294.65353      0.20684941   
   1879000   511.0025       1314.8427      1825.8452      45.214997      294.26449      0.21064792   
   1880000   515.84407      1337.0002      1852.8443      28.693855      299.22338      0.21009492   
   1881000   543.43717      1365.5932      1909.0304      17.869759      305.62256      0.20917967   
   1882000   522.15077      1368.7276      1890.8784      126.59613      306.32404      0.21689953   
   1883000   505.65673      1340.3001      1845.9569      271.89635      299.96192      0.22659013   
   1884000   453.35896      1376.933       1830.2919      364.81005      308.16043      0.22876043   
   1885000   475.47596      1365.1407      1840.6167      291.3508       305.5213       0.22527266   
   1886000   538.03421      1336.6651      1874.6994      173.70748      299.1484       0.21862738   
   1887000   496.02949      1383.8612      1879.8907      85.053193      309.71097      0.21245103   
   1888000   500.59934      1344.1045      1844.7038      67.64865       300.81334      0.20968146   
   1889000   545.35612      1299.5397      1844.8958      76.917729      290.83964      0.20794344   
   1890000   509.9065       1291.1492      1801.0557      182.8289       288.96183      0.20818809   
   1891000   509.08524      1257.4765      1766.5618      172.86318      281.42583      0.20938084   
   1892000   496.85868      1309.996       1806.8546      252.74784      293.17979      0.2146476    
   1893000   506.63491      1330.0018      1836.6367      224.93748      297.65713      0.22745912   
   1894000   495.93052      1308.0549      1803.9854      155.28511      292.74536      0.23417375   
   1895000   465.00991      1315.1335      1780.1434      75.305668      294.32958      0.23283097   
   1896000   479.344        1273.6473      1752.9913      139.82043      285.04488      0.23027238   
   1897000   495.70069      1329.351       1825.0517      154.5724       297.51149      0.22514896   
   1898000   492.82413      1325.8588      1818.6829      233.28102      296.72991      0.21795176   
   1899000   507.23741      1279.7464      1786.9839      218.43919      286.40988      0.2120801    
   1900000   492.30609      1315.106       1807.4121      212.70945      294.32343      0.2093746    
   1901000   524.47368      1313.2888      1837.7624      203.72671      293.91672      0.20786053   
   1902000   483.85622      1302.6735      1786.5297      139.01636      291.54099      0.21032585   
   1903000   495.99731      1329.48        1825.4773      106.85102      297.54035      0.21664451   
   1904000   487.59239      1332.085       1819.6774      25.549128      298.12336      0.21789517   
   1905000   515.72735      1314.7544      1830.4818      58.387516      294.24474      0.2165925    
   1906000   504.89038      1312.2706      1817.161       118.6767       293.68885      0.21460875   
   1907000   513.29625      1270.717       1784.0132      82.170125      284.38907      0.21471119   
   1908000   503.48358      1290.1116      1793.5952      202.74787      288.72962      0.21706116   
   1909000   502.7854       1332.976       1835.7614      241.97959      298.32276      0.21797948   
   1910000   518.56442      1324.5198      1843.0843      250.97705      296.43026      0.21913124   
   1911000   514.72463      1325.527       1840.2516      279.11139      296.65567      0.22096441   
   1912000   487.92958      1305.7497      1793.6792      250.87833      292.22945      0.22218405   
   1913000   463.10013      1314.9023      1778.0025      250.59025      294.27784      0.22334475   
   1914000   514.44212      1335.2079      1849.65        214.14629      298.82226      0.22280531   
   1915000   531.56348      1344.9615      1876.525       145.0111       301.00514      0.2185285    
   1916000   501.6012       1361.8759      1863.4771      108.67486      304.79062      0.21631635   
   1917000   511.39205      1365.7133      1877.1053      130.41285      305.64944      0.21310176   
   1918000   523.089        1333.9484      1857.0374      73.904068      298.54038      0.20628632   
   1919000   517.19599      1311.7902      1828.9861      82.9684        293.58133      0.20316507   
   1920000   507.22567      1343.1198      1850.3454      190.68246      300.59296      0.20347607   
   1921000   501.58572      1332.0236      1833.6093      214.17925      298.10961      0.20715777   
   1922000   489.31518      1326.2433      1815.5585      234.70022      296.81597      0.21748375   
   1923000   509.46254      1326.555       1836.0175      208.47874      296.88573      0.22583272   
   1924000   475.47855      1352.6859      1828.1644      205.29919      302.73387      0.22682262   
   1925000   515.10755      1328.2975      1843.4051      141.12683      297.27571      0.22158112   
   1926000   535.79077      1336.9038      1872.6946      105.06713      299.20182      0.21312305   
   1927000   518.10396      1392.9882      1911.0922      121.87972      311.75362      0.2075125    
   1928000   556.43798      1328.7709      1885.2089      150.36745      297.38165      0.20888349   
   1929000   519.60664      1338.1955      1857.8021      232.68999      299.4909       0.21517973   
   1930000   503.24258      1366.355       1869.5975      263.2345       305.79305      0.21966329   
   1931000   503.0662       1361.9061      1864.9723      278.69114      304.79738      0.22242943   
   1932000   546.37763      1349.7068      1896.0844      165.65702      302.06714      0.22130264   
   1933000   514.77109      1341.2437      1856.0148      117.26454      300.17309      0.21837924   
   1934000   484.7555       1356.4568      1841.2123      94.005902      303.57782      0.21666409   
   1935000   507.06284      1392.2734      1899.3362      99.924801      311.59364      0.21391082   
   1936000   533.87586      1362.8074      1896.6833      229.38477      304.9991       0.20809328   
   1937000   532.81794      1325.3792      1858.1972      194.84261      296.62259      0.20158874   
   1938000   548.0383       1342.7578      1890.7961      213.64706      300.51194      0.20416477   
   1939000   501.82937      1336.429       1838.2584      251.5763       299.09555      0.21411178   
   1940000   518.30288      1296.562       1814.8649      73.985454      290.17324      0.21997285   
   1941000   509.09988      1330.8562      1839.956      -11.686527      297.84834      0.22303319   
   1942000   497.19946      1302.6908      1799.8903     -63.210861      291.54488      0.22276639   
   1943000   512.97476      1318.4726      1831.4474     -16.192862      295.07688      0.2215117    
   1944000   525.36888      1300.3306      1825.6995     -9.5856403      291.01666      0.21718797   
   1945000   508.91558      1332.3175      1841.2331      129.61662      298.1754       0.21360934   
   1946000   512.4081       1306.7411      1819.1492      238.67831      292.45135      0.2094438    
   1947000   548.48299      1347.0539      1895.5369      243.89064      301.47343      0.19862566   
   1948000   553.17445      1360.8445      1914.0189      259.00531      304.55978      0.1941918    
   1949000   513.35008      1394.5183      1907.8684      196.13209      312.09606      0.20301952   
   1950000   510.50144      1360.1339      1870.6353      96.460004      304.40076      0.21350428   
   1951000   535.08397      1347.287       1882.371       76.789652      301.52561      0.21754387   
   1952000   528.76075      1416.0029      1944.7637      108.92913      316.90436      0.21872016   
   1953000   494.38986      1373.8045      1868.1943      156.04312      307.46026      0.21831491   
   1954000   502.00921      1363.963       1865.9722      278.08357      305.25772      0.22192695   
   1955000   524.61407      1377.4367      1902.0508      325.75413      308.27317      0.22690076   
   1956000   508.03915      1362.1334      1870.1726      359.8507       304.84825      0.23046374   
   1957000   495.85631      1365.5983      1861.4547      348.45645      305.62371      0.23034716   
   1958000   508.68015      1348.8412      1857.5214      240.48721      301.87343      0.21750938   
   1959000   524.44373      1394.0564      1918.5001      178.428        311.99268      0.20863037   
   1960000   514.98611      1359.2947      1874.2808      118.20744      304.21295      0.20656721   
   1961000   509.98384      1378.103       1888.0869      98.310111      308.42229      0.20767802   
   1962000   544.85105      1367.0473      1911.8984      46.541682      305.948        0.21443189   
   1963000   525.44904      1394.2213      1919.6703      110.209        312.02959      0.22167368   
   1964000   519.00831      1364.6891      1883.6975      150.59311      305.42023      0.22167742   
   1965000   518.00511      1341.5376      1859.5427      186.72582      300.23887      0.22027509   
   1966000   531.89932      1325.3995      1857.2988      181.3158       296.62712      0.21992036   
   1967000   508.83537      1331.219       1840.0544      173.53831      297.92955      0.22055206   
   1968000   514.9078       1316.9774      1831.8852      160.06557      294.74224      0.22219882   
   1969000   495.39512      1337.8454      1833.2405      119.02665      299.41255      0.21844594   
   1970000   513.72734      1329.0077      1842.735       143.18979      297.43464      0.20970441   
   1971000   525.2972       1334.005       1859.3022      185.94224      298.55307      0.20546783   
   1972000   503.39171      1323.2348      1826.6265      200.54692      296.14266      0.20726208   
   1973000   515.05282      1314.9969      1830.0497      265.64419      294.299        0.21312562   
   1974000   499.4784       1321.9568      1821.4352      302.69196      295.85664      0.21663713   
   1975000   496.09181      1275.1273      1771.2191      251.95585      285.37611      0.21819773   
   1976000   495.91302      1325.9315      1821.8446      292.31307      296.7462       0.22007474   
   1977000   506.5341       1314.6452      1821.1793      192.15031      294.22029      0.21581632   
   1978000   522.649        1329.6984      1852.3474      115.70456      297.58924      0.2069173    
   1979000   528.26741      1335.131       1863.3984      84.97384       298.80506      0.20205415   
   1980000   530.58571      1288.2732      1818.8589      45.368487      288.31819      0.20140654   
   1981000   498.6927       1279.5654      1778.2581      57.292341      286.36936      0.20517867   
   1982000   514.03201      1312.0867      1826.1187      52.537169      293.64769      0.21118583   
   1983000   516.29647      1325.1416      1841.438       100.48452      296.5694       0.21741652   
   1984000   522.1008       1296.4586      1818.5594      188.92818      290.15009      0.21790041   
   1985000   493.75312      1346.8895      1840.6426      336.46063      301.43664      0.21492905   
   1986000   498.64442      1368.1412      1866.7857      331.53957      306.19282      0.21085596   
   1987000   541.52634      1332.834       1874.3604      288.68982      298.29099      0.20869827   
   1988000   527.60199      1339.3742      1866.9762      188.2196       299.75469      0.20743561   
   1989000   524.63921      1372.3219      1896.9611      156.3704       307.12845      0.20800232   
   1990000   536.94371      1389.3215      1926.2652      110.6191       310.933        0.20727584   
   1991000   574.6595       1315.8014      1890.4609      70.432926      294.47906      0.2086024    
   1992000   529.74565      1362.2455      1891.9912      118.26086      304.87335      0.21645254   
   1993000   480.33143      1371.5515      1851.883       190.6232       306.95605      0.22457936   
   1994000   496.40115      1346.9078      1843.309       281.63442      301.44074      0.22899613   
   1995000   473.65932      1351.6965      1825.3558      209.1901       302.51245      0.22702477   
   1996000   510.6221       1333.6246      1844.2467      253.76032      298.46791      0.22405615   
   1997000   503.22579      1338.4678      1841.6936      147.0612       299.55184      0.21679526   
   1998000   512.79267      1319.5022      1832.2949      100.92567      295.3073       0.21302532   
   1999000   479.93248      1313.609       1793.5415      161.71955      293.98839      0.21070518   
   2000000   487.89708      1326.0422      1813.9393      228.15594      296.77097      0.20830172   
Loop time of 8864.66 on 8 procs for 2000000 steps with 1500 atoms

Performance: 9.747 ns/day, 2.462 hours/ns, 225.615 timesteps/s, 338.422 katom-step/s
99.4% CPU use with 8 MPI tasks x 1 OpenMP threads

MPI task timing breakdown:
Section |  min time  |  avg time  |  max time  |%varavg| %total
---------------------------------------------------------------
Pair    | 426.13     | 442.45     | 458.38     |  48.6 |  4.99
Bond    | 19.492     | 20.672     | 21.782     |  21.5 |  0.23
Kspace  | 3617.5     | 3643.5     | 3670.5     |  27.9 | 41.10
Neigh   | 7.4091     | 7.5561     | 7.6381     |   3.4 |  0.09
Comm    | 140.14     | 154.82     | 180.95     | 123.7 |  1.75
Output  | 0.16348    | 0.17458    | 0.24351    |   6.2 |  0.00
Modify  | 4350       | 4456.5     | 4511.1     |  75.2 | 50.27
Other   |            | 139        |            |       |  1.57

Nlocal:          187.5 ave         212 max         170 min
Histogram: 1 2 1 0 0 2 1 0 0 1
Nghost:        1948.62 ave        2020 max        1886 min
Histogram: 1 1 0 1 1 1 2 0 0 1
Neighs:        17898.1 ave       21687 max       14817 min
Histogram: 1 0 1 2 1 1 1 0 0 1

Total # of neighbors = 143185
Ave neighs/atom = 95.456667
Ave special neighs/atom = 2
Neighbor list builds = 12241
Dangerous builds = 0
System init for write_data ...
PPPM initialization ...
  using 12-bit tables for long-range coulomb (src/kspace.cpp:342)
  G vector (1/distance) = 0.2730024
  grid = 48 48 48
  stencil order = 5
  estimated absolute RMS force accuracy = 0.00031922792
  estimated relative force accuracy = 9.6134541e-07
  using single precision FFTW3
  3d grid and FFT values/proc = 29791 13824
Generated 1 of 1 mixed pair_coeff terms from arithmetic mixing rule
Last active /omp style is kspace_style pppm/omp
