LAMMPS (19 Nov 2024)
OMP_NUM_THREADS environment is not set. Defaulting to 1 thread. (src/comm.cpp:99)
  using 1 OpenMP thread(s) per MPI task
using multi-threaded neighbor list subroutines
Reading data file ...
  orthogonal box = (0 0 0) to (46.994434 46.994434 46.994434)
  2 by 2 by 2 MPI processor grid
  reading atoms ...
  1500 atoms
  scanning bonds ...
  1 = max bonds/atom
  scanning angles ...
  1 = max angles/atom
  orthogonal box = (0 0 0) to (46.994434 46.994434 46.994434)
  2 by 2 by 2 MPI processor grid
  reading bonds ...
  1000 bonds
  reading angles ...
  500 angles
Finding 1-2 1-3 1-4 neighbors ...
  special bond factors lj:    0        0        0       
  special bond factors coul:  0        0        0       
     2 = max # of 1-2 neighbors
     1 = max # of 1-3 neighbors
     1 = max # of 1-4 neighbors
     2 = max # of special neighbors
  special bonds CPU = 0.000 seconds
  read_data CPU = 0.058 seconds
Setting atom values ...
  1000 settings made for charge
Setting atom values ...
  500 settings made for charge
1000 atoms in group oxy
500 atoms in group carb
PPPM initialization ...
  using 12-bit tables for long-range coulomb (src/kspace.cpp:342)
  G vector (1/distance) = 0.27054255
  grid = 45 45 45
  stencil order = 5
  estimated absolute RMS force accuracy = 0.00039841041
  estimated relative force accuracy = 1.1998011e-06
  using single precision FFTW3
  3d grid and FFT values/proc = 27000 12420
Generated 1 of 1 mixed pair_coeff terms from arithmetic mixing rule
Last active /omp style is kspace_style pppm/omp
Neighbor list info ...
  update: every = 1 steps, delay = 0 steps, check = yes
  max neighbors/atom: 2000, page size: 100000
  master list distance cutoff = 15
  ghost atom cutoff = 15
  binsize = 7.5, bins = 7 7 7
  1 neighbor lists, perpetual/occasional/extra = 1 0 0
  (1) pair lj/cut/coul/long/omp, perpetual
      attributes: half, newton on, omp
      pair build: half/bin/newton/omp
      stencil: half/bin/3d
      bin: standard
Setting up cg style minimization ...
  Unit style    : real
  Current step  : 0
Per MPI rank memory allocation (min/avg/max) = 9.374 | 9.42 | 9.487 Mbytes
   Step          Temp          E_pair         E_mol          TotEng         Press     
         0   0              66.470909      1.4450289e-05  66.470924      810.53566    
      4501   0             -568.87683      0.31416793    -568.56266     -32.179144    
Loop time of 19.5144 on 8 procs for 4501 steps with 1500 atoms

99.5% CPU use with 8 MPI tasks x 1 OpenMP threads

Minimization stats:
  Stopping criterion = energy tolerance
  Energy initial, next-to-last, final = 
      66.4709235090387  -568.562100553386  -568.562662325766
  Force two-norm initial, final = 149.93254 0.86539415
  Force max component initial, final = 14.561519 0.11766389
  Final line search alpha, max atom move = 0.40561343 0.047726055
  Iterations, force evaluations = 4501 8999

MPI task timing breakdown:
Section |  min time  |  avg time  |  max time  |%varavg| %total
---------------------------------------------------------------
Pair    | 2.103      | 4.2199     | 6.4132     |  64.5 | 21.62
Bond    | 0.062659   | 0.075067   | 0.091606   |   3.8 |  0.38
Kspace  | 12.213     | 14.407     | 16.539     |  35.1 | 73.83
Neigh   | 0.01795    | 0.018047   | 0.018163   |   0.1 |  0.09
Comm    | 0.60721    | 0.61824    | 0.62945    |   1.0 |  3.17
Output  | 0          | 0          | 0          |   0.0 |  0.00
Modify  | 0.022315   | 0.023594   | 0.025023   |   0.6 |  0.12
Other   |            | 0.1528     |            |       |  0.78

Nlocal:          187.5 ave         258 max         116 min
Histogram: 1 0 2 1 0 0 2 0 0 2
Nghost:        2365.12 ave        2467 max        2291 min
Histogram: 1 2 1 1 0 0 1 0 1 1
Neighs:        25332.1 ave       44058 max        8562 min
Histogram: 1 0 2 0 0 3 1 0 0 1

Total # of neighbors = 202657
Ave neighs/atom = 135.10467
Ave special neighs/atom = 2
Neighbor list builds = 26
Dangerous builds = 0
PPPM initialization ...
  using 12-bit tables for long-range coulomb (src/kspace.cpp:342)
  G vector (1/distance) = 0.27054255
  grid = 45 45 45
  stencil order = 5
  estimated absolute RMS force accuracy = 0.00039841041
  estimated relative force accuracy = 1.1998011e-06
  using single precision FFTW3
  3d grid and FFT values/proc = 27000 12420
Generated 1 of 1 mixed pair_coeff terms from arithmetic mixing rule
Last active /omp style is kspace_style pppm/omp
Setting up Verlet run ...
  Unit style    : real
  Current step  : 4501
  Time step     : 0.1
Per MPI rank memory allocation (min/avg/max) = 8.275 | 8.321 | 8.388 Mbytes
   Step         PotEng         KinEng         TotEng         Press           Temp        v_Density   
      4501  -568.56266      1340.4703      771.90762      558.22687      300            0.22330196   
      5000  -48.498738      1320.8721      1272.3733      335.65975      295.61388      0.21418434   
      6000   138.98548      1298.2532      1437.2387      221.47652      290.55173      0.17014472   
      7000   97.460022      1428.8384      1526.2985      278.49509      319.77697      0.15801293   
      8000   275.32945      1252.198       1527.5274      146.08165      280.24448      0.1558756    
      9000   135.14276      1419.6526      1554.7954      218.96436      317.72118      0.15656905   
     10000   248.71966      1287.07        1535.7896      157.44332      288.0489       0.16679663   
     11000   179.48782      1373.0365      1552.5243      207.35368      307.28839      0.1719716    
     12000   232.41796      1297.5861      1530.0041      174.58502      290.40244      0.17838462   
     13000   224.40855      1299.0332      1523.4418      198.25116      290.72631      0.18772506   
     14000   185.50965      1351.4642      1536.9739      219.12438      302.46047      0.19263081   
     15000   253.46266      1258.5374      1512           139.23514      281.66325      0.19157912   
     16000   229.57981      1358.8988      1588.4786      254.88507      304.12434      0.19223565   
     17000   287.25076      1297.8533      1585.1041      171.80031      290.46223      0.18324596   
     18000   246.69939      1319.3989      1566.0983      158.59723      295.28418      0.1885598    
     19000   269.19653      1316.7994      1585.9959      192.22451      294.70241      0.2005682    
     20000   261.07263      1349.2366      1610.3092      236.49892      301.96191      0.19662189   
     21000   268.67281      1354.9132      1623.586       213.76993      303.23236      0.19105641   
     22000   303.9468       1324.343       1628.2898      130.53405      296.39068      0.18766456   
     23000   279.98113      1372.092       1652.0731      210.65323      307.077        0.19274435   
     24000   283.7315       1358.6549      1642.3864      307.00573      304.06976      0.19425014   
     25000   287.25624      1365.5665      1652.8228      191.91996      305.61659      0.18530288   
     26000   304.6441       1347.1852      1651.8293      93.842785      301.5028       0.1863542    
     27000   298.90027      1368.4608      1667.3611      205.42151      306.26434      0.18536067   
     28000   306.20523      1331.734       1637.9393      335.04055      298.04481      0.18435583   
     29000   309.3586       1324.87        1634.2286      168.17552      296.50863      0.18821527   
     30000   321.64563      1296.6147      1618.2603      66.843947      290.18503      0.19015382   
     31000   275.3769       1311.3085      1586.6854      260.78556      293.47353      0.18679429   
     32000   336.25871      1311.8529      1648.1116      356.8189       293.59537      0.18652649   
     33000   319.30268      1362.6652      1681.9679      89.872362      304.96727      0.18392241   
     34000   332.04244      1387.6142      1719.6566      51.586644      310.5509       0.19194129   
     35000   311.88151      1357.5074      1669.3889      296.15879      303.81294      0.18810108   
     36000   326.0465       1370.1694      1696.2159      326.74886      306.64672      0.1887846    
     37000   338.4335       1350.9741      1689.4076      72.991962      302.35077      0.17857387   
     38000   323.6353       1361.0418      1684.6771      133.7281       304.60395      0.18509825   
     39000   361.60495      1415.5706      1777.1756      311.72341      316.80762      0.182435     
     40000   333.85695      1370.9674      1704.8243      186.65406      306.82531      0.17394685   
     41000   342.34435      1375.072       1717.4164      129.87707      307.74394      0.18096456   
     42000   335.07234      1332.3994      1667.4718      206.06505      298.19373      0.19054785   
     43000   310.01447      1374.4402      1684.4546      285.87837      307.60253      0.19011847   
     44000   325.56882      1420.196       1745.7648      192.44495      317.84278      0.1863888    
     45000   305.85199      1357.71        1663.562       146.64812      303.85828      0.19239489   
     46000   308.56287      1357.9752      1666.5381      231.01093      303.91764      0.19760656   
     47000   312.05642      1344.4294      1656.4859      235.5674       300.88607      0.19249307   
     48000   331.21881      1297.3685      1628.5873      167.6758       290.35373      0.1799439    
     49000   344.06134      1328.2963      1672.3577      145.22336      297.27544      0.17162184   
     50000   332.76465      1362.0008      1694.7654      222.09432      304.81857      0.17655259   
     51000   335.21211      1355.3684      1690.5805      222.93693      303.33422      0.18511148   
     52000   332.42609      1341.9906      1674.4167      178.80479      300.34025      0.18380072   
     53000   322.96294      1365.2316      1688.1945      194.78173      305.54163      0.18692619   
     54000   323.95249      1348.1695      1672.122       225.60853      301.72311      0.18864578   
     54501   314.46316      1399.944       1714.4072      174.80166      313.31034      0.18883446   
Loop time of 189.824 on 8 procs for 50000 steps with 1500 atoms

Performance: 2.276 ns/day, 10.546 hours/ns, 263.402 timesteps/s, 395.104 katom-step/s
99.5% CPU use with 8 MPI tasks x 1 OpenMP threads

MPI task timing breakdown:
Section |  min time  |  avg time  |  max time  |%varavg| %total
---------------------------------------------------------------
Pair    | 8.095      | 11.261     | 14.437     |  57.3 |  5.93
Bond    | 0.44787    | 0.49472    | 0.56286    |   5.1 |  0.26
Kspace  | 75.098     | 78.257     | 81.425     |  21.8 | 41.23
Neigh   | 0.053495   | 0.053698   | 0.053868   |   0.1 |  0.03
Comm    | 3.2934     | 3.3704     | 3.4457     |   2.4 |  1.78
Output  | 0.0019719  | 0.0021757  | 0.0035413  |   1.1 |  0.00
Modify  | 82.986     | 88.266     | 96.048     |  41.5 | 46.50
Other   |            | 8.119      |            |       |  4.28

Nlocal:          187.5 ave         210 max         155 min
Histogram: 1 0 0 0 1 2 2 0 0 2
Nghost:        1847.88 ave        1884 max        1797 min
Histogram: 1 1 1 0 0 1 0 1 0 3
Neighs:          16315 ave       19759 max       12329 min
Histogram: 1 0 1 0 1 1 2 1 0 1

Total # of neighbors = 130520
Ave neighs/atom = 87.013333
Ave special neighs/atom = 2
Neighbor list builds = 86
Dangerous builds = 0
PPPM initialization ...
  using 12-bit tables for long-range coulomb (src/kspace.cpp:342)
  G vector (1/distance) = 0.270793
  grid = 48 48 48
  stencil order = 5
  estimated absolute RMS force accuracy = 0.00035501788
  estimated relative force accuracy = 1.0691258e-06
  using single precision FFTW3
  3d grid and FFT values/proc = 29791 13824
Generated 1 of 1 mixed pair_coeff terms from arithmetic mixing rule
Last active /omp style is kspace_style pppm/omp
Setting up Verlet run ...
  Unit style    : real
  Current step  : 54501
  Time step     : 0.25
Per MPI rank memory allocation (min/avg/max) = 8.516 | 8.517 | 8.518 Mbytes
   Step         PotEng         KinEng         TotEng         Press           Temp        v_Density   
     54501   314.46338      1399.944       1714.4074      174.80157      313.31034      0.18883446   
     55000   353.14196      1378.955       1732.097       207.02082      308.61297      0.1959544    
     56000   349.98119      1351.8459      1701.8271      264.30098      302.54589      0.19433831   
     57000   370.47451      1344.6602      1715.1347      228.61933      300.93771      0.18594351   
     58000   386.44153      1299.0145      1685.456       176.7095       290.72211      0.17522656   
     59000   394.72704      1311.6554      1706.3824      172.44611      293.55116      0.183229     
     60000   388.59536      1341.0467      1729.642       133.55422      300.129        0.18731052   
     61000   389.50961      1346.0745      1735.5841      116.90961      301.25424      0.17716958   
     62000   363.49293      1356.2165      1719.7094      209.49529      303.52404      0.18130648   
     63000   370.70708      1350.0009      1720.708       192.10267      302.13297      0.18215258   
     64000   356.01535      1318.8977      1674.9131      212.11001      295.17202      0.18313201   
     65000   352.3896       1341.6886      1694.0782      260.40778      300.27267      0.18221433   
     66000   349.73752      1355.2126      1704.9501      239.99343      303.29937      0.18610067   
     67000   369.28447      1346.5329      1715.8174      152.93472      301.35682      0.17910969   
     68000   357.04412      1360.8989      1717.9431      129.03331      304.57198      0.17515962   
     69000   364.48181      1335.7354      1700.2172      167.71009      298.94033      0.17606515   
     70000   386.1489       1309.5823      1695.7312      245.477        293.0872       0.18042759   
     71000   371.74356      1279.8483      1651.5919      210.27337      286.43268      0.17635073   
     72000   379.27011      1300.3386      1679.6087      215.12565      291.01845      0.17964384   
     73000   357.82829      1308.3218      1666.1501      197.27789      292.80511      0.18106269   
     74000   355.50192      1323.9457      1679.4476      199.37455      296.30175      0.19115292   
     75000   363.33225      1283.0916      1646.4238      212.55609      287.15853      0.18512137   
     76000   370.67471      1317.0208      1687.6955      236.51991      294.75196      0.17685964   
     77000   345.31585      1322.4062      1667.722       289.15244      295.95722      0.18467498   
     78000   362.54714      1312.1453      1674.6925      226.47884      293.66082      0.18062874   
     79000   397.17221      1390.7646      1787.9368      125.78764      311.25598      0.16802733   
     80000   369.65385      1343.1077      1712.7616      110.06451      300.59027      0.17460897   
     81000   364.62408      1350.7264      1715.3505      163.70201      302.29534      0.16688507   
     82000   367.81621      1332.1453      1699.9615      244.7118       298.13685      0.17662386   
     83000   402.58957      1288.4767      1691.0662      341.62927      288.36372      0.17353675   
     84000   377.55629      1364.6117      1742.168       334.86846      305.40291      0.17263536   
     85000   392.42137      1331.6644      1724.0858      119.80286      298.02923      0.1794099    
     86000   372.21235      1314.5984      1686.8107      73.304159      294.20981      0.18070885   
     87000   367.61177      1328.315       1695.9267      117.41042      297.27962      0.16746412   
     88000   369.56787      1299.1917      1668.7596      226.22323      290.76177      0.17526683   
     89000   382.01988      1336.207       1718.2269      327.72865      299.04588      0.17411327   
     90000   356.27778      1366.0933      1722.3711      375.55168      305.73449      0.17334691   
     91000   379.3405       1349.0702      1728.4107      230.66525      301.92468      0.17414633   
     92000   345.59711      1315.3619      1660.959       119.33714      294.3807       0.17469751   
     93000   387.48452      1328.8957      1716.3802      21.889523      297.40958      0.16400856   
     94000   393.61338      1390.0921      1783.7055      77.63676       311.10547      0.16850028   
     95000   363.51121      1335.1009      1698.6121      246.25101      298.79832      0.17290579   
     96000   352.17856      1319.3733      1671.5519      329.99086      295.27845      0.17174037   
     97000   397.67649      1326.6111      1724.2876      259.98515      296.89828      0.16300783   
     98000   380.57812      1341.2553      1721.8334      241.63554      300.17569      0.17374397   
     99000   405.94376      1311.5292      1717.473       124.42707      293.52293      0.16061184   
    100000   381.00255      1317.4074      1698.4099      113.50139      294.83848      0.17113246   
    101000   405.43419      1285.8136      1691.2478      116.37093      287.76773      0.16494939   
    102000   380.03779      1333.3174      1713.3551      210.94839      298.39916      0.17753141   
    103000   383.54243      1360.2987      1743.8411      302.81721      304.43763      0.16887128   
    104000   367.43539      1356.0621      1723.4975      284.03781      303.48949      0.17766747   
    104501   357.95684      1324.9606      1682.9174      241.69099      296.5289       0.18061858   
Loop time of 211.571 on 8 procs for 50000 steps with 1500 atoms

Performance: 5.105 ns/day, 4.702 hours/ns, 236.328 timesteps/s, 354.492 katom-step/s
99.5% CPU use with 8 MPI tasks x 1 OpenMP threads

MPI task timing breakdown:
Section |  min time  |  avg time  |  max time  |%varavg| %total
---------------------------------------------------------------
Pair    | 8.3111     | 9.8568     | 10.743     |  23.2 |  4.66
Bond    | 0.48322    | 0.51001    | 0.52444    |   1.7 |  0.24
Kspace  | 84.077     | 85.008     | 86.585     |   8.1 | 40.18
Neigh   | 0.11093    | 0.11105    | 0.11116    |   0.0 |  0.05
Comm    | 3.4841     | 3.5298     | 3.571      |   1.4 |  1.67
Output  | 0.0018995  | 0.0021049  | 0.0034429  |   1.1 |  0.00
Modify  | 108.37     | 110.39     | 111.79     |  11.0 | 52.18
Other   |            | 2.158      |            |       |  1.02

Nlocal:          187.5 ave         211 max         157 min
Histogram: 1 1 1 0 0 0 1 1 1 2
Nghost:        1769.75 ave        1835 max        1699 min
Histogram: 1 0 0 2 0 3 0 1 0 1
Neighs:        15367.5 ave       18101 max       11207 min
Histogram: 1 0 0 1 2 0 0 0 2 2

Total # of neighbors = 122940
Ave neighs/atom = 81.96
Ave special neighs/atom = 2
Neighbor list builds = 196
Dangerous builds = 0
PPPM initialization ...
  using 12-bit tables for long-range coulomb (src/kspace.cpp:342)
  G vector (1/distance) = 0.27004855
  grid = 48 48 48
  stencil order = 5
  estimated absolute RMS force accuracy = 0.00036975935
  estimated relative force accuracy = 1.1135193e-06
  using single precision FFTW3
  3d grid and FFT values/proc = 29791 13824
Generated 1 of 1 mixed pair_coeff terms from arithmetic mixing rule
Last active /omp style is kspace_style pppm/omp
Setting up Verlet run ...
  Unit style    : real
  Current step  : 104501
  Time step     : 0.5
Per MPI rank memory allocation (min/avg/max) = 8.516 | 8.517 | 8.518 Mbytes
   Step         PotEng         KinEng         TotEng         Press           Temp        v_Density   
    104501   357.95704      1324.9606      1682.9176      241.69076      296.5289       0.18061858   
    105000   497.67502      1367.2947      1864.9697      153.99125      306.00336      0.20085547   
    106000   463.8017       1380.6103      1844.412       142.05347      308.98341      0.18921906   
    107000   454.31537      1343.2029      1797.5183      324.90413      300.61157      0.19804384   
    108000   454.40875      1349.8222      1804.2309      126.05873      302.09297      0.19262377   
    109000   470.3687       1327.0745      1797.4432      162.03503      297.002        0.19686578   
    110000   472.46435      1348.2927      1820.7571      227.51969      301.75068      0.18724074   
    111000   450.16094      1387.9636      1838.1245      184.19891      310.62909      0.19737517   
    112000   447.0385       1367.3664      1814.405       97.989969      306.01942      0.20374451   
    113000   436.17448      1355.899       1792.0735      376.49467      303.45298      0.2113482    
    114000   454.54408      1323.3246      1777.8687      257.67154      296.16276      0.21465321   
    115000   462.88285      1339.1789      1802.0617      29.168938      299.71098      0.20965403   
    116000   446.22601      1322.1238      1768.3498      240.09559      295.89402      0.21558883   
    117000   431.76859      1305.4658      1737.2344      248.36822      292.16593      0.21681243   
    118000   436.21094      1331.1371      1767.348       153.79369      297.9112       0.21083997   
    119000   443.81087      1335.2473      1779.0582      224.02542      298.83109      0.20405903   
    120000   450.92313      1349.4734      1800.3965      294.91859      302.01491      0.21542121   
    121000   426.33565      1292.2612      1718.5968      138.4124       289.21071      0.21348164   
    122000   447.71623      1353.4581      1801.1743      92.659533      302.9067       0.2077561    
    123000   466.10859      1336.9089      1803.0175      269.03258      299.20295      0.20294172   
    124000   436.50941      1359.5678      1796.0772      163.23429      304.27406      0.21111196   
    125000   451.89288      1338.7995      1790.6924      151.15235      299.62609      0.20359638   
    126000   445.08693      1317.1045      1762.1915      298.91173      294.7707       0.20972587   
    127000   465.37041      1362.2879      1827.6583      168.77092      304.88283      0.20379228   
    128000   420.22472      1326.9016      1747.1264      127.96082      296.96331      0.20212341   
    129000   441.97297      1349.8456      1791.8185      238.55607      302.09821      0.21460276   
    130000   434.71885      1349.2403      1783.9591      176.98839      301.96274      0.21469715   
    131000   429.40484      1314.9983      1744.4031      106.33079      294.29932      0.20653209   
    132000   444.13511      1360.9964      1805.1315      285.74944      304.59378      0.21305557   
    133000   434.62043      1397.3043      1831.9247      309.15258      312.71956      0.2431158    
    134000   421.70084      1285.3228      1707.0237      118.40526      287.65789      0.22442455   
    135000   486.37244      1333.4255      1819.7979      274.85164      298.42337      0.21490507   
    136000   400.59865      1322.8848      1723.4835      209.00627      296.06434      0.22990433   
    137000   427.95586      1306.6005      1734.5564      143.7408       292.41987      0.22643636   
    138000   404.91349      1288.3834      1693.2968      241.82065      288.34284      0.21372894   
    139000   441.75969      1339.1866      1780.9463      155.72663      299.71272      0.21794573   
    140000   457.77885      1367.0422      1824.821       143.27979      305.94684      0.21574152   
    141000   443.88484      1268.6097      1712.4945      179.5286       283.91745      0.21434955   
    142000   437.27439      1351.4515      1788.7259      205.59422      302.45763      0.19780021   
    143000   445.79247      1312.505       1758.2975      191.37324      293.74132      0.21171727   
    144000   425.33149      1337.2255      1762.5569      199.01715      299.2738       0.21170348   
    145000   429.10711      1349.5179      1778.625       294.51854      302.02488      0.2120794    
    146000   444.31835      1359.9553      1804.2737      172.15961      304.36079      0.21005344   
    147000   431.17387      1384.8264      1816.0003      166.35457      309.927        0.21637546   
    148000   439.15239      1312.0047      1751.1571      248.37438      293.62934      0.21955067   
    149000   428.34246      1315.141       1743.4835      186.38031      294.33127      0.21604085   
    150000   451.33165      1333.4201      1784.7518      234.12714      298.42216      0.2174469    
    151000   433.20985      1312.3391      1745.5489      218.43212      293.70418      0.20582399   
    152000   434.00612      1317.6051      1751.6112      176.32266      294.88272      0.21295535   
    153000   458.92759      1342.4449      1801.3725      238.43882      300.44193      0.20814952   
    154000   452.59988      1379.3234      1831.9232      218.97267      308.6954       0.1978487    
    154501   486.16243      1347.5932      1833.7557      152.50249      301.59413      0.20155926   
Loop time of 213.162 on 8 procs for 50000 steps with 1500 atoms

Performance: 10.133 ns/day, 2.368 hours/ns, 234.564 timesteps/s, 351.845 katom-step/s
99.5% CPU use with 8 MPI tasks x 1 OpenMP threads

MPI task timing breakdown:
Section |  min time  |  avg time  |  max time  |%varavg| %total
---------------------------------------------------------------
Pair    | 10.615     | 11.445     | 11.894     |  12.6 |  5.37
Bond    | 0.49848    | 0.51035    | 0.523      |   1.3 |  0.24
Kspace  | 84.314     | 84.762     | 85.631     |   4.7 | 39.76
Neigh   | 0.2369     | 0.23722    | 0.23768    |   0.1 |  0.11
Comm    | 3.7787     | 3.7999     | 3.8178     |   0.6 |  1.78
Output  | 0.0019189  | 0.0021051  | 0.0033617  |   1.0 |  0.00
Modify  | 108.38     | 110.35     | 111.63     |  10.9 | 51.77
Other   |            | 2.058      |            |       |  0.97

Nlocal:          187.5 ave         229 max         157 min
Histogram: 1 1 2 1 1 0 0 0 1 1
Nghost:        1928.38 ave        1985 max        1846 min
Histogram: 1 1 0 0 0 1 2 1 0 2
Neighs:        17282.4 ave       23475 max       14000 min
Histogram: 1 4 0 0 1 0 0 1 0 1

Total # of neighbors = 138259
Ave neighs/atom = 92.172667
Ave special neighs/atom = 2
Neighbor list builds = 391
Dangerous builds = 0
PPPM initialization ...
  using 12-bit tables for long-range coulomb (src/kspace.cpp:342)
  G vector (1/distance) = 0.27238525
  grid = 48 48 48
  stencil order = 5
  estimated absolute RMS force accuracy = 0.00032965626
  estimated relative force accuracy = 9.9275003e-07
  using single precision FFTW3
  3d grid and FFT values/proc = 29791 13824
Generated 1 of 1 mixed pair_coeff terms from arithmetic mixing rule
Last active /omp style is kspace_style pppm/omp
Setting up Verlet run ...
  Unit style    : real
  Current step  : 0
  Time step     : 0.5
Per MPI rank memory allocation (min/avg/max) = 8.516 | 8.517 | 8.518 Mbytes
   Step         PotEng         KinEng         TotEng         Press           Temp        v_Density   
         0   486.16163      1347.5932      1833.7549      152.50227      301.59413      0.20155926   
      1000   461.90395      1358.993       1820.8969      169.65678      304.14542      0.2027625    
      2000   436.70211      1373.174       1809.8762      233.65991      307.31917      0.20757883   
      3000   408.46241      1350.0658      1758.5282      236.34313      302.1475       0.21493573   
      4000   450.35145      1279.2936      1729.6451      267.53291      286.30854      0.21782392   
      5000   458.94718      1308.1457      1767.0929      190.22175      292.7657       0.21050567   
      6000   465.47537      1319.4909      1784.9663      205.51049      295.30478      0.20171675   
      7000   429.76925      1301.1528      1730.922       150.89819      291.20067      0.2005664    
      8000   454.24249      1313.0462      1767.2887      203.49145      293.86244      0.20474452   
      9000   447.11238      1292.6285      1739.7408      217.21543      289.2929       0.21032825   
     10000   438.84735      1326.7977      1765.645       235.39277      296.94004      0.21574518   
     11000   439.55227      1297.9662      1737.5185      323.58869      290.4875       0.21884051   
     12000   417.67229      1341.566       1759.2383      332.56544      300.24523      0.21753296   
     13000   432.06905      1333.6505      1765.7195      292.9279       298.47371      0.21347657   
     14000   457.87527      1287.7454      1745.6207      269.04744      288.20007      0.20865245   
     15000   447.35104      1276.6239      1723.9749      156.00774      285.71105      0.20550646   
     16000   420.6423       1324.9189      1745.5612      207.71893      296.51957      0.20988913   
     17000   435.31743      1340.7223      1776.0397      148.8371       300.0564       0.21790923   
     18000   426.74075      1340.6902      1767.431       175.06314      300.04922      0.22612301   
     19000   439.93838      1350.4079      1790.3463      224.57994      302.22407      0.22755759   
     20000   432.99104      1349.5382      1782.5292      214.56078      302.02942      0.21756285   
     21000   450.09618      1353.2471      1803.3433      221.7079       302.85948      0.20646708   
     22000   460.52286      1339.7745      1800.2974      240.21791      299.84429      0.20276017   
     23000   461.19168      1350.2402      1811.4319      243.66992      302.18653      0.20394732   
     24000   445.85915      1368.024       1813.8831      256.06927      306.16658      0.20954212   
     25000   453.96474      1365.3532      1819.3179      192.05319      305.56884      0.21411595   
     26000   435.25212      1382.4513      1817.7034      262.63155      309.39544      0.21720418   
     27000   461.58409      1346.432       1808.0161      266.87283      301.33425      0.21687553   
     28000   432.57976      1312.3928      1744.9726      196.24518      293.71621      0.21247374   
     29000   470.57843      1351.1814      1821.7599      85.092425      302.39718      0.20863673   
     30000   489.64702      1317.8254      1807.4725      38.647111      294.93204      0.21042993   
     31000   447.21608      1326.1354      1773.3515      59.597093      296.79183      0.21158118   
     32000   444.81051      1307.2764      1752.0869      129.87223      292.57115      0.20867431   
     33000   466.24397      1332.2314      1798.4753      253.54414      298.15612      0.20479839   
     34000   459.39393      1306.6712      1766.0651      330.92829      292.4357       0.20361906   
     35000   438.62855      1334.0414      1772.67        299.16501      298.56121      0.20550536   
     36000   435.02986      1344.9985      1780.0284      260.42182      301.01344      0.21296933   
     37000   421.71508      1338.5944      1760.3094      150.97373      299.58017      0.219059     
     38000   467.1949       1319.4895      1786.6844      72.784454      295.30445      0.22023629   
     39000   436.5228       1296.5987      1733.1215      42.056443      290.18145      0.21432239   
     40000   446.21996      1309.4907      1755.7106      127.38703      293.0667       0.20775327   
     41000   461.47143      1323.5922      1785.0637      175.12788      296.22266      0.2040136    
     42000   437.77023      1342.4989      1780.2691      223.29604      300.454        0.2042285    
     43000   451.77822      1358.3667      1810.145       227.1182       304.00526      0.20503531   
     44000   459.62731      1347.7335      1807.3608      243.70675      301.62551      0.20716327   
     45000   458.19415      1359.7868      1817.981       232.01537      304.32308      0.20952978   
     46000   430.90425      1349.213       1780.1173      240.38997      301.95665      0.21113947   
     47000   433.04247      1312.7781      1745.8206      228.15776      293.80244      0.21248649   
     48000   431.98001      1280.742       1712.722       250.88525      286.63269      0.21529429   
     49000   433.41099      1296.1337      1729.5447      220.93713      290.07738      0.22111559   
     50000   437.08462      1314.0993      1751.184       245.22548      294.09813      0.22632523   
     51000   423.16074      1337.366       1760.5268      196.86703      299.30526      0.22381356   
     52000   445.12074      1296.9542      1742.075       135.95191      290.26102      0.21865101   
     53000   465.8305       1319.8246      1785.6551      211.03796      295.37945      0.2167802    
     54000   457.12065      1367.7566      1824.8772      194.58061      306.10673      0.21455971   
     55000   461.65422      1350.5504      1812.2046      142.07552      302.25596      0.20630642   
     56000   456.24933      1360.7293      1816.9786      138.16937      304.534        0.19881052   
     57000   473.55555      1367.2228      1840.7784      199.13421      305.98727      0.19909454   
     58000   482.94494      1390.7931      1873.738       224.23748      311.26234      0.20213158   
     59000   452.117        1387.0129      1839.1299      252.95185      310.41632      0.20581377   
     60000   491.20844      1335.4149      1826.6233      243.04876      298.86859      0.20906951   
     61000   443.79405      1352.8489      1796.643       234.17125      302.77037      0.21297625   
     62000   474.566        1368.4814      1843.0474      180.64515      306.26895      0.21618521   
     63000   441.05926      1369.518       1810.5773      138.63483      306.50095      0.21624455   
     64000   473.48646      1348.7749      1822.2614      157.3673       301.8586       0.21114569   
     65000   466.74266      1394.7023      1861.445       191.81209      312.13724      0.20650391   
     66000   477.26403      1344.0416      1821.3057      233.9619       300.79928      0.20631618   
     67000   473.66752      1353.2446      1826.9121      229.83249      302.85892      0.20833904   
     68000   453.63191      1373.9911      1827.623       223.51548      307.50202      0.21537326   
     69000   423.41449      1415.5497      1838.9642      213.81617      316.80292      0.22645679   
     70000   418.12294      1357.1464      1775.2693      214.18912      303.73215      0.22729096   
     71000   443.34174      1337.1616      1780.5033      157.70621      299.25951      0.2203946    
     72000   447.1434       1345.0785      1792.2219      185.73685      301.03133      0.21565119   
     73000   424.70208      1344.1344      1768.8365      224.23932      300.82005      0.21298649   
     74000   455.92903      1323.2782      1779.2072      259.00742      296.15237      0.20955507   
     75000   459.51747      1320.9142      1780.4317      250.85752      295.62332      0.20726305   
     76000   429.37831      1309.692       1739.0703      170.34227      293.11175      0.20582921   
     77000   445.90715      1294.6796      1740.5867      87.898662      289.75195      0.21046401   
     78000   461.80452      1320.4606      1782.2651      108.53323      295.52179      0.21926023   
     79000   436.24005      1285.054       1721.2941      142.65463      287.59773      0.21816978   
     80000   446.58984      1309.869       1756.4588      209.03993      293.15136      0.2131081    
     81000   468.05045      1302.0106      1770.061       235.38945      291.39264      0.20753248   
     82000   465.98476      1306.8174      1772.8022      196.27409      292.46842      0.2029521    
     83000   435.94619      1327.2291      1763.1752      172.82939      297.03659      0.20393325   
     84000   469.62292      1304.3213      1773.9442      59.114909      291.90977      0.20786191   
     85000   453.38676      1333.5496      1786.9363      84.885352      298.45113      0.21018198   
     86000   432.42105      1361.1341      1793.5551      109.0872       304.6246       0.20915015   
     87000   461.90594      1285.9712      1747.8772      170.4169       287.803        0.20736615   
     88000   450.15286      1326.8416      1776.9945      159.11653      296.94988      0.20458522   
     89000   471.04726      1337.2084      1808.2557      131.33018      299.26998      0.19838929   
     90000   477.00054      1329.7655      1806.766       123.36699      297.60424      0.19604221   
     91000   488.11093      1296.9481      1785.059       233.90475      290.25964      0.20250344   
     92000   442.85268      1361.477       1804.3297      351.41176      304.70135      0.21184569   
     93000   441.82403      1371.9996      1813.8237      334.15869      307.05633      0.21869227   
     94000   464.46649      1333.7624      1798.2289      225.11117      298.49876      0.21918313   
     95000   458.11985      1349.3406      1807.4604      88.2935        301.9852       0.21415819   
     96000   440.93187      1375.4765      1816.4084      54.734684      307.83447      0.20878862   
     97000   451.48253      1339.4403      1790.9229      43.087129      299.76949      0.20510522   
     98000   463.06609      1298.9594      1762.0255      100.48255      290.70978      0.20331144   
     99000   456.54114      1331.323       1787.8642      213.19873      297.95282      0.20484949   
    100000   450.97193      1343.9861      1794.958       302.16535      300.78684      0.20883169   
    101000   454.52958      1307.4844      1762.014       258.32355      292.6177       0.21550294   
    102000   435.22066      1340.63        1775.8506      368.55352      300.03574      0.22299255   
    103000   442.12465      1375.5965      1817.7212      305.77885      307.86132      0.22128647   
    104000   463.01539      1353.547       1816.5623      217.58598      302.92659      0.21845672   
    105000   467.96656      1340.4932      1808.4598      154.61557      300.00513      0.21813489   
    106000   471.51085      1353.2635      1824.7743      116.0355       302.86314      0.21772116   
    107000   444.55915      1381.1193      1825.6784      138.33152      309.09732      0.21575794   
    108000   461.32773      1329.4245      1790.7522      93.553415      297.52793      0.21030425   
    109000   472.78786      1311.883       1784.6709      74.918611      293.60211      0.20446655   
    110000   456.31922      1339.6187      1795.938       86.820726      299.80942      0.2000619    
    111000   484.07708      1331.8968      1815.9739      113.18611      298.08124      0.20065379   
    112000   510.40797      1301.6153      1812.0233      171.13209      291.30418      0.20589914   
    113000   432.49321      1282.0666      1714.5598      179.75895      286.92914      0.21312515   
    114000   402.19412      1340.1464      1742.3405      176.96068      299.92751      0.22078347   
    115000   451.97526      1292.6885      1744.6637      119.55397      289.30633      0.22054906   
    116000   423.46784      1336.2877      1759.7555      72.456452      299.06393      0.21565022   
    117000   457.93008      1321.3307      1779.2608      124.73867      295.71652      0.2139678    
    118000   439.63272      1290.907       1730.5397      149.52876      288.90763      0.21156546   
    119000   470.74994      1291.9631      1762.7131      211.29468      289.144        0.20887774   
    120000   493.33214      1308.2152      1801.5473      236.48627      292.78124      0.20742286   
    121000   439.16619      1311.1986      1750.3648      243.2699       293.44894      0.21162568   
    122000   454.85762      1315.1686      1770.0262      312.29155      294.33743      0.2241597    
    123000   422.94421      1329.4266      1752.3709      231.75257      297.52841      0.22784711   
    124000   423.98736      1324.9764      1748.9638      154.86951      296.53244      0.22503715   
    125000   451.59335      1350.4241      1802.0174      102.70719      302.22768      0.21918496   
    126000   477.53766      1316.7401      1794.2778      32.942347      294.68914      0.21480321   
    127000   463.50723      1342.6945      1806.2017      70.248406      300.49779      0.2141793    
    128000   461.49967      1404.647       1866.1466      134.03562      314.36287      0.21204827   
    129000   445.67566      1393.4326      1839.1083      245.99737      311.85308      0.20674702   
    130000   460.0796       1356.6517      1816.7313      246.48007      303.62143      0.20193164   
    131000   470.66179      1326.5057      1797.1675      314.63572      296.87469      0.20389278   
    132000   444.12377      1329.4461      1773.5698      263.20506      297.53276      0.20633159   
    133000   440.96548      1319.4842      1760.4496      194.25401      295.30326      0.20779442   
    134000   477.24416      1357.3744      1834.6186      177.2122       303.78318      0.20948806   
    135000   471.64207      1357.6054      1829.2475      125.51141      303.83489      0.20782976   
    136000   502.32327      1345.2234      1847.5466      121.51273      301.06375      0.20371314   
    137000   487.42421      1326.8395      1814.2637      87.693879      296.94941      0.20215062   
    138000   471.6101       1296.8669      1768.477       103.93824      290.24147      0.20745339   
    139000   447.77517      1296.516       1744.2911      246.03574      290.16294      0.21880901   
    140000   439.42776      1316.3314      1755.7592      249.32624      294.59768      0.22162291   
    141000   443.09805      1299.0973      1742.1953      203.94538      290.74064      0.21637558   
    142000   461.11398      1321.5901      1782.7041      110.37682      295.77459      0.21046483   
    143000   429.1491       1322.6011      1751.7502      74.002055      296.00084      0.2088809    
    144000   446.40724      1337.7887      1784.1959      79.701843      299.39985      0.21093189   
    145000   427.27119      1326.7189      1753.9901      125.46891      296.92241      0.21381622   
    146000   452.34995      1334.8421      1787.192       182.11555      298.7404       0.21885668   
    147000   450.31288      1352.1229      1802.4357      292.85374      302.60787      0.22477788   
    148000   468.44968      1331.855       1800.3047      204.97872      298.07189      0.22319101   
    149000   432.84055      1377.5766      1810.4171      208.8252       308.30447      0.21469801   
    150000   450.26626      1378.9387      1829.205       210.01639      308.60932      0.2086005    
    151000   483.90985      1359.4616      1843.3715      167.37503      304.2503       0.20584008   
    152000   473.35679      1388.6411      1861.9979      188.90627      310.78074      0.2050306    
    153000   428.19209      1355.5059      1783.698       201.04873      303.36501      0.20669818   
    154000   444.40154      1330.0812      1774.4828      260.99865      297.67491      0.21001526   
    155000   447.79885      1335.7963      1783.5951      272.30569      298.95394      0.21363178   
    156000   468.48061      1327.6936      1796.1742      282.8708       297.14055      0.21489138   
    157000   462.55143      1334.4273      1796.9787      291.48838      298.64757      0.2098762    
    158000   440.65727      1336.9346      1777.5919      161.32635      299.20872      0.19972171   
    159000   482.41317      1318.7677      1801.1808      143.85257      295.14291      0.19678955   
    160000   488.5003       1321.0336      1809.5339      153.05366      295.65003      0.19827444   
    161000   452.18121      1303.9807      1756.1619      108.43176      291.83355      0.20033692   
    162000   469.60733      1310.2102      1779.8175      166.95402      293.22772      0.20231121   
    163000   449.76658      1338.9202      1788.6868      158.70531      299.65309      0.20334415   
    164000   458.73458      1317.5039      1776.2385      230.11969      294.86009      0.20573431   
    165000   447.5986       1324.1414      1771.74        271.93347      296.34556      0.21024373   
    166000   444.32094      1338.4154      1782.7363      262.75811      299.54011      0.21504121   
    167000   426.21632      1327.3035      1753.5199      261.10944      297.05326      0.21764804   
    168000   466.26081      1321.2527      1787.5135      230.72553      295.69907      0.21352964   
    169000   450.35656      1325.1939      1775.5505      123.65156      296.58112      0.20465993   
    170000   481.19795      1287.0725      1768.2704      151.54206      288.04946      0.20342195   
    171000   448.94544      1343.2124      1792.1578      246.08044      300.61369      0.20322264   
    172000   460.63654      1320.6635      1781.3001      277.76946      295.56721      0.20394666   
    173000   458.81064      1319.7756      1778.5862      290.40547      295.36849      0.20447886   
    174000   470.01798      1302.9637      1772.9817      175.0822       291.60595      0.20460633   
    175000   452.43612      1311.4255      1763.8617      178.31214      293.49973      0.21161324   
    176000   463.16034      1334.2615      1797.4218      150.65598      298.61045      0.21792513   
    177000   460.07941      1351.4935      1811.5729      161.36602      302.46702      0.2171908    
    178000   475.32606      1344.9962      1820.3222      209.2301       301.0129       0.20457373   
    179000   473.60783      1388.4663      1862.0741      228.77964      310.7416       0.19882075   
    180000   463.1865       1356.542       1819.7285      213.31476      303.59689      0.198207     
    181000   467.9896       1314.0007      1781.9903      220.04682      294.07606      0.20137016   
    182000   460.80589      1304.1134      1764.9193      210.22447      291.86326      0.20821529   
    183000   431.51223      1301.9195      1733.4317      267.61446      291.37225      0.21620709   
    184000   434.20839      1290.3241      1724.5325      291.06789      288.77719      0.21851415   
    185000   455.57386      1312.9525      1768.5263      233.3316       293.84146      0.2143897    
    186000   456.37789      1349.346       1805.7239      167.64893      301.98641      0.20954215   
    187000   491.98861      1338.3354      1830.324       120.94308      299.52221      0.20595025   
    188000   468.57213      1338.4288      1807.001       170.81145      299.54312      0.20544559   
    189000   457.13502      1373.4065      1830.5416      170.83127      307.3712       0.20913246   
    190000   441.16578      1355.3975      1796.5633      265.56951      303.34074      0.21869338   
    191000   438.78201      1351.2608      1790.0428      317.47646      302.41494      0.22568231   
    192000   433.67108      1408.5221      1842.1932      258.77597      315.23015      0.22332926   
    193000   445.31675      1368.5557      1813.8725      229.36288      306.28557      0.21835078   
    194000   454.56628      1348.5885      1803.1548      223.08335      301.81689      0.21276778   
    195000   457.79251      1320.5842      1778.3767      181.85217      295.54946      0.20744042   
    196000   474.10873      1326.1852      1800.2939      126.83406      296.80296      0.20429898   
    197000   454.23506      1323.3505      1777.5855      161.33824      296.16855      0.20326034   
    198000   457.83707      1296.2273      1754.0644      110.61735      290.09834      0.20246475   
    199000   448.28116      1301.0313      1749.3125      100.81557      291.17348      0.20547754   
    200000   438.12523      1322.5839      1760.7091      144.99267      295.99698      0.21448836   
    201000   472.25203      1308.5138      1780.7658      231.96554      292.84807      0.21908243   
    202000   470.29251      1316.2884      1786.5809      286.20101      294.58804      0.2172535    
    203000   432.17507      1346.9204      1779.0954      228.23449      301.44354      0.21252974   
    204000   448.9003       1346.377       1795.2773      111.32221      301.32194      0.2066846    
    205000   461.6124       1336.1481      1797.7605      98.050166      299.03269      0.2058511    
    206000   451.01285      1361.0071      1812.0199      93.864883      304.59618      0.20702272   
    207000   467.40034      1344.9875      1812.3878      66.060638      301.01096      0.20987582   
    208000   461.00269      1356.404       1817.4067      132.58866      303.566        0.21483942   
    209000   419.56836      1302.3027      1721.871       190.06308      291.45801      0.21931882   
    210000   439.81636      1293.4208      1733.2372      249.71654      289.47024      0.22219858   
    211000   434.82445      1321.022       1755.8464      339.79832      295.64743      0.22305074   
    212000   472.56853      1320.2336      1792.8021      329.40294      295.47099      0.21301191   
    213000   453.13403      1353.7567      1806.8907      297.91354      302.97352      0.20384161   
    214000   460.22047      1413.1828      1873.4033      265.95096      316.27322      0.20038135   
    215000   466.84403      1413.7446      1880.5886      171.44731      316.39893      0.19976471   
    216000   460.07862      1381.6696      1841.7482      123.74593      309.22049      0.20466877   
    217000   473.85217      1345.5276      1819.3798      145.81752      301.13185      0.20843867   
    218000   481.5355       1390.7101      1872.2456      126.80095      311.24377      0.20826313   
    219000   468.47565      1354.7514      1823.227       106.35696      303.19614      0.20827779   
    220000   453.14815      1345.4283      1798.5764      194.12126      301.10961      0.20907204   
    221000   427.14633      1343.284       1770.4304      204.46876      300.62972      0.21078066   
    222000   459.6374       1344.301       1803.9384      290.7643       300.85732      0.21609118   
    223000   455.32588      1355.7964      1811.1222      279.3441       303.43001      0.21889687   
    224000   456.61198      1383.4865      1840.0985      200.1146       309.62713      0.21829458   
    225000   456.10336      1341.1479      1797.2512      159.73         300.15165      0.21431995   
    226000   463.83431      1402.4299      1866.2642      197.9142       313.86669      0.21116911   
    227000   458.79812      1351.5848      1810.3829      240.59262      302.48746      0.20427941   
    228000   462.73451      1341.4442      1804.1787      201.86052      300.21796      0.20046802   
    229000   458.86566      1281.9004      1740.7661      217.63123      286.89195      0.20512134   
    230000   472.10985      1285.6509      1757.7607      235.26936      287.7313       0.21037151   
    231000   470.82761      1314.487       1785.3146      185.99255      294.18489      0.21050368   
    232000   445.40883      1354.6082      1800.017       168.29708      303.16409      0.20779048   
    233000   459.17956      1370.8502      1830.0298      131.02575      306.7991       0.20311769   
    234000   479.85383      1400.518       1880.3719      212.34398      313.43881      0.20105314   
    235000   488.30947      1392.9864      1881.2958      208.72526      311.7532       0.20252156   
    236000   470.79088      1338.9346      1809.7255      197.42025      299.65631      0.20928013   
    237000   437.58366      1305.667       1743.2507      204.0884       292.21096      0.2202233    
    238000   426.12788      1301.4303      1727.5582      207.89281      291.26278      0.22417901   
    239000   423.91734      1325.8729      1749.7902      225.55321      296.73307      0.22396787   
    240000   428.57259      1336.3992      1764.9718      289.27677      299.08889      0.22280253   
    241000   447.75346      1323.7884      1771.5419      183.42053      296.26657      0.21888939   
    242000   483.8446       1365.2509      1849.0955      73.551941      305.54596      0.21381936   
    243000   454.29618      1364.9173      1819.2135     -3.9960793      305.47129      0.21065476   
    244000   497.04009      1343.5765      1840.6166     -22.972611      300.69518      0.21452689   
    245000   460.00684      1375.3947      1835.4016      105.64728      307.81617      0.22347731   
    246000   455.56302      1380.8732      1836.4362      190.42244      309.04225      0.2265831    
    247000   466.02238      1332.0862      1798.1086      113.83728      298.12364      0.2191017    
    248000   461.31697      1354.713       1816.0299      127.69257      303.18754      0.2126058    
    249000   469.09495      1354.6836      1823.7785      90.571853      303.18097      0.21071865   
    250000   461.09331      1362.4574      1823.5507      77.602789      304.92075      0.21163196   
    251000   462.37555      1352.2822      1814.6578      90.332169      302.64354      0.21499609   
    252000   435.78531      1347.4215      1783.2068      73.911407      301.5557       0.21911668   
    253000   435.92295      1287.8875      1723.8105      158.04578      288.23187      0.22842475   
    254000   437.41008      1325.434       1762.8441      237.04134      296.63485      0.23057623   
    255000   452.62106      1332.779       1785.4001      309.10054      298.27868      0.22308949   
    256000   461.19329      1326.0456      1787.2389      313.63552      296.77173      0.21381252   
    257000   469.03748      1328.43        1797.4674      276.26665      297.30535      0.21067555   
    258000   410.60587      1363.6401      1774.246       248.17362      305.18545      0.20902466   
    259000   436.12218      1321.0605      1757.1827      231.05563      295.65605      0.21194038   
    260000   476.67052      1317.5915      1794.262       168.89891      294.87967      0.21569124   
    261000   433.87701      1324.5522      1758.4292      181.46294      296.43749      0.21508564   
    262000   430.97239      1364.8129      1795.7853      191.88152      305.44793      0.20732121   
    263000   461.88106      1353.6014      1815.4824      210.00454      302.93877      0.19860574   
    264000   471.89098      1362.2413      1834.1323      228.69902      304.87241      0.19912865   
    265000   483.99257      1375.7535      1859.7461      262.91951      307.89647      0.20539828   
    266000   475.98291      1367.3616      1843.3446      200.77727      306.01834      0.20871504   
    267000   477.61176      1349.8604      1827.4721      162.3354       302.10152      0.20813852   
    268000   483.26399      1369.3614      1852.6253      84.755017      306.46588      0.20333148   
    269000   468.05826      1412.5489      1880.6072      102.05687      316.13135      0.20169437   
    270000   484.03661      1361.9533      1845.9899      141.94683      304.80794      0.20648791   
    271000   484.14434      1300.6087      1784.7531      217.19289      291.07891      0.21604879   
    272000   427.46755      1343.42        1770.8876      211.56639      300.66016      0.22056036   
    273000   442.75321      1296.4605      1739.2137      198.84251      290.15051      0.21849066   
    274000   472.31772      1288.7098      1761.0275      144.4024       288.41589      0.21471045   
    275000   427.13432      1326.0119      1753.1462      124.53049      296.76419      0.2106804    
    276000   460.14723      1322.8207      1782.9679      148.41375      296.04999      0.20758015   
    277000   458.39356      1327.535       1785.9286      199.04963      297.10507      0.20518546   
    278000   481.43654      1316.0223      1797.4589      238.83896      294.5285       0.20517851   
    279000   439.15142      1318.8194      1757.9708      267.84302      295.15448      0.21144791   
    280000   477.79584      1337.7227      1815.5186      298.71933      299.38509      0.22324787   
    281000   447.62369      1355.8546      1803.4783      143.11487      303.44305      0.22480359   
    282000   443.03456      1364.2416      1807.2762      161.23409      305.32008      0.22359485   
    283000   444.82063      1343.4913      1788.3119      184.49633      300.6761       0.21786487   
    284000   463.79076      1319.0637      1782.8545      215.80301      295.20916      0.21305836   
    285000   468.49724      1323.7213      1792.2185      186.37332      296.25154      0.20996532   
    286000   423.36047      1341.3372      1764.6977      192.82027      300.19402      0.20873203   
    287000   480.18108      1322.4231      1802.6042      105.67219      295.96101      0.20779253   
    288000   472.85299      1353.1135      1825.9665      123.91809      302.82957      0.20756273   
    289000   457.19935      1316.8868      1774.0861      126.47089      294.72196      0.20535268   
    290000   476.26006      1327.0901      1803.3502      103.19351      297.00549      0.20503062   
    291000   460.61874      1331.5248      1792.1436      118.86739      297.99799      0.20796746   
    292000   434.54581      1340.1967      1774.7425      160.52769      299.93877      0.21278366   
    293000   447.51185      1316.1087      1763.6206      226.09144      294.54783      0.21570192   
    294000   481.69244      1309.098       1790.7904      164.18824      292.97881      0.21372411   
    295000   458.04091      1321.5281      1779.569       173.43108      295.76071      0.20987616   
    296000   470.45071      1380.9721      1851.4228      145.35208      309.06439      0.2073715    
    297000   458.37337      1356.7518      1815.1251      256.5318       303.64383      0.2085666    
    298000   480.57971      1317.6224      1798.2021      223.63532      294.88659      0.20668067   
    299000   443.65741      1355.1069      1798.7643      249.71738      303.27571      0.20641893   
    300000   439.92938      1346.776       1786.7053      242.71729      301.41123      0.21332486   
    301000   428.89596      1319.8909      1748.7868      206.57553      295.39428      0.22097472   
    302000   458.47372      1326.1171      1784.5908      204.11402      296.78773      0.22208043   
    303000   457.83588      1299.5238      1757.3597      222.27181      290.83609      0.2157292    
    304000   472.91203      1323.4427      1796.3547      226.86471      296.18918      0.21088294   
    305000   459.28598      1325.3186      1784.6046      260.69021      296.60902      0.2083027    
    306000   456.67263      1317.0602      1773.7328      287.99862      294.76077      0.20688009   
    307000   449.92666      1305.997       1755.9236      263.49349      292.28481      0.20858669   
    308000   459.04715      1267.2082      1726.2553      275.31572      283.60379      0.21367541   
    309000   438.42224      1329.0788      1767.501       191.93202      297.45056      0.21860724   
    310000   444.67505      1339.843       1784.518       98.514424      299.85961      0.21971516   
    311000   456.57954      1317.048       1773.6275      7.5894375      294.75805      0.21896339   
    312000   473.93076      1328.7941      1802.7249      83.080116      297.38685      0.22158468   
    313000   448.40006      1374.9677      1823.3678      102.51327      307.7206       0.22002972   
    314000   457.86422      1379.65        1837.5142      86.588681      308.76851      0.21606229   
    315000   465.51961      1335.9398      1801.4594      180.03364      298.98607      0.21524709   
    316000   449.12775      1351.4746      1800.6024      218.12176      302.4628       0.21500003   
    317000   439.48022      1370.6973      1810.1776      295.78565      306.76488      0.21680991   
    318000   458.88047      1381.7026      1840.5831      335.78162      309.22789      0.21966764   
    319000   459.35177      1348.1752      1807.527       282.48291      301.72437      0.21851478   
    320000   491.47247      1365.1905      1856.6629      232.01027      305.53243      0.21130947   
    321000   455.40427      1331.2592      1786.6635      174.18295      297.93855      0.20342558   
    322000   446.86473      1343.5776      1790.4424      122.87669      300.69544      0.20103218   
    323000   462.04309      1316.214       1778.2571      114.93588      294.5714       0.20526089   
    324000   440.55493      1333.4286      1773.9835      172.40165      298.42406      0.21158983   
    325000   479.68883      1292.5434      1772.2323      234.89335      289.27388      0.21288752   
    326000   482.86478      1353.8894      1836.7541      283.07922      303.00322      0.21379357   
    327000   423.28251      1379.2963      1802.5788      292.94302      308.68935      0.21489047   
    328000   464.32099      1360.2179      1824.5389      324.68182      304.41955      0.21664379   
    329000   480.66767      1413.6461      1894.3137      275.44746      316.37689      0.21311244   
    330000   482.78767      1375.945       1858.7326      187.49308      307.93931      0.20808067   
    331000   454.59492      1377.2697      1831.8646      128.28206      308.23578      0.20568822   
    332000   461.49732      1337.6873      1799.1846      160.63375      299.37716      0.20612363   
    333000   471.68099      1343.8604      1815.5414      196.2111       300.75871      0.21384876   
    334000   431.39918      1316.2694      1747.6686      221.60269      294.58379      0.21947441   
    335000   458.85469      1318.4181      1777.2728      260.38314      295.06468      0.22236418   
    336000   442.23236      1313.9503      1756.1827      265.37528      294.06477      0.22010254   
    337000   433.8541       1296.1412      1729.9953      249.25499      290.07906      0.21425617   
    338000   449.94697      1285.397       1735.3439      182.28116      287.67448      0.21110102   
    339000   448.69362      1315.408       1764.1017      184.60488      294.39102      0.21244358   
    340000   442.42108      1334.2912      1776.7123      125.77463      298.61711      0.21374237   
    341000   447.82461      1331.676       1779.5006      127.59179      298.03182      0.21810057   
    342000   436.26941      1301.2145      1737.4839      120.95671      291.21447      0.21690703   
    343000   474.75757      1306.5952      1781.3527      115.15616      292.41868      0.2114923    
    344000   464.33577      1319.2843      1783.62        77.46132       295.25853      0.20481087   
    345000   452.77973      1344.8245      1797.6042      116.01191      300.97448      0.20047917   
    346000   449.43411      1328.1761      1777.6103      121.54928      297.24855      0.19782786   
    347000   433.57713      1370.9383      1804.5154      277.22891      306.8188       0.20396479   
    348000   469.6379       1375.9516      1845.5895      295.28241      307.94079      0.21256864   
    349000   456.24032      1329.123       1785.3633      272.97427      297.46045      0.22006959   
    350000   456.05252      1327.7198      1783.7723      174.2891       297.14641      0.22377301   
    351000   444.10488      1339.2599      1783.3648      181.71899      299.72912      0.22342012   
    352000   450.15694      1356.5599      1806.7169      200.58914      303.6009       0.21914917   
    353000   465.04713      1333.8048      1798.8519      205.35039      298.50825      0.213436     
    354000   453.61134      1332.3925      1786.0038      232.34627      298.19217      0.20940595   
    355000   476.39102      1326.6786      1803.0696      286.05695      296.91339      0.20779536   
    356000   450.56104      1316.7664      1767.3275      266.80263      294.69503      0.2094035    
    357000   456.83512      1328.8829      1785.718       220.3248       297.40673      0.21174054   
    358000   458.20539      1308.1936      1766.3989      137.53369      292.7764       0.21134652   
    359000   441.33312      1280.9186      1722.2517      36.71531       286.6722       0.21006373   
    360000   445.28612      1289.7153      1735.0014     -36.280062      288.64094      0.21129118   
    361000   453.66219      1317.2754      1770.9376     -6.5929521      294.80893      0.21862157   
    362000   439.37976      1323.6867      1763.0664      112.88757      296.24379      0.22177503   
    363000   445.75733      1298.0114      1743.7688      148.41319      290.49762      0.2163194    
    364000   444.95208      1273.2465      1718.1986      226.12509      284.95518      0.20562573   
    365000   460.4506       1311.9617      1772.4123      260.88071      293.61972      0.20303707   
    366000   464.96777      1331.6653      1796.6331      282.76105      298.02943      0.20550526   
    367000   459.04559      1324.7487      1783.7943      291.50715      296.48147      0.21023429   
    368000   444.80256      1343.067       1787.8695      178.19488      300.58114      0.21227031   
    369000   444.13444      1320.7077      1764.8422      132.09302      295.5771       0.21227339   
    370000   432.59471      1325.2107      1757.8054      115.25798      296.58488      0.2137315    
    371000   422.97893      1282.0442      1705.0231      170.70524      286.92412      0.21611064   
    372000   435.08445      1299.3505      1734.4349      236.20248      290.7973       0.21796233   
    373000   423.64592      1333.476       1757.1219      181.31268      298.43467      0.21697804   
    374000   458.30815      1315.3697      1773.6778      163.42544      294.38243      0.21361715   
    375000   445.62247      1296.4753      1742.0977      114.79796      290.15383      0.20603849   
    376000   465.57446      1286.6597      1752.2341      17.048187      287.95707      0.19920759   
    377000   481.16453      1299.3612      1780.5258      21.770946      290.79971      0.20267648   
    378000   464.16182      1331.908       1796.0698      2.584269       298.08375      0.20805245   
    379000   450.80293      1306.9847      1757.7876      75.614129      292.50586      0.21140288   
    380000   472.93926      1323.7345      1796.6737      138.76851      296.25449      0.21127702   
    381000   473.31466      1305.2424      1778.5571      218.44129      292.11594      0.20846883   
    382000   462.8913       1352.4748      1815.3661      263.75262      302.68664      0.20664882   
    383000   477.58395      1351.6554      1829.2393      263.55867      302.50325      0.2049062    
    384000   470.95672      1362.3115      1833.2682      222.39118      304.88811      0.20138439   
    385000   496.45438      1394.2767      1890.7311      198.05323      312.04199      0.20041016   
    386000   484.79208      1385.1874      1869.9795      189.62866      310.00778      0.20510137   
    387000   426.88691      1355.2258      1782.1127      207.50519      303.30231      0.21648011   
    388000   437.0401       1355.3334      1792.3735      160.49564      303.32639      0.2234029    
    389000   455.19327      1380.0756      1835.2689      210.58417      308.86375      0.22286824   
    390000   454.01072      1310.0889      1764.0996      213.45185      293.20059      0.21870588   
    391000   486.08899      1340.6412      1826.7302      238.57111      300.03825      0.21244512   
    392000   445.03555      1369.5943      1814.6298      225.34416      306.51801      0.20478583   
    393000   460.03682      1373.0414      1833.0782      255.86351      307.28947      0.20342811   
    394000   468.31442      1345.7385      1814.0529      156.0178       301.17904      0.20426515   
    395000   464.52964      1363.2895      1827.8191      156.63799      305.10699      0.21036511   
    396000   460.98674      1391.9078      1852.8945      188.33204      311.51182      0.21627784   
    397000   461.31019      1393.975       1855.2852      175.09896      311.97447      0.21760074   
    398000   465.18853      1351.0928      1816.2813      195.39565      302.37734      0.22001324   
    399000   435.81127      1362.8809      1798.6922      162.38344      305.01555      0.21960561   
    400000   430.1463       1372.3793      1802.5256      196.96872      307.14131      0.22088511   
Loop time of 1714.17 on 8 procs for 400000 steps with 1500 atoms

Performance: 10.081 ns/day, 2.381 hours/ns, 233.349 timesteps/s, 350.023 katom-step/s
99.4% CPU use with 8 MPI tasks x 1 OpenMP threads

MPI task timing breakdown:
Section |  min time  |  avg time  |  max time  |%varavg| %total
---------------------------------------------------------------
Pair    | 86.524     | 92.013     | 96.984     |  30.1 |  5.37
Bond    | 3.99       | 4.0668     | 4.1551     |   2.7 |  0.24
Kspace  | 674.66     | 679.63     | 685.24     |  11.1 | 39.65
Neigh   | 1.5146     | 1.5158     | 1.5174     |   0.1 |  0.09
Comm    | 29.827     | 29.917     | 30.041     |   1.4 |  1.75
Output  | 0.015074   | 1.1779     | 9.3171     | 283.5 |  0.07
Modify  | 866.55     | 890.11     | 901.54     |  37.0 | 51.93
Other   |            | 15.74      |            |       |  0.92

Nlocal:          187.5 ave         204 max         169 min
Histogram: 1 1 0 1 1 0 1 1 0 2
Nghost:        2021.75 ave        2079 max        1967 min
Histogram: 1 0 0 2 2 1 0 0 1 1
Neighs:          19281 ave       24514 max       16000 min
Histogram: 2 1 0 1 2 1 0 0 0 1

Total # of neighbors = 154248
Ave neighs/atom = 102.832
Ave special neighs/atom = 2
Neighbor list builds = 2498
Dangerous builds = 0
PPPM initialization ...
  using 12-bit tables for long-range coulomb (src/kspace.cpp:342)
  G vector (1/distance) = 0.27035057
  grid = 45 45 45
  stencil order = 5
  estimated absolute RMS force accuracy = 0.00040251924
  estimated relative force accuracy = 1.2121747e-06
  using single precision FFTW3
  3d grid and FFT values/proc = 27000 12420
Generated 1 of 1 mixed pair_coeff terms from arithmetic mixing rule
Last active /omp style is kspace_style pppm/omp
Setting up Verlet run ...
  Unit style    : real
  Current step  : 0
  Time step     : 0.5
Per MPI rank memory allocation (min/avg/max) = 8.276 | 8.322 | 8.389 Mbytes
   Step         PotEng         KinEng         TotEng         Press           Temp        v_Density   
         0   430.14699      1372.3793      1802.5263      196.96524      307.14131      0.22088511   
      1000   430.3849       1377.7504      1808.1353      270.37728      308.34337      0.22353174   
      2000   467.05238      1365.6244      1832.6768      350.13208      305.62954      0.22561233   
      3000   462.32152      1393.177       1855.4985      323.24274      311.79587      0.21922635   
      4000   481.29123      1350.257       1831.5483      193.77094      302.1903       0.20703742   
      5000   460.90832      1351.8738      1812.7822      104.70724      302.55214      0.20392156   
      6000   485.89785      1336.2997      1822.1975      8.5155121      299.06661      0.20614154   
      7000   469.60898      1282.5862      1752.1952      13.486825      287.04542      0.21018229   
      8000   453.9701       1337.4226      1791.3927      54.863474      299.31792      0.21494385   
      9000   442.52507      1353.5385      1796.0636      122.68491      302.92471      0.21607469   
     10000   459.96131      1380.8367      1840.798       196.26568      309.03408      0.21496645   
     11000   440.91806      1366.1621      1807.0802      253.5017       305.74988      0.21097416   
     12000   461.74789      1350.8432      1812.5911      351.50199      302.32149      0.20450511   
     13000   486.64745      1372.4882      1859.1356      330.62767      307.16567      0.19852578   
     14000   468.29787      1350.9161      1819.2139      303.62826      302.33779      0.20048814   
     15000   458.93867      1344.0041      1802.9428      244.46657      300.79088      0.21509522   
     16000   423.11045      1354.8453      1777.9558      174.53948      303.21717      0.22164433   
     17000   449.57308      1352.9662      1802.5392      84.528207      302.7966       0.22182882   
     18000   451.32824      1315.4135      1766.7417      11.763007      294.39223      0.21578858   
     19000   450.51153      1321.0002      1771.5118     -44.033917      295.64256      0.20926812   
     20000   470.45887      1300.9775      1771.4364      65.29169       291.16144      0.20584705   
     21000   442.74032      1320.6054      1763.3457      63.048059      295.5542       0.20481909   
     22000   467.17575      1367.0158      1834.1916      119.89464      305.94095      0.20754306   
     23000   446.86015      1341.1776      1788.0377      210.99521      300.15829      0.21245943   
     24000   430.21349      1346.6667      1776.8802      299.4124       301.38677      0.21603755   
     25000   472.08584      1339.4528      1811.5387      360.78387      299.77229      0.21638417   
     26000   508.45022      1399.5144      1907.9646      309.69546      313.2142       0.21174753   
     27000   486.31729      1369.5538      1855.871       240.98219      306.50894      0.20347034   
     28000   466.72916      1365.745       1832.4742      143.81988      305.65654      0.19839054   
     29000   515.06772      1345.3668      1860.4346      129.1944       301.09586      0.19894732   
     30000   434.4371       1368.069       1802.5061      109.5076       306.17666      0.20213676   
     31000   466.30107      1349.1977      1815.4988      141.37794      301.95322      0.20559839   
     32000   469.80306      1341.3309      1811.134       133.63259      300.19262      0.2073453    
     33000   452.36526      1367.5976      1819.9628      175.68033      306.07114      0.21065629   
     34000   458.99475      1373.2557      1832.2505      262.24283      307.33745      0.21362127   
     35000   491.14608      1364.8252      1855.9713      243.46538      305.45068      0.21052373   
     36000   483.63961      1338.2519      1821.8915      197.35373      299.50352      0.20702925   
     37000   452.91788      1354.3252      1807.2431      136.58022      303.10076      0.20915101   
     38000   415.34841      1369.1211      1784.4695      163.34259      306.41211      0.21285537   
     39000   465.83078      1336.8504      1802.6812      151.86787      299.18987      0.21545646   
     40000   455.64617      1296.2709      1751.9171      218.99502      290.10809      0.21500599   
     41000   454.61469      1329.9703      1784.585       261.30379      297.65008      0.21458974   
     42000   443.28206      1324.76        1768.0421      238.90921      296.48402      0.21221556   
     43000   454.7719       1374.4166      1829.1885      243.23909      307.59725      0.21154534   
     44000   441.27043      1387.8341      1829.1045      265.12853      310.60012      0.21417115   
     45000   457.65485      1354.6474      1812.3022      236.73631      303.17287      0.21874748   
     46000   471.16092      1347.2923      1818.4532      248.9337       301.52678      0.21969125   
     47000   447.63498      1335.2707      1782.9057      282.04718      298.83632      0.21683537   
     48000   449.37462      1343.6958      1793.0704      278.52789      300.72189      0.21120101   
     49000   465.56401      1389.8878      1855.4518      276.81765      311.05973      0.20885024   
     50000   466.43681      1364.1979      1830.6347      203.71982      305.31028      0.20556847   
     51000   449.49454      1367.7575      1817.2521      199.22172      306.10694      0.20354471   
     52000   468.07298      1355.6228      1823.6958      121.7564       303.39116      0.20940178   
     53000   445.15305      1319.927       1765.08        92.897309      295.40236      0.21846034   
     54000   448.29643      1329.2162      1777.5126      145.80087      297.48131      0.22458124   
     55000   415.63368      1350.9166      1766.5503      104.7376       302.33791      0.2241527    
     56000   453.63563      1309.0523      1762.6879      75.257822      292.96858      0.21723796   
     57000   496.6086       1355.5417      1852.1503      155.24719      303.37301      0.21196174   
     58000   453.93155      1364.8834      1818.8149      203.19344      305.4637       0.20788954   
     59000   493.43861      1339.672       1833.1106      263.46247      299.82134      0.20733252   
     60000   457.68814      1327.2706      1784.9588      294.0732       297.04589      0.2063858    
     61000   468.97338      1323.273       1792.2464      291.12092      296.15121      0.20469569   
     62000   432.56492      1356.182       1788.7469      225.32651      303.51631      0.20111207   
     63000   439.19713      1332.2902      1771.4874      156.7862       298.16929      0.19907624   
     64000   458.95151      1364.321       1823.2725      155.6967       305.33784      0.20484057   
     65000   449.01726      1359.9017      1808.9189      202.80636      304.34878      0.21461062   
     66000   429.3233       1373.9711      1803.2944      215.73541      307.49755      0.21536178   
     67000   484.19199      1348.5681      1832.7601      250.0683       301.81231      0.21044139   
     68000   460.45683      1378.8879      1839.3447      249.45582      308.59794      0.20386297   
     69000   483.54765      1350.3514      1833.899       290.54026      302.21141      0.2033077    
     70000   499.29131      1342.4181      1841.7094      245.60972      300.43592      0.20364256   
     71000   469.40346      1316.5251      1785.9286      96.907675      294.64102      0.20254395   
     72000   468.19631      1327.4108      1795.6072      122.3025       297.07727      0.20690691   
     73000   486.29439      1319.7729      1806.0673      115.28917      295.36788      0.2089616    
     74000   445.96137      1354.2423      1800.2037      121.08281      303.0822       0.20659828   
     75000   455.10474      1349.0368      1804.1415      235.77793      301.91721      0.20563853   
     76000   444.79475      1295.7507      1740.5454      291.60603      289.99166      0.20384703   
     77000   461.04752      1379.2994      1840.3469      323.76977      308.69004      0.20227636   
     78000   486.6207       1348.1906      1834.8113      260.97736      301.72782      0.19907099   
     79000   467.72912      1318.1042      1785.8334      209.37437      294.99443      0.19822301   
     80000   451.62808      1269.6874      1721.3155      118.13976      284.15864      0.19822525   
     81000   467.06192      1296.8547      1763.9167      184.74562      290.23875      0.20566193   
     82000   452.00796      1319.9215      1771.9295      244.92244      295.40115      0.21326271   
     83000   473.54504      1298.1293      1771.6744      265.50616      290.52401      0.21548015   
     84000   461.31847      1312.0324      1773.3509      204.53764      293.63555      0.21184553   
     85000   474.65483      1380.2068      1854.8617      175.27156      308.89312      0.20759951   
     86000   447.38102      1394.9032      1842.2842      158.68967      312.18219      0.20394242   
     87000   446.22576      1360.4493      1806.6751      146.44886      304.47135      0.19907699   
     88000   495.38536      1332.4667      1827.8521      152.69361      298.20878      0.19605498   
     89000   463.05372      1340.628       1803.6817      150.73206      300.0353       0.19619901   
     90000   479.37058      1329.3377      1808.7083      204.57422      297.50851      0.20043521   
     91000   473.3669       1335.4747      1808.8416      219.0072       298.88198      0.20528425   
     92000   472.28654      1350.3943      1822.6808      248.40294      302.22101      0.21124159   
     93000   450.10393      1337.7091      1787.8131      226.91307      299.38205      0.21603028   
     94000   445.19586      1313.3386      1758.5344      127.81447      293.92787      0.21581553   
     95000   472.62658      1306.0605      1778.6871      125.66975      292.29903      0.21064281   
     96000   458.23776      1366.1482      1824.3859      94.342708      305.74677      0.206662     
     97000   465.21481      1349.644       1814.8588      121.20785      302.0531       0.20271001   
     98000   469.0554       1316.6899      1785.7453      139.4048       294.67791      0.19942067   
     99000   498.00132      1310.2516      1808.2529      151.28219      293.237        0.20011843   
    100000   458.01906      1320.7052      1778.7242      236.01667      295.57652      0.20712702   
    101000   450.191        1327.4168      1777.6078      215.67564      297.0786       0.21286605   
    102000   430.22354      1303.3941      1733.6176      300.40025      291.70227      0.21781365   
    103000   439.09691      1332.3115      1771.4084      322.95313      298.17405      0.22174436   
    104000   464.73685      1306.034       1770.7709      276.33055      292.2931       0.22002375   
    105000   459.30144      1346.2966      1805.5981      168.10428      301.30395      0.21501555   
    106000   459.17132      1342.3787      1801.5501      89.962693      300.42712      0.21107686   
    107000   462.0752       1332.7798      1794.855       89.239107      298.27886      0.20457965   
    108000   453.15734      1372.2865      1825.4439      179.78468      307.12054      0.19654605   
    109000   483.3493       1335.0384      1818.3877      270.61545      298.78433      0.19422032   
    110000   486.52055      1353.2398      1839.7603      333.3483       302.85784      0.19927      
    111000   446.43077      1435.488       1881.9187      376.79274      321.26516      0.20709383   
    112000   463.12604      1348.1679      1811.294       328.19038      301.72275      0.21046673   
    113000   459.70801      1370.8171      1830.5251      259.11615      306.79168      0.21421921   
    114000   466.90994      1373.65        1840.5599      125.01233      307.42568      0.21525007   
    115000   457.47559      1367.8379      1825.3135     -3.0694744      306.12493      0.21512823   
    116000   428.02748      1317.1316      1745.1591      91.701531      294.77675      0.21570094   
    117000   429.58941      1304.3378      1733.9272      163.37122      291.91348      0.21602139   
    118000   438.42108      1294.3434      1732.7644      326.66585      289.6767       0.21826577   
    119000   440.76584      1326.6326      1767.3984      428.41218      296.90309      0.21858126   
    120000   454.74258      1326.2662      1781.0088      353.89082      296.82109      0.20913326   
    121000   470.71592      1338.1667      1808.8826      195.33943      299.48445      0.20174212   
    122000   485.58131      1394.9192      1880.5005      142.14021      312.18577      0.20340086   
    123000   482.40836      1382.5457      1864.954       86.742952      309.41656      0.20691085   
    124000   466.97962      1324.7503      1791.73        115.75084      296.48184      0.21251862   
    125000   443.5942       1340.4789      1784.0731      162.25776      300.00193      0.21959417   
    126000   444.24884      1360.64        1804.8888      232.80094      304.51402      0.22224637   
    127000   450.93461      1320.8686      1771.8033      243.87604      295.61311      0.2180534    
    128000   469.05528      1319.8407      1788.896       221.869        295.38305      0.21135598   
    129000   458.72689      1340.2271      1798.954       193.28337      299.94559      0.20863967   
    130000   460.75306      1315.1009      1775.8539      154.57611      294.32228      0.20916087   
    131000   442.69432      1316.4049      1759.0992      177.82894      294.61412      0.20934791   
    132000   487.22548      1327.0869      1814.3124      199.62198      297.00477      0.20853801   
    133000   483.87245      1339.4058      1823.2783      101.29224      299.76178      0.20283995   
    134000   455.38784      1333.4472      1788.835       61.30939       298.42821      0.19931997   
    135000   463.61603      1297.514       1761.13        80.520011      290.38629      0.20045633   
    136000   450.76428      1273.8774      1724.6417      117.42506      285.09638      0.20735637   
    137000   432.61262      1324.4528      1757.0654      256.17909      296.41525      0.21807889   
    138000   441.00859      1355.9877      1796.9963      298.57524      303.47284      0.22011725   
    139000   470.08735      1343.7724      1813.8598      282.71204      300.73903      0.21639104   
    140000   447.9543       1396.5625      1844.5168      263.3901       312.55355      0.21248582   
    141000   468.75888      1344.3716      1813.1305      253.99738      300.87312      0.20720493   
    142000   453.70136      1337.2737      1790.9751      283.74184      299.28461      0.20494277   
    143000   433.24398      1362.7565      1796.0005      287.413        304.98771      0.20543339   
    144000   458.13073      1355.1835      1813.3142      333.09536      303.29284      0.20765255   
    145000   491.34941      1367.8765      1859.2259      260.20357      306.13357      0.20994308   
    146000   431.47289      1358.8299      1790.3028      207.87607      304.10893      0.21305035   
    147000   458.18827      1338.4876      1796.6759      114.89597      299.55627      0.21826758   
    148000   449.30715      1335.4886      1784.7958      93.911803      298.88509      0.22021373   
    149000   445.21398      1379.0058      1824.2198      91.390595      308.62434      0.21685695   
    150000   481.53062      1335.6156      1817.1462      150.88723      298.91351      0.2114295    
    151000   482.81707      1369.7109      1852.5279      212.22089      306.5441       0.20845886   
    152000   470.42782      1340.4205      1810.8484      266.26036      299.98887      0.21041927   
    153000   436.21998      1376.8424      1813.0624      331.76301      308.14015      0.215456     
    154000   451.36206      1387.6678      1839.0299      333.79793      310.5629       0.21933251   
    155000   474.61167      1392.0782      1866.6898      231.05093      311.54995      0.21782397   
    156000   467.44548      1350.2332      1817.6787      146.05686      302.18497      0.21624099   
    157000   439.78815      1365.666       1805.4541      161.6927       305.63885      0.21571117   
    158000   457.70346      1336.0642      1793.7677      155.82107      299.01392      0.21252421   
    159000   472.72885      1311.7699      1784.4988      255.7486       293.5768       0.21212277   
    160000   421.95908      1312.0559      1734.015       264.44775      293.6408       0.20870275   
    161000   447.24393      1326.3299      1773.5739      255.76481      296.83536      0.20797804   
    162000   456.97563      1317.8268      1774.8025      257.9972       294.93235      0.20942222   
    163000   447.22174      1345.059       1792.2808      266.17381      301.02697      0.21180475   
    164000   457.20926      1391.9891      1849.1984      173.04317      311.53002      0.2123278    
    165000   484.14564      1387.3864      1871.532       93.454105      310.49993      0.21385749   
    166000   473.88644      1345.1779      1819.0643      66.212946      301.05356      0.21495866   
    167000   451.01468      1355.7447      1806.7594      99.668978      303.41845      0.21625707   
    168000   452.64465      1343.4145      1796.0591      166.22976      300.65891      0.21852849   
    169000   462.48041      1328.8237      1791.3041      205.12819      297.39348      0.22120103   
    170000   471.22913      1315.081       1786.3101      296.74556      294.31783      0.21863342   
    171000   438.02631      1359.7686      1797.7949      356.53419      304.31901      0.21119839   
    172000   449.51416      1338.2705      1787.7846      292.42327      299.50768      0.20339343   
    173000   458.79174      1301.6104      1760.4022      177.84348      291.30308      0.20280843   
    174000   435.45759      1357.1112      1792.5688      117.64031      303.72427      0.21028383   
    175000   452.11668      1317.7502      1769.8669      63.850281      294.91521      0.21492027   
    176000   421.24075      1357.9021      1779.1428      103.61061      303.90127      0.21661981   
    177000   430.46824      1323.7454      1754.2136      194.62649      296.25693      0.21822493   
    178000   447.73218      1327.3695      1775.1017      250.11083      297.06803      0.21916      
    179000   437.04512      1320.886       1757.9311      290.93375      295.617        0.21782314   
    180000   452.97614      1354.5303      1807.5064      280.86524      303.14666      0.21686513   
    181000   456.5161       1347.1743      1803.6904      179.84515      301.50037      0.2111044    
    182000   466.87474      1335.4638      1802.3386      106.85424      298.87955      0.20498652   
    183000   484.34754      1309.8247      1794.1722      124.52911      293.14145      0.20115545   
    184000   448.19463      1303.0556      1751.2502      150.0374       291.62652      0.1996919    
    185000   442.53107      1341.4415      1783.9725      221.50156      300.21735      0.20506167   
    186000   462.50036      1322.8062      1785.3066      285.40847      296.04674      0.21365801   
    187000   432.15284      1381.8557      1814.0085      277.80322      309.26214      0.21985289   
    188000   440.66647      1341.9825      1782.649       304.52723      300.33845      0.22198704   
    189000   454.90069      1356.2         1811.1007      333.30554      303.52034      0.22230908   
    190000   433.20247      1360.1248      1793.3273      192.23717      304.39872      0.21489632   
    191000   473.20544      1369.4324      1842.6379      201.93146      306.48178      0.20977098   
    192000   462.51788      1341.6421      1804.16        197.48155      300.26227      0.20964635   
    193000   486.70231      1328.8462      1815.5485      184.50302      297.39851      0.21137092   
    194000   451.92425      1320.4763      1772.4005      277.77553      295.5253       0.21280639   
    195000   452.97771      1329.0385      1782.0162      274.66564      297.44155      0.21156037   
    196000   453.63494      1326.6365      1780.2715      238.4596       296.90398      0.21394647   
    197000   435.03902      1374.6549      1809.694       268.23449      307.6506       0.22126943   
    198000   470.50894      1349.3383      1819.8472      231.71322      301.98468      0.22285723   
    199000   446.21893      1345.0468      1791.2658      140.87653      301.02424      0.22279028   
    200000   451.64991      1337.1494      1788.7993      120.06036      299.25679      0.22505935   
    201000   432.63685      1344.2756      1776.9124      53.200732      300.85163      0.22197399   
    202000   440.74433      1344.7499      1785.4942      104.24601      300.95779      0.22111677   
    203000   463.03566      1364.2768      1827.3124      155.81203      305.32794      0.22224573   
    204000   444.58135      1341.2454      1785.8268      230.76664      300.17348      0.22204433   
    205000   447.24699      1373.2761      1820.5231      306.17735      307.34201      0.22159607   
    206000   438.01714      1373.169       1811.1862      325.08427      307.31805      0.21938087   
    207000   468.44048      1347.8677      1816.3082      257.42781      301.65556      0.21587691   
    208000   466.23828      1376.244       1842.4822      260.01333      308.00622      0.21184399   
    209000   462.53698      1357.312       1819.849       142.39277      303.76922      0.20782365   
    210000   470.43968      1351.2698      1821.7094      124.37095      302.41695      0.21041243   
    211000   484.90377      1360.6332      1845.537       69.784865      304.5125       0.21714552   
    212000   439.77045      1300.785       1740.5555      174.14455      291.11836      0.22540723   
    213000   413.27633      1309.2659      1722.5422      179.77088      293.0164       0.22934918   
    214000   417.06395      1322.8511      1739.9151      269.17486      296.0568       0.22903967   
    215000   440.81625      1336.6573      1777.4735      267.07349      299.14664      0.22617171   
    216000   421.25403      1351.2738      1772.5278      259.94468      302.41785      0.22159999   
    217000   454.78066      1377.0968      1831.8774      236.71025      308.19709      0.2194281    
    218000   480.23809      1355.2197      1835.4578      204.27878      303.30096      0.21977249   
    219000   461.68283      1391.7689      1853.4517      254.35295      311.48073      0.22002952   
    220000   459.95826      1357.65        1817.6083      228.77344      303.84487      0.21693038   
    221000   479.58261      1326.0201      1805.6027      158.48921      296.76603      0.21376099   
    222000   452.48694      1311.9859      1764.4729      161.98003      293.62514      0.21315617   
    223000   449.12831      1322.4509      1771.5792      179.83497      295.96723      0.21361138   
    224000   450.37204      1324.2362      1774.6082      169.52401      296.36677      0.21478257   
    225000   452.584        1291.1618      1743.7458      213.95792      288.96467      0.21483982   
    226000   426.68189      1327.0945      1753.7764      223.40236      297.00648      0.20990097   
    227000   455.10587      1335.4514      1790.5573      184.50595      298.87677      0.20411732   
    228000   481.16699      1376.5591      1857.7261      119.37153      308.07676      0.2032817    
    229000   498.56253      1372.9375      1871.5         167.85232      307.26622      0.20933604   
    230000   444.16624      1336.1977      1780.364       187.56757      299.04379      0.21526236   
    231000   472.76697      1322.6464      1795.4133      242.53345      296.01097      0.22477808   
    232000   439.75871      1295.4084      1735.1671      343.34069      289.91506      0.22758012   
    233000   432.45542      1271.892       1704.3474      278.12517      284.65204      0.22072836   
    234000   447.43244      1332.7818      1780.2142      260.78992      298.27929      0.21628418   
    235000   469.64284      1293.9435      1763.5863      168.60852      289.5872       0.21322703   
    236000   456.29126      1312.8646      1769.1559      60.246147      293.8218       0.21243369   
    237000   460.20397      1330.5965      1790.8005      107.61908      297.79023      0.21494529   
    238000   426.46997      1334.5653      1761.0353      169.52157      298.67846      0.21817094   
    239000   474.15355      1292.6837      1766.8373      158.4144       289.30527      0.21913305   
    240000   439.73045      1391.75        1831.4804      270.7992       311.4765       0.22035469   
    241000   432.94592      1385.7574      1818.7034      269.20177      310.13536      0.21596778   
    242000   468.973        1343.0846      1812.0576      284.68696      300.58509      0.20838156   
    243000   479.31006      1363.2981      1842.6082      229.17051      305.10892      0.2056893    
    244000   466.92811      1396.2572      1863.1853      165.76318      312.48522      0.20428091   
    245000   475.67763      1374.6291      1850.3067      153.07917      307.64481      0.20545871   
    246000   493.87957      1359.3566      1853.2362      134.39375      304.2268       0.20915966   
    247000   478.36865      1347.1255      1825.4941      261.06717      301.48945      0.21870147   
    248000   433.48733      1352.8296      1786.3169      326.33561      302.76604      0.22074555   
    249000   481.19036      1342.8603      1824.0507      220.45244      300.5349       0.21392755   
    250000   475.24971      1316.1019      1791.3516      117.65309      294.54631      0.20864902   
    251000   475.30262      1394.2033      1869.506       121.63777      312.02557      0.20742709   
    252000   472.35381      1386.6281      1858.9819      70.084282      310.33021      0.2062368    
    253000   448.57529      1359.348       1807.9233      121.84332      304.22488      0.20927489   
    254000   465.34544      1329.2266      1794.5721      161.14969      297.48365      0.21519668   
    255000   441.40551      1316.8349      1758.2404      195.3414       294.71036      0.22074655   
    256000   465.17349      1303.2426      1768.4161      143.59022      291.66837      0.22452804   
    257000   471.95058      1306.5821      1778.5327      208.33743      292.41575      0.22525356   
    258000   452.75703      1364.5669      1817.324       220.6852       305.39288      0.2217529    
    259000   457.67485      1341.7122      1799.387       210.17508      300.27794      0.21973575   
    260000   424.63287      1379.1719      1803.8047      226.63708      308.66149      0.21696129   
    261000   446.5083       1347.1658      1793.6741      187.37196      301.49847      0.21558951   
    262000   471.22383      1335.4325      1806.6563      157.18872      298.87253      0.21642705   
    263000   473.34582      1329.4092      1802.755       175.4596       297.5245       0.21737691   
    264000   450.85151      1334.6155      1785.467       131.27079      298.68968      0.21740126   
    265000   451.43978      1306.3612      1757.801       223.88502      292.36632      0.21578126   
    266000   477.51502      1306.7378      1784.2528      198.14006      292.4506       0.20762821   
    267000   475.26818      1326.1942      1801.4624      200.16818      296.80499      0.20168712   
    268000   469.22433      1334.0585      1803.2829      162.48661      298.56504      0.19906283   
    269000   454.47154      1324.7171      1779.1886      125.14665      296.4744       0.2018538    
    270000   463.97876      1331.1236      1795.1023      192.41126      297.90818      0.20913589   
    271000   465.96664      1365.1188      1831.0855      232.16029      305.5164       0.21499983   
    272000   478.31391      1400.6133      1878.9272      257.09029      313.46013      0.21680402   
    273000   485.05311      1336.5871      1821.6402      186.80428      299.13093      0.21463199   
    274000   478.94114      1330.2735      1809.2147      98.730291      297.71795      0.20935936   
    275000   505.08056      1347.7485      1852.8291      15.434989      301.62889      0.20295056   
    276000   506.90415      1325.3102      1832.2144      54.140985      296.60715      0.20241579   
    277000   450.21545      1388.3637      1838.5791      175.29289      310.71864      0.20672278   
    278000   447.44958      1350.0986      1797.5482      256.49493      302.15484      0.21003866   
    279000   461.00391      1350.0633      1811.0672      405.7235       302.14694      0.21301324   
    280000   450.1486       1376.2097      1826.3583      423.44406      307.99855      0.21249188   
    281000   462.20959      1347.5614      1809.771       365.15713      301.587        0.21335862   
    282000   448.27232      1378.2545      1826.5268      312.91036      308.45618      0.21754839   
    283000   437.04369      1357.0701      1794.1138      208.42626      303.71508      0.22046454   
    284000   473.97372      1359.26        1833.2337      50.523317      304.20518      0.21874637   
    285000   448.18802      1343.9074      1792.0954      46.146994      300.76922      0.21620536   
    286000   447.70167      1359.8054      1807.507       19.267295      304.32723      0.21104048   
    287000   477.62691      1385.1179      1862.7448      98.605445      309.99222      0.20594234   
    288000   465.92259      1353.4502      1819.3728      185.98588      302.90494      0.20183264   
    289000   474.81274      1348.0507      1822.8635      283.23325      301.69652      0.20054933   
    290000   460.04803      1366.85        1826.8981      331.30723      305.90385      0.20255648   
    291000   476.6175       1368.8917      1845.5092      271.81646      306.36078      0.20824849   
    292000   455.91463      1326.279       1782.1937      189.80509      296.82397      0.2127965    
    293000   427.81378      1343.246       1771.0598      95.282886      300.62122      0.2139403    
    294000   464.30795      1304.306       1768.614       43.632077      291.90636      0.2134849    
    295000   418.29334      1326.7104      1745.0037      46.208319      296.9205       0.20751149   
    296000   460.18839      1277.0847      1737.2731      148.91154      285.81418      0.19881525   
    297000   458.1201       1292.0943      1750.2144      185.97953      289.17336      0.19481577   
    298000   465.51632      1328.9361      1794.4524      239.87634      297.41862      0.1971486    
    299000   469.92528      1322.2869      1792.2122      262.47836      295.93053      0.20172793   
    300000   444.31465      1331.2482      1775.5628      256.12801      297.93608      0.2065506    
    301000   426.75066      1318.5042      1745.2549      155.32475      295.08395      0.20887217   
    302000   440.21593      1354.6868      1794.9027      121.97202      303.18169      0.20874455   
    303000   464.32107      1344.8437      1809.1647      87.672815      300.97877      0.2055548    
    304000   489.59387      1345.2389      1834.8328      95.332604      301.06723      0.20238792   
    305000   498.5395       1370.6978      1869.2373      159.13113      306.76497      0.20393144   
    306000   451.03016      1356.0486      1807.0787      194.47595      303.48645      0.20713458   
    307000   462.97961      1379.3186      1842.2982      253.55781      308.69434      0.21174252   
    308000   433.57413      1364.2435      1797.8176      268.59104      305.32049      0.21265618   
    309000   477.98074      1368.5742      1846.555       241.87839      306.28972      0.20986307   
    310000   465.26127      1356.7267      1821.988       144.23244      303.63822      0.20448005   
    311000   482.53749      1359.4922      1842.0297      93.292442      304.25714      0.20262449   
    312000   497.48437      1374.9953      1872.4796      108.14905      307.72676      0.20551509   
    313000   461.00897      1409.3347      1870.3436      190.14976      315.41199      0.2098677    
    314000   463.41186      1382.0307      1845.4425      188.41856      309.3013       0.21330944   
    315000   436.08542      1329.6232      1765.7086      338.88922      297.5724       0.21588724   
    316000   446.42637      1348.6881      1795.1144      292.72076      301.83916      0.21014936   
    317000   461.51629      1327.5009      1789.0172      313.66644      297.09742      0.2065092    
    318000   468.47427      1367.3802      1835.8545      238.65327      306.0225       0.20512429   
    319000   470.7372       1378.4355      1849.1727      258.00643      308.49671      0.2042711    
    320000   499.381        1405.1249      1904.5059      228.78345      314.46983      0.20165734   
    321000   492.63789      1373.7565      1866.3944      199.66575      307.44953      0.19697849   
    322000   492.62415      1347.552       1840.1761      201.56969      301.5849       0.19621933   
    323000   458.67767      1382.4895      1841.1671      204.88287      309.40398      0.20374001   
    324000   480.7706       1394.6887      1875.4593      319.75361      312.1342       0.21500569   
    325000   460.76743      1391.5359      1852.3034      238.5811       311.4286       0.2175546    
    326000   469.78192      1356.1296      1825.9115      204.63402      303.50458      0.21569046   
    327000   484.65817      1372.2148      1856.8729      152.6017       307.10448      0.21161777   
    328000   471.27094      1367.7814      1839.0524      49.732604      306.1123       0.2075758    
    329000   498.55026      1329.9678      1828.5181      69.302774      297.64953      0.20666588   
    330000   487.47037      1349.4416      1836.912       20.850211      302.00779      0.20854165   
    331000   467.30641      1384.5717      1851.8781      171.5903       309.86999      0.22030094   
    332000   458.02664      1387.1121      1845.1388      254.72758      310.43854      0.22299054   
    333000   452.94091      1343.1894      1796.1303      284.93782      300.60854      0.22012806   
    334000   460.18128      1332.262       1792.4433      348.72731      298.16297      0.21948093   
    335000   444.45402      1347.4832      1791.9372      296.83159      301.5695       0.21660645   
    336000   470.69516      1334.967       1805.6622      284.94157      298.76836      0.2142869    
    337000   477.70265      1347.541       1825.2436      234.32541      301.58244      0.21191342   
    338000   474.03615      1341.2557      1815.2919      182.86326      300.17578      0.21114417   
    339000   445.02029      1333.7016      1778.7218      144.3299       298.48515      0.21126167   
    340000   483.767        1356.5254      1840.2924      145.9641       303.59316      0.21313017   
    341000   470.17869      1346.1846      1816.3633      128.04384      301.27887      0.21569092   
    342000   468.77373      1366.4993      1835.273       192.28574      305.82534      0.22266306   
    343000   459.93894      1330.1478      1790.0867      181.00247      297.6898       0.22711194   
    344000   429.21242      1381.503       1810.7155      182.39183      309.18322      0.22616851   
    345000   450.17403      1340.3487      1790.5228      151.73489      299.9728       0.21864963   
    346000   477.24915      1355.4276      1832.6768      160.97017      303.34748      0.2104131    
    347000   446.3203       1343.7341      1790.0544      172.19546      300.73046      0.20748831   
    348000   462.58802      1324.5602      1787.1482      214.93297      296.43929      0.21276645   
    349000   432.79256      1352.9566      1785.7492      272.92936      302.79447      0.2174183    
    350000   424.34068      1357.0684      1781.4091      231.241        303.7147       0.21721217   
    351000   457.65035      1345.6941      1803.3445      172.21937      301.16911      0.21684055   
    352000   469.46797      1319.8335      1789.3015      64.428662      295.38145      0.21449747   
    353000   460.73247      1292.0872      1752.8197      170.46828      289.17177      0.21808558   
    354000   431.00247      1351.0073      1782.0098      212.44175      302.35821      0.22455528   
    355000   434.94882      1351.4336      1786.3824      309.46775      302.45361      0.23158036   
    356000   436.21757      1346.7524      1782.97        344.8031       301.40596      0.23117939   
    357000   441.61205      1320.9585      1762.5706      317.63662      295.63323      0.22724125   
    358000   424.69611      1331.8272      1756.5233      257.61499      298.06566      0.22455622   
    359000   466.4385       1330.1569      1796.5954      171.57253      297.69184      0.2206147    
    360000   452.36537      1319.2589      1771.6243      131.82389      295.25286      0.21547802   
    361000   464.23194      1317.1887      1781.4206      77.780652      294.78953      0.21325496   
    362000   437.18696      1285.0318      1722.2188      44.076684      287.59276      0.21210173   
    363000   444.73326      1297.1548      1741.8881      52.085004      290.30591      0.21581105   
    364000   447.25204      1326.5651      1773.8171      158.34043      296.88799      0.22185602   
    365000   429.43681      1322.5899      1752.0267      192.42025      295.99834      0.22341286   
    366000   466.56658      1334.905       1801.4716      223.58672      298.75447      0.22555168   
    367000   467.0551       1343.3427      1810.3978      235.20367      300.64285      0.22495993   
    368000   459.61621      1326.3626      1785.9788      201.85367      296.84266      0.22058709   
    369000   438.72203      1347.3049      1786.0269      172.73061      301.5296       0.2167088    
    370000   444.4462       1293.2547      1737.7009      146.48957      289.43306      0.21836389   
    371000   429.52077      1319.0353      1748.5561      138.40851      295.20281      0.22728148   
    372000   425.38527      1325.4864      1750.8717      204.38555      296.64658      0.23338499   
    373000   417.44731      1311.7751      1729.2224      208.8637       293.57796      0.22853607   
    374000   449.1188       1274.1064      1723.2252      216.02649      285.14763      0.22071262   
    375000   442.97553      1292.2677      1735.2432      225.52953      289.21217      0.21752457   
    376000   417.06531      1350.0688      1767.1341      188.21518      302.14817      0.21578808   
    377000   455.78227      1322.6666      1778.4489      215.14075      296.0155       0.21396079   
    378000   447.27654      1300.0084      1747.285       179.82398      290.94456      0.21220492   
    379000   445.61486      1340.4422      1786.0571      222.38421      299.99372      0.21215642   
    380000   453.03816      1324.3047      1777.3429      189.15845      296.38212      0.21026032   
    381000   462.50357      1280.0314      1742.5349      88.385765      286.47365      0.20372821   
    382000   469.67641      1281.3638      1751.0402      79.762646      286.77184      0.20257677   
    383000   471.63225      1312.3962      1784.0284      153.52567      293.71696      0.20743405   
    384000   466.264        1329.9403      1796.2043      189.00823      297.64337      0.21054396   
    385000   477.17577      1345.0801      1822.2559      116.10258      301.0317       0.20989127   
    386000   466.22129      1335.3973      1801.6186      189.73034      298.86466      0.20885423   
    387000   466.21244      1294.8918      1761.1042      175.82146      289.79944      0.2039034    
    388000   478.08748      1338.028       1816.1155      100.14454      299.45341      0.1995894    
    389000   431.15543      1359.5992      1790.7546      119.53525      304.28109      0.2047598    
    390000   461.42884      1316.6971      1778.1259      194.62104      294.67951      0.21620258   
    391000   441.99447      1327.9893      1769.9838      276.3053       297.20673      0.22165994   
    392000   424.45379      1286.1081      1710.5619      249.02286      287.83364      0.22107564   
    393000   468.83716      1278.1493      1746.9865      297.00546      286.05244      0.21727871   
    394000   478.76485      1316.3095      1795.0743      272.22211      294.59277      0.21095592   
    395000   465.46778      1350.1513      1815.6191      260.74289      302.16664      0.20537208   
    396000   468.8294       1326.989       1795.8184      252.51631      296.98286      0.20574885   
    397000   480.36889      1309.402       1789.7709      196.58051      293.04685      0.20750657   
    398000   432.09561      1284.666       1716.7616      90.815202      287.51088      0.20984551   
    399000   455.48401      1292.9098      1748.3938      81.327637      289.35588      0.21363394   
    400000   456.45415      1322.9482      1779.4023      69.898072      296.07852      0.21349975   
    401000   453.14641      1336.6057      1789.7521      111.14419      299.1351       0.20862804   
    402000   473.40323      1325.3332      1798.7365      212.06631      296.6123       0.20385834   
    403000   463.19927      1314.9489      1778.1482      218.99241      294.28827      0.20173646   
    404000   457.41692      1356.501       1813.9179      215.71067      303.5877       0.20589172   
    405000   446.97757      1340.7051      1787.6827      228.80602      300.05256      0.21319919   
    406000   472.46743      1306.0046      1778.472       141.6047       292.28652      0.21735277   
    407000   444.05831      1312.7645      1756.8228      112.46674      293.7994       0.22168552   
    408000   447.63751      1317.6123      1765.2498      111.03287      294.88433      0.22663217   
    409000   417.78874      1323.3972      1741.1859      102.77139      296.17901      0.22471832   
    410000   464.20854      1373.9049      1838.1134      154.85327      307.48274      0.21553123   
    411000   470.3542       1336.0161      1806.3703      213.20052      299.00314      0.20320434   
    412000   466.08622      1334.6751      1800.7613      283.64831      298.70302      0.20262612   
    413000   445.23842      1350.4881      1795.7266      286.11878      302.24202      0.20798859   
    414000   489.81135      1317.7854      1807.5968      257.58575      294.92308      0.21630592   
    415000   459.17976      1346.35        1805.5297      278.44499      301.31589      0.22242773   
    416000   444.71698      1362.0606      1806.7776      190.20019      304.83195      0.22403242   
    417000   424.09211      1366.6393      1790.7314      124.81509      305.85668      0.22155804   
    418000   467.38695      1366.5915      1833.9785      136.99984      305.84599      0.21649232   
    419000   478.8004       1376.6085      1855.4089      156.56168      308.08782      0.21072639   
    420000   465.45021      1349.2679      1814.7181      173.54552      301.96892      0.20697857   
    421000   468.6753       1359.9703      1828.6456      157.65635      304.36414      0.20712226   
    422000   483.2859       1326.0166      1809.3025      131.42496      296.76523      0.2095118    
    423000   485.5213       1307.4495      1792.9708      118.84256      292.60989      0.20935484   
    424000   474.72671      1330.8049      1805.5317      186.46916      297.83688      0.21132838   
    425000   458.71859      1342.1238      1800.8424      228.74677      300.37006      0.21362803   
    426000   479.22091      1328.1856      1807.4065      214.36576      297.25067      0.21556035   
    427000   472.8982       1329.6722      1802.5704      185.63687      297.58337      0.21339152   
    428000   457.91778      1304.6042      1762.522       163.41258      291.9731       0.20707861   
    429000   447.28398      1360.0337      1807.3177      193.12066      304.37834      0.20489628   
    430000   466.0658       1353.493       1819.5588      208.29328      302.9145       0.20519432   
    431000   464.68562      1357.5332      1822.2188      256.17798      303.81871      0.20834898   
    432000   469.89025      1365.4753      1835.3655      266.6643       305.59617      0.21222107   
    433000   484.65202      1366.5684      1851.2204      269.37271      305.84082      0.21534589   
    434000   476.09977      1349.3455      1825.4453      174.30057      301.9863       0.21197506   
    435000   486.54634      1366.0711      1852.6175      133.26348      305.72953      0.20716782   
    436000   471.0158       1337.9985      1809.0143      84.379624      299.44681      0.20732356   
    437000   470.47441      1366.8346      1837.309       84.556251      305.90038      0.21198128   
    438000   453.35106      1357.634       1810.985       209.87401      303.84127      0.2159152    
    439000   480.12651      1374.4437      1854.5702      326.63464      307.60333      0.2144858    
    440000   463.26861      1342.7769      1806.0455      376.0491       300.51623      0.20997267   
    441000   484.84361      1328.2701      1813.1137      323.17237      297.26958      0.20540326   
    442000   464.80452      1339.0746      1803.8791      303.44377      299.68763      0.20444015   
    443000   472.06633      1330.0289      1802.0953      251.57614      297.6632       0.20585553   
    444000   472.7269       1327.1963      1799.9232      281.97415      297.02925      0.20832646   
    445000   447.41549      1303.3028      1750.7183      230.53783      291.68185      0.21005451   
    446000   454.50134      1266.6999      1721.2013      213.36988      283.49005      0.21577436   
    447000   433.30576      1335.2564      1768.5621      181.85503      298.83311      0.22208908   
    448000   442.0007       1327.0109      1769.0116      181.72612      296.98776      0.22055042   
    449000   468.63281      1373.0269      1841.6597      159.02357      307.28625      0.21180249   
    450000   499.21911      1349.0435      1848.2626      168.8779       301.9187       0.20674699   
    451000   487.52534      1393.7633      1881.2886      159.82099      311.92709      0.20499842   
    452000   478.8195       1348.7067      1827.5262      183.69653      301.84332      0.20918535   
    453000   442.05648      1319.9535      1762.0099      187.71657      295.40829      0.21901682   
    454000   432.55379      1311.66        1744.2138      236.27977      293.55221      0.22269771   
    455000   450.94886      1314.4807      1765.4296      250.45504      294.18348      0.22080352   
    456000   448.189        1337.5142      1785.7032      252.32642      299.33843      0.21614514   
    457000   480.31638      1294.4919      1774.8083      157.97918      289.70994      0.21237714   
    458000   430.37286      1320.0601      1750.4329      205.76195      295.43215      0.21334671   
    459000   440.23999      1319.9909      1760.2309      264.58213      295.41668      0.21661679   
    460000   398.67256      1318.4436      1717.1162      293.58786      295.07039      0.2190285    
    461000   470.32296      1322.2515      1792.5745      273.76685      295.9226       0.21902341   
    462000   462.41776      1330.762       1793.1798      143.40148      297.82726      0.21084549   
    463000   483.3795       1336.2414      1819.6209      105.37143      299.05358      0.20185122   
    464000   495.20692      1349.4514      1844.6583      182.73446      302.01         0.2003404    
    465000   471.83811      1362.159       1833.9972      209.95906      304.85399      0.20409127   
    466000   493.45522      1341.6169      1835.0721      227.79354      300.25662      0.21285902   
    467000   454.46232      1334.8581      1789.3205      211.9849       298.74399      0.21825335   
    468000   447.93362      1334.8043      1782.7379      254.30151      298.73194      0.22108986   
    469000   436.93896      1327.0225      1763.9615      327.40297      296.99036      0.21995442   
    470000   463.61971      1285.5301      1749.1498      316.81237      287.70428      0.21232097   
    471000   437.91169      1337.4275      1775.3392      343.69128      299.31903      0.20869175   
    472000   445.29799      1322.1974      1767.4953      248.73657      295.91048      0.20878659   
    473000   445.31768      1274.0879      1719.4056      141.26492      285.14349      0.21267034   
    474000   437.56041      1311.4748      1749.0352      155.76158      293.51075      0.21920698   
    475000   450.76132      1323.7621      1774.5235      175.68491      296.26069      0.22216049   
    476000   458.74502      1314.309       1773.054       179.98457      294.14505      0.2190941    
    477000   437.91489      1291.9         1729.8149      152.02545      289.12988      0.2158719    
    478000   447.82206      1296.9475      1744.7695      225.09486      290.2595       0.21489152   
    479000   446.64819      1319.0321      1765.6803      296.19656      295.2021       0.21497153   
    480000   464.37959      1303.1546      1767.5341      322.42476      291.64866      0.21341213   
    481000   483.66641      1309.3962      1793.0627      318.60463      293.04557      0.21361365   
    482000   444.81834      1336.2524      1781.0707      275.96402      299.05602      0.21574487   
    483000   449.33897      1357.3153      1806.6543      161.24084      303.76996      0.22069209   
    484000   459.5262       1357.6588      1817.185       92.015295      303.84683      0.22202594   
    485000   450.35156      1349.1791      1799.5306      131.52491      301.94904      0.21860523   
    486000   467.96213      1341.106       1809.0681      174.75699      300.14227      0.21332838   
    487000   453.95831      1380.086       1834.0443      211.33982      308.86607      0.20969605   
    488000   451.99808      1391.0398      1843.0379      241.70555      311.31757      0.2062198    
    489000   476.42521      1399.476       1875.9012      178.9568       313.2056       0.20117907   
    490000   468.584        1374.6872      1843.2712      156.63178      307.65783      0.19998082   
    491000   442.30302      1364.5135      1806.8166      152.86179      305.38093      0.20672897   
    492000   465.85727      1353.6138      1819.4711      123.6473       302.94155      0.21815774   
    493000   475.62304      1321.1858      1796.8088      83.999352      295.68409      0.21769114   
    494000   443.1295       1340.6999      1783.8294      182.01316      300.05139      0.21115712   
    495000   468.39393      1350.9852      1819.3791      262.72507      302.35326      0.20481362   
    496000   481.18482      1345.8509      1827.0357      393.2669       301.2042       0.20293021   
    497000   473.30221      1366.3738      1839.676       400.2066       305.79726      0.20261303   
    498000   474.42717      1380.7324      1855.1595      317.7912       309.01074      0.20290102   
    499000   487.30092      1345.3119      1832.6128      194.15644      301.08357      0.20524485   
    500000   474.26042      1321.1292      1795.3896      113.33504      295.67143      0.20755889   
    501000   463.14415      1314.0942      1777.2383      62.053139      294.09697      0.2119063    
    502000   446.37054      1311.1021      1757.4727      75.44806       293.42735      0.21540665   
    503000   456.76192      1351.6269      1808.3888      125.5346       302.49688      0.21319694   
    504000   514.35051      1306.8231      1821.1736      210.08842      292.46969      0.20790954   
    505000   470.91585      1330.9058      1801.8217      180.93617      297.85945      0.20350917   
    506000   457.62156      1342.9783      1800.5998      154.04922      300.5613       0.20548111   
    507000   460.00713      1319.1036      1779.1108      146.56002      295.2181       0.21183518   
    508000   466.50976      1284.2678      1750.7775      76.105313      287.42176      0.22000959   
    509000   433.80818      1289.4957      1723.3039      35.383469      288.59179      0.22295727   
    510000   426.46028      1317.7122      1744.1725      48.142107      294.90669      0.22127991   
    511000   423.64044      1344.7824      1768.4229      64.638046      300.96507      0.21882979   
    512000   448.53317      1314.0642      1762.5974      105.80716      294.09026      0.21534032   
    513000   476.54704      1303.999       1780.5461      196.6319       291.83766      0.21246289   
    514000   450.18402      1303.6296      1753.8137      213.78949      291.75499      0.20965861   
    515000   469.67505      1291.9213      1761.5963      219.31431      289.13464      0.20915344   
    516000   441.42838      1332.1055      1773.5339      256.43095      298.12794      0.21123947   
    517000   429.83069      1318.3704      1748.2011      257.53088      295.05401      0.21760076   
    518000   453.25417      1318.0893      1771.3434      278.13939      294.99108      0.22335246   
    519000   444.49245      1324.2685      1768.761       272.14329      296.37401      0.22256827   
    520000   441.23028      1319.9538      1761.1841      249.86206      295.40837      0.2161834    
    521000   457.21222      1339.3633      1796.5755      159.68598      299.75225      0.20681166   
    522000   462.15792      1289.4176      1751.5755      98.319318      288.57431      0.2029848    
    523000   477.82165      1295.6004      1773.4221      96.262612      289.95804      0.20426996   
    524000   451.69451      1320.6353      1772.3298      96.312723      295.56089      0.21203399   
    525000   441.59449      1332.2959      1773.8904      139.20665      298.17057      0.21959405   
    526000   463.9214       1304.4848      1768.4062      151.84687      291.94638      0.22034668   
    527000   426.50517      1341.6245      1768.1297      211.40399      300.25831      0.21615235   
    528000   485.01356      1346.1376      1831.1511      182.22757      301.26835      0.21135463   
    529000   487.69123      1342.8875      1830.5787      193.75507      300.54097      0.21104218   
    530000   480.05412      1355.6807      1835.7348      226.31796      303.40413      0.21032901   
    531000   493.45842      1388.6524      1882.1108      109.15957      310.78325      0.20802747   
    532000   470.06103      1420.1486      1890.2096      130.61206      317.83216      0.20512594   
    533000   485.75855      1353.8925      1839.6511      108.89538      303.00393      0.20137535   
    534000   484.29187      1346.3056      1830.5975      137.34069      301.30595      0.20286467   
    535000   422.54808      1362.9927      1785.5408      217.54506      305.04056      0.20851685   
    536000   421.04997      1383.2393      1804.2892      214.74741      309.57179      0.21544825   
    537000   429.95174      1341.1452      1771.0969      239.80923      300.15104      0.21802109   
    538000   426.56034      1330.8392      1757.3995      262.48099      297.84453      0.21880189   
    539000   454.29796      1356.2174      1810.5153      229.89087      303.52423      0.21494509   
    540000   433.37722      1360.1834      1793.5607      198.32046      304.41185      0.20775174   
    541000   481.97575      1313.9793      1795.955       113.64667      294.07125      0.20509288   
    542000   461.55759      1345           1806.5576      114.0131       301.01377      0.20768179   
    543000   439.18196      1355.097       1794.2789      47.235723      303.27348      0.21361534   
    544000   407.57459      1309.1981      1716.7727      102.32934      293.00122      0.22550987   
    545000   430.51778      1308.7461      1739.2639      159.23434      292.90006      0.22972177   
    546000   445.2684       1344.5697      1789.8381      335.79855      300.91746      0.22636789   
    547000   467.69124      1300.5617      1768.2529      299.93199      291.06837      0.21622355   
    548000   468.45249      1310.6236      1779.0761      269.33503      293.32025      0.2106328    
    549000   470.12347      1330.5556      1800.6791      230.76271      297.78107      0.20865324   
    550000   481.64656      1305.1312      1786.7778      160.04407      292.09104      0.20826008   
    551000   479.30259      1349.5708      1828.8734      119.17953      302.03672      0.20922034   
    552000   463.85779      1371.7087      1835.5665      167.66594      306.99122      0.21404491   
    553000   480.70118      1358.6712      1839.3724      166.2017       304.07341      0.21727047   
    554000   456.7723       1344.1582      1800.9305      185.74909      300.82536      0.22052377   
    555000   434.38307      1358.6403      1793.0234      277.17568      304.06649      0.22809797   
    556000   452.21676      1372.3298      1824.5465      265.9372       307.13022      0.2298414    
    557000   455.70386      1347.1851      1802.8889      227.77514      301.50278      0.22223036   
    558000   474.3096       1321.5173      1795.8269      180.21646      295.75828      0.21219446   
    559000   443.90921      1344.1228      1788.032       121.33924      300.81744      0.20572088   
    560000   456.61261      1345.6905      1802.3031      95.033047      301.16829      0.20487867   
    561000   448.17568      1301.8444      1750.0201      92.916144      291.35546      0.2092318    
    562000   441.75221      1289.1583      1730.9105      78.360719      288.51627      0.21346841   
    563000   462.47402      1290.5448      1753.0188      269.0383       288.82657      0.21881356   
    564000   434.23777      1322.1658      1756.4036      373.20998      295.90342      0.21791561   
    565000   435.45316      1344.162       1779.6151      396.19514      300.82621      0.21444842   
    566000   452.34354      1345.5629      1797.9064      303.6912       301.13973      0.2098178    
    567000   471.31717      1340.4395      1811.7567      207.66246      299.99312      0.20947139   
    568000   462.20318      1331.9681      1794.1713      91.86891       298.0972       0.21228171   
    569000   446.21999      1340.9962      1787.2162      134.64398      300.11769      0.21798736   
    570000   444.05044      1349.6866      1793.7371      26.293369      302.06264      0.21903572   
    571000   463.81876      1353.4284      1817.2471      45.311168      302.90005      0.22053691   
    572000   490.87229      1350.2736      1841.1459      93.518914      302.194        0.21798403   
    573000   460.16414      1345.0662      1805.2303      185.12514      301.02858      0.21526044   
    574000   458.26079      1363.804       1822.0648      273.24102      305.22213      0.21176804   
    575000   472.03501      1398.7093      1870.7443      253.00019      313.03402      0.20977836   
    576000   498.96501      1401.5926      1900.5577      309.57617      313.67931      0.21325474   
    577000   456.04385      1362.3691      1818.413       314.83188      304.90101      0.21490283   
    578000   467.96359      1330.2318      1798.1953      288.51359      297.7086       0.21586988   
    579000   459.60535      1314.2627      1773.8681      268.93568      294.13469      0.21474108   
    580000   449.92388      1308.2941      1758.218       241.39337      292.79891      0.21177752   
    581000   450.81         1302.6894      1753.4994      225.24582      291.54457      0.21115401   
    582000   451.13979      1315.424       1766.5638      218.26623      294.39459      0.21476764   
    583000   472.44853      1308.3721      1780.8206      240.47266      292.81636      0.22314714   
    584000   442.76356      1341.5231      1784.2867      209.07467      300.23562      0.23000387   
    585000   465.44933      1303.4621      1768.9115      172.89781      291.7175       0.23339736   
    586000   452.58253      1343.3718      1795.9543      137.4846       300.64936      0.23450981   
    587000   442.79659      1376.6527      1819.4493      104.36111      308.0977       0.22950796   
    588000   463.17201      1364.5844      1827.7565      24.246591      305.3968       0.21711024   
    589000   459.82311      1376.7604      1836.5835      108.57934      308.12179      0.21171171   
    590000   492.79707      1353.6271      1846.4241      176.64282      302.94452      0.21353438   
    591000   483.2291       1375.7141      1858.9432      239.21311      307.88764      0.21793034   
    592000   460.92139      1364.4384      1825.3597      190.87381      305.3641       0.2227321    
    593000   446.41833      1362.7749      1809.1932      156.92926      304.99181      0.22775661   
    594000   442.19467      1401.1676      1843.3622      187.64413      313.58418      0.23391214   
    595000   450.84988      1367.1266      1817.9765      245.86247      305.96575      0.23202208   
    596000   473.84443      1341.2837      1815.1281      229.12925      300.18205      0.22291856   
    597000   458.13058      1365.1066      1823.2372      193.19562      305.51367      0.21567024   
    598000   458.81747      1336.8217      1795.6392      202.20951      299.18344      0.21331403   
    599000   486.8066       1319.1518      1805.9583      256.25638      295.22887      0.21312556   
    600000   468.69015      1328.646       1797.3362      242.91744      297.3537       0.2112029    
    601000   461.97869      1342.5016      1804.4803      227.86568      300.45461      0.2082641    
    602000   454.33176      1305.4109      1759.7427      277.3374       292.15364      0.20909023   
    603000   444.47087      1344.3817      1788.8526      170.88633      300.87539      0.21437869   
    604000   449.21124      1362.6593      1811.8705      31.376555      304.96595      0.22372898   
    605000   447.14176      1352.3999      1799.5417     -77.975926      302.66987      0.22965644   
    606000   448.62384      1324.6247      1773.2485     -11.913766      296.45372      0.22865527   
    607000   457.17203      1308.9028      1766.0748      70.726781      292.93514      0.22257903   
    608000   460.91693      1331.4037      1792.3206      197.44488      297.97088      0.22106452   
    609000   460.62445      1314.7379      1775.3623      272.53555      294.24104      0.22265333   
    610000   422.13131      1343.4073      1765.5386      361.36705      300.65731      0.22541867   
    611000   420.21829      1340.3669      1760.5852      313.76803      299.97685      0.22631185   
    612000   445.03465      1382.5714      1827.6061      274.17088      309.42233      0.2243148    
    613000   474.07022      1396.4571      1870.5273      238.56146      312.52997      0.21878653   
    614000   492.43165      1372.8243      1865.2559      152.28882      307.24089      0.2121306    
    615000   521.867        1347.5015      1869.3685      81.349205      301.57359      0.20707155   
    616000   500.21701      1342.1068      1842.3239      81.058782      300.36627      0.20663963   
    617000   484.08353      1341.4514      1825.5349      106.17857      300.21957      0.21112331   
    618000   461.90707      1372.1746      1834.0817      161.73831      307.0955       0.21707268   
    619000   461.53707      1402.5012      1864.0383      196.37908      313.88266      0.21953587   
    620000   457.8319       1359.3363      1817.1682      192.08681      304.22225      0.21729945   
    621000   486.30104      1340.9695      1827.2705      168.87648      300.11172      0.21133684   
    622000   480.68011      1350.7438      1831.4239      228.34206      302.29923      0.20848045   
    623000   466.28513      1387.8775      1854.1626      281.87596      310.60983      0.21122704   
    624000   486.19996      1378.7419      1864.9419      319.8354       308.56527      0.21794721   
    625000   448.02477      1367.5892      1815.614       333.54655      306.06928      0.22127603   
    626000   467.89644      1363.1935      1831.0899      300.8982       305.0855       0.22166179   
    627000   466.59729      1384.8111      1851.4084      318.47153      309.92356      0.22294337   
    628000   474.02771      1356.1338      1830.1615      304.28494      303.50552      0.22037021   
    629000   453.9833       1364.9052      1818.8885      224.39871      305.46859      0.21516645   
    630000   504.59376      1322.1864      1826.7802      149.87207      295.90804      0.2122623    
    631000   463.53392      1342.1947      1805.7287      157.8337       300.38594      0.21357023   
    632000   478.15355      1348.64        1826.7936      75.501747      301.8284       0.21474927   
    633000   479.25027      1367.0648      1846.3151      104.14293      305.95191      0.21465727   
    634000   470.62604      1339.8181      1810.4441      219.93498      299.85404      0.21799656   
    635000   478.33398      1327.0567      1805.3906      191.71975      296.998        0.21792337   
    636000   475.76621      1337.0502      1812.8164      167.43586      299.23457      0.21666895   
    637000   461.17984      1348.0553      1809.2352      169.28394      301.69755      0.21716874   
    638000   465.71114      1362.9217      1828.6329      148.50688      305.02468      0.21772714   
    639000   459.248        1341.4229      1800.6709      199.74638      300.2132       0.21778934   
    640000   451.89768      1370.7266      1822.6242      222.8132       306.77142      0.21819486   
    641000   475.26591      1378.1602      1853.4261      261.62413      308.43507      0.21699719   
    642000   487.49203      1331.3342      1818.8262      154.06352      297.95532      0.21225792   
    643000   461.10646      1363.3382      1824.4447      205.83351      305.1179       0.20896494   
    644000   490.8744       1341.5686      1832.443       190.99354      300.2458       0.20712019   
    645000   488.88208      1350.6765      1839.5586      244.25973      302.28418      0.21414444   
    646000   450.91062      1363.6215      1814.5321      207.63271      305.18129      0.22091609   
    647000   427.22168      1384.6333      1811.855       138.87351      309.88378      0.22247951   
    648000   467.67996      1340.1167      1807.7967      63.858483      299.92087      0.2175832    
    649000   482.74084      1333.1054      1815.8463      42.102067      298.35173      0.21021891   
    650000   476.89231      1327.3191      1804.2115      117.24894      297.05675      0.20843665   
    651000   490.84814      1315.6253      1806.4734      190.16418      294.43964      0.20705599   
    652000   480.47062      1332.2341      1812.7047      257.73242      298.15672      0.20636799   
    653000   452.42054      1314.1413      1766.5618      271.1304       294.10751      0.20999987   
    654000   459.46843      1298.5953      1758.0637      244.81351      290.62829      0.21700839   
    655000   463.54198      1318.0174      1781.5594      179.89796      294.97499      0.2193354    
    656000   479.46821      1363.17        1842.6383      157.2312       305.08025      0.21538554   
    657000   472.26375      1369.2266      1841.4904      143.94098      306.43572      0.21190968   
    658000   498.78516      1349.9712      1848.7563      165.57594      302.12632      0.2107356    
    659000   472.71544      1351.1787      1823.8941      161.73332      302.39657      0.20985643   
    660000   484.84934      1328.8935      1813.7428      149.72499      297.40909      0.21336699   
    661000   466.30228      1388.9408      1855.243       238.21471      310.84779      0.22171652   
    662000   469.33949      1348.2843      1817.6238      294.28695      301.7488       0.22521901   
    663000   479.63525      1356.3335      1835.9687      325.22684      303.55022      0.22419076   
    664000   439.73547      1368.0692      1807.8047      286.99018      306.1767       0.22099437   
    665000   446.90479      1365.3702      1812.275       199.66952      305.57265      0.21433424   
    666000   476.43891      1338.3935      1814.8324      119.72297      299.53521      0.21068251   
    667000   522.47553      1379.6095      1902.0851      131.72088      308.75944      0.20733495   
    668000   473.56857      1396.0607      1869.6293      66.090073      312.44126      0.20709552   
    669000   453.76277      1361.1365      1814.8993      106.60638      304.62515      0.21232322   
    670000   473.56375      1332.283       1805.8468      228.20864      298.16768      0.22315412   
    671000   461.15232      1355.3233      1816.4756      216.28506      303.32414      0.22589081   
    672000   448.63361      1384.5063      1833.1399      319.91647      309.85535      0.22333426   
    673000   482.11932      1386.7648      1868.8841      347.08052      310.36081      0.21808626   
    674000   477.57936      1379.4068      1856.9861      339.61068      308.71407      0.21444349   
    675000   467.4204       1357.4309      1824.8513      311.38384      303.79581      0.21249557   
    676000   468.35836      1330.8023      1799.1606      219.85458      297.83628      0.21029025   
    677000   482.85987      1332.6286      1815.4884      70.993879      298.24501      0.20780202   
    678000   489.69735      1319.1879      1808.8853     -10.158984      295.23697      0.20796962   
    679000   458.09397      1292.7884      1750.8824     -0.20350046     289.3287       0.21149583   
    680000   463.34605      1321.6034      1784.9494      157.33053      295.77755      0.22250716   
    681000   467.35825      1340.9482      1808.3064      232.30397      300.10695      0.22907189   
    682000   446.84278      1340.0236      1786.8663      246.7298       299.90003      0.22981165   
    683000   455.57385      1335.5315      1791.1053      277.91067      298.89468      0.22654588   
    684000   474.85855      1312.1413      1786.9998      224.2961       293.65991      0.22182762   
    685000   454.9714       1289.8588      1744.8302      230.74258      288.67304      0.21831254   
    686000   445.37569      1312.3147      1757.6904      257.338        293.69873      0.21752365   
    687000   455.97929      1322.1275      1778.1068      192.86004      295.89485      0.21996465   
    688000   464.36793      1344.5294      1808.8973      166.7165       300.90844      0.22100467   
    689000   473.35791      1354.4128      1827.7707      127.09392      303.12037      0.21703861   
    690000   474.09208      1369.793       1843.8851      126.68766      306.56249      0.20850514   
    691000   475.44181      1380.8795      1856.3213      197.35022      309.04366      0.20667521   
    692000   497.18531      1393.6389      1890.8242      230.74941      311.89924      0.21062552   
    693000   471.4973       1355.795       1827.2923      133.11527      303.4297       0.21399317   
    694000   474.97166      1354.6002      1829.5719      195.82998      303.16231      0.21874225   
    695000   444.79093      1366.1809      1810.9718      258.93149      305.75409      0.22310947   
    696000   441.16536      1375.5057      1816.6711      227.85312      307.841        0.2251188    
    697000   419.90089      1361.3068      1781.2077      226.10698      304.66325      0.22142239   
    698000   443.35947      1303.5141      1746.8736      209.01413      291.72913      0.21484198   
    699000   441.46368      1282.3322      1723.7959      190.27244      286.98859      0.20747288   
    700000   489.16435      1326.9745      1816.1389      191.49152      296.97962      0.20575384   
    701000   491.39335      1321.3677      1812.7611      212.71637      295.7248       0.20690276   
    702000   443.72212      1305.5819      1749.304       182.95845      292.19191      0.20906732   
    703000   487.6313       1295.2417      1782.873       138.63974      289.87774      0.21240789   
    704000   480.69697      1304.7502      1785.4472      125.019        292.00578      0.21485618   
    705000   458.84042      1349.8295      1808.6699      123.58763      302.09461      0.21311014   
    706000   438.47463      1323.152       1761.6266      117.63646      296.12412      0.21144537   
    707000   440.45644      1321.3596      1761.8161      104.76341      295.72299      0.21319948   
    708000   443.7347       1342.9586      1786.6933      154.43696      300.55688      0.22114513   
    709000   446.51275      1334.6961      1781.2089      235.69956      298.70773      0.22785697   
    710000   433.54738      1323.1022      1756.6496      179.38631      296.11298      0.23011922   
    711000   419.0441       1338.1028      1757.1469      198.63355      299.47015      0.23418565   
    712000   411.76728      1345.6717      1757.4389      300.99837      301.16408      0.2355624    
    713000   451.58494      1362.3394      1813.9244      313.07016      304.89436      0.22503009   
    714000   477.56031      1291.2365      1768.7968      231.77708      288.98138      0.21310713   
    715000   470.57169      1332.7565      1803.3282      211.04703      298.27364      0.20965267   
    716000   455.662        1319.9581      1775.6201      163.87135      295.40934      0.20918244   
    717000   494.90231      1312.3863      1807.2886      152.64586      293.71475      0.21164649   
    718000   477.46311      1313.4605      1790.9236      124.5375       293.95516      0.21305826   
    719000   460.51362      1337.4178      1797.9314      119.95541      299.31684      0.21725469   
    720000   445.62525      1334.9303      1780.5556      165.6697       298.76015      0.22296181   
    721000   447.65323      1385.1579      1832.8112      204.63483      310.00119      0.22451016   
    722000   466.96548      1363.9039      1830.8694      227.74657      305.2445       0.21994276   
    723000   454.99827      1379.4407      1834.4389      267.80147      308.72165      0.21084822   
    724000   480.05198      1355.0966      1835.1486      297.34086      303.27341      0.20703351   
    725000   490.62937      1366.4857      1857.1151      346.78937      305.82231      0.20860106   
    726000   455.17674      1362.1253      1817.3021      328.03589      304.84645      0.21536503   
    727000   443.68952      1391.7226      1835.4121      219.72456      311.47038      0.22015078   
    728000   489.21437      1343.2168      1832.4312      121.48828      300.61468      0.21826825   
    729000   466.46676      1364.7499      1831.2166      102.31633      305.43382      0.21354238   
    730000   492.65576      1368.7963      1861.452       131.43727      306.33942      0.20864471   
    731000   503.55504      1341.5498      1845.1048      135.46966      300.2416       0.20597211   
    732000   485.15926      1347.602       1832.7613      179.56405      301.5961       0.20732693   
    733000   459.59857      1350.167       1809.7656      222.10354      302.17015      0.21122252   
    734000   472.76456      1360.3601      1833.1247      310.02041      304.45139      0.2169095    
    735000   452.14217      1349.3392      1801.4813      277.75686      301.98488      0.220661     
    736000   413.24896      1317.4934      1730.7424      241.09863      294.85773      0.22901352   
    737000   415.02139      1340.183       1755.2044      153.79587      299.9357       0.24061507   
    738000   419.70704      1331.0313      1750.7383      130.27976      297.88754      0.24293812   
    739000   457.29605      1305.4388      1762.7348      85.782149      292.15988      0.23395008   
    740000   455.22745      1336.7537      1791.9811      132.00286      299.16821      0.22490095   
    741000   433.92338      1324.2011      1758.1245      132.33306      296.35893      0.21874443   
    742000   470.91338      1325.23        1796.1434      229.04975      296.5892       0.21582828   
    743000   459.94156      1321.8085      1781.7501      297.75012      295.82346      0.21328494   
    744000   441.2573       1359.0023      1800.2596      270.89122      304.14749      0.21294052   
    745000   443.7816       1369.215       1812.9966      239.34819      306.43312      0.21538036   
    746000   456.8034       1348.9295      1805.7329      110.24472      301.89319      0.21774899   
    747000   477.58844      1362.7556      1840.3441      64.959344      304.98751      0.22224894   
    748000   449.0458       1365.9594      1815.0052      185.70534      305.70452      0.23014248   
    749000   466.47711      1341.07        1807.5471      308.55687      300.13421      0.23061596   
    750000   482.39624      1345.4768      1827.873       349.10191      301.12046      0.22254683   
    751000   474.66654      1373.6819      1848.3484      393.48455      307.43282      0.21732653   
    752000   468.16667      1364.1118      1832.2785      336.62288      305.29103      0.21690766   
    753000   450.30808      1362.7195      1813.0276      207.43048      304.97943      0.21774776   
    754000   455.70844      1348.6397      1804.3482      85.710241      301.82834      0.2205966    
    755000   461.65086      1345.3828      1807.0337      40.883126      301.09944      0.21963184   
    756000   466.63478      1343.7371      1810.3718      38.177939      300.73111      0.21436931   
    757000   486.13908      1389.838       1875.9771      86.185701      311.0486       0.20697506   
    758000   498.34155      1343.5633      1841.9049      242.94634      300.69223      0.20228098   
    759000   486.90526      1346.4544      1833.3596      257.73992      301.33925      0.19651019   
    760000   522.65098      1346.5297      1869.1806      254.22851      301.3561       0.19489978   
    761000   487.5281       1341.8843      1829.4124      306.01952      300.31647      0.20255992   
    762000   480.80195      1341.6134      1822.4153      340.85889      300.25583      0.21265316   
    763000   466.74156      1394.0281      1860.7696      235.34741      311.98634      0.21569312   
    764000   468.91382      1340.6017      1809.5155      76.271125      300.02942      0.21495368   
    765000   462.80929      1349.4269      1812.2362      17.516859      302.00451      0.21562776   
    766000   452.74793      1374.7594      1827.5074      19.707443      307.67398      0.21931121   
    767000   453.0428       1347.0579      1800.1007      65.300715      301.47432      0.22131263   
    768000   484.85224      1365.2116      1850.0638      124.5961       305.53715      0.22265512   
    769000   457.16262      1344.6791      1801.8417      212.33486      300.94194      0.22396808   
    770000   465.85716      1359.4789      1825.3361      277.39971      304.25417      0.22509386   
    771000   452.11247      1342.7772      1794.8897      273.07505      300.51629      0.22511264   
    772000   470.43036      1340.0782      1810.5086      239.53324      299.91225      0.2225019    
    773000   458.4874       1351.35        1809.8375      285.55235      302.43491      0.22175584   
    774000   491.39697      1366.0831      1857.48        313.28092      305.7322       0.2230978    
    775000   443.21817      1376.1914      1819.4095      221.07986      307.99445      0.22556404   
    776000   461.17724      1359.6953      1820.8725      149.75573      304.30259      0.22654337   
    777000   438.93648      1380.0312      1818.9677      129.66894      308.85383      0.22421276   
    778000   467.91833      1354.0316      1821.9499      165.57992      303.03504      0.22120859   
    779000   484.83389      1337.844       1822.6779      176.79548      299.41224      0.21432303   
    780000   455.9735       1332.7301      1788.7036      214.58751      298.26774      0.20764707   
    781000   467.03601      1304.598       1771.634       202.06165      291.97171      0.20255135   
    782000   479.10635      1310.6732      1789.7795      188.50306      293.33135      0.20487741   
    783000   465.51694      1327.1859      1792.7028      220.65971      297.02692      0.21199265   
    784000   469.79853      1327.3811      1797.1796      129.25174      297.07061      0.21429031   
    785000   506.70878      1302.8067      1809.5155      44.93437       291.57082      0.21575568   
    786000   492.60982      1289.2468      1781.8566      2.7443957      288.53608      0.21683926   
    787000   448.34374      1337.2541      1785.5978      43.95936       299.28021      0.21809117   
    788000   441.21843      1365.6857      1806.9041      152.19004      305.64325      0.22122953   
    789000   438.96292      1375.3074      1814.2703      285.81221      307.79661      0.22854704   
    790000   468.59499      1350.888       1819.483       310.75629      302.3315       0.22925999   
    791000   451.97013      1347.5161      1799.4862      291.96695      301.57687      0.22205859   
    792000   460.06727      1369.4811      1829.5484      325.93424      306.49268      0.21619934   
    793000   472.69097      1378.4914      1851.1824      279.14228      308.50921      0.20881412   
    794000   483.63467      1373.3328      1856.9675      208.48889      307.3547       0.20457766   
    795000   511.36027      1384.7631      1896.1233      110.65143      309.91282      0.20143993   
    796000   527.73398      1352.5897      1880.3236      109.60767      302.71234      0.20283671   
    797000   479.77101      1377.1275      1856.8985      109.15451      308.20396      0.20645936   
    798000   504.96732      1353.1392      1858.1066      168.02428      302.83534      0.21104811   
    799000   504.11389      1373.8022      1877.9161      217.10572      307.45975      0.21344328   
    800000   495.5541       1336.6067      1832.1608      269.07027      299.13531      0.21155443   
    801000   482.12876      1347.3192      1829.448       261.33467      301.53281      0.20962253   
    802000   485.68555      1311.2748      1796.9604      242.74565      293.466        0.21075862   
    803000   473.09133      1328.8838      1801.9751      258.05154      297.40692      0.21455126   
    804000   483.48787      1300.1162      1783.604       160.31463      290.96867      0.22065741   
    805000   410.66941      1312.7357      1723.4051      172.28061      293.79295      0.22870507   
    806000   443.77367      1310.1354      1753.9091      130.30171      293.21099      0.23128681   
    807000   467.16668      1336.9234      1804.0901      118.06539      299.20621      0.22491403   
    808000   441.70029      1348.9374      1790.6377      225.14883      301.89497      0.21735914   
    809000   468.54655      1331.6335      1800.1801      266.89141      298.02232      0.21309195   
    810000   464.06199      1314.3817      1778.4437      324.48478      294.16132      0.21046999   
    811000   488.22708      1321.2321      1809.4592      357.27397      295.69446      0.20549962   
    812000   475.03321      1346.3089      1821.3421      283.3768       301.30669      0.2041028    
    813000   498.13775      1326.4321      1824.5699      229.84753      296.85823      0.20668364   
    814000   482.00235      1310.1666      1792.169       163.13263      293.21798      0.2116428    
    815000   463.60684      1347.781       1811.3878      115.40183      301.63614      0.218751     
    816000   437.9888       1393.389       1831.3778      130.18527      311.84332      0.22412693   
    817000   472.29574      1356.8439      1829.1397      115.84884      303.66446      0.22462604   
    818000   465.20239      1348.6318      1813.8342      116.06541      301.82657      0.21308789   
    819000   476.39681      1301.5912      1777.988       169.31011      291.29879      0.20420429   
    820000   481.60542      1330.87        1812.4754      121.53616      297.85144      0.20311847   
    821000   448.89542      1331.4182      1780.3136      158.40716      297.97412      0.20738343   
    822000   479.86024      1329.531       1809.3912      129.30444      297.55176      0.21260706   
    823000   459.83224      1319.9213      1779.7535      169.64331      295.40109      0.2167275    
    824000   441.11416      1312.6556      1753.7697      274.5189       293.77501      0.22200027   
    825000   438.18111      1310.4674      1748.6485      213.35973      293.28529      0.22331711   
    826000   465.61321      1350.514       1816.1272      172.59643      302.2478       0.22280978   
    827000   505.96377      1366.3482      1872.3119      214.73683      305.79153      0.22079174   
    828000   449.56755      1365.8259      1815.3934      268.81796      305.67464      0.21878549   
    829000   481.26755      1343.9592      1825.2267      207.15708      300.78082      0.21687986   
    830000   484.13283      1346.4216      1830.5544      166.71394      301.33191      0.21672284   
    831000   458.97004      1363.4751      1822.4451      133.37839      305.14853      0.21660676   
    832000   473.86843      1322.4084      1796.2768      76.854446      295.95771      0.21492177   
    833000   496.70567      1346.6488      1843.3545      69.834322      301.38278      0.2122777    
    834000   469.14862      1375.6426      1844.7913      170.20699      307.87164      0.21598878   
    835000   435.44077      1365.5383      1800.9791      225.76369      305.61028      0.22042665   
    836000   458.56967      1332.0662      1790.6359      280.33471      298.11916      0.22357225   
    837000   492.05376      1324.2669      1816.3207      274.06062      296.37365      0.22777567   
    838000   474.26124      1371.9377      1846.1989      384.44905      307.04247      0.23302314   
    839000   433.85985      1372.4967      1806.3565      332.01266      307.16757      0.23137722   
    840000   430.08853      1373.8028      1803.8914      187.24413      307.45989      0.21929052   
    841000   503.88681      1324.7317      1828.6185      139.06844      296.47766      0.21096664   
    842000   487.06501      1323.7993      1810.8643      160.07457      296.26899      0.20619808   
    843000   479.62447      1334.5828      1814.2073      133.51637      298.68238      0.20255682   
    844000   463.88957      1350.0698      1813.9593      171.83872      302.14839      0.20288322   
    845000   457.32828      1341.1229      1798.4512      226.97171      300.14605      0.20751766   
    846000   457.57723      1364.5068      1822.084       332.61561      305.37943      0.21605384   
    847000   457.96881      1374.8701      1832.8389      359.62772      307.69875      0.22015563   
    848000   477.5231       1324.7954      1802.3185      251.82296      296.49194      0.21963279   
    849000   460.91521      1382.1708      1843.086       163.82267      309.33266      0.21712152   
    850000   467.67295      1400.3089      1867.9819      176.65597      313.39202      0.21338172   
    851000   448.83372      1362.3728      1811.2066      174.45047      304.90184      0.20923841   
    852000   474.54811      1352.0268      1826.5749      231.38148      302.58637      0.20755938   
    853000   473.37385      1332.1431      1805.5169      282.29212      298.13636      0.20899141   
    854000   468.0564       1312.8463      1780.9027      284.92621      293.8177       0.2119867    
    855000   437.77718      1405.8137      1843.5909      288.18075      314.624        0.21349619   
    856000   480.38444      1352.0013      1832.3858      227.15191      302.58068      0.21286148   
    857000   500.47254      1337.797       1838.2695      162.42321      299.4017       0.2096699    
    858000   480.96793      1340.7015      1821.6694      142.479        300.05175      0.20683537   
    859000   480.86716      1340.4037      1821.2709      138.77442      299.9851       0.20681667   
    860000   440.46124      1393.1267      1833.5879      161.64711      311.78461      0.21299967   
    861000   455.20382      1322.6223      1777.8262      175.11257      296.00559      0.22219928   
    862000   442.17838      1341.1609      1783.3392      182.001        300.15456      0.22637115   
    863000   437.58817      1339.4332      1777.0214      231.88564      299.76791      0.2242085    
    864000   438.2845       1306.3238      1744.6083      255.76565      292.35794      0.22014834   
    865000   448.58525      1303.4933      1752.0786      291.56634      291.72448      0.21623256   
    866000   455.45385      1347.1076      1802.5615      371.38247      301.48545      0.21762333   
    867000   478.43277      1342.1538      1820.5866      327.60898      300.37678      0.21872476   
    868000   475.52788      1337.7806      1813.3084      174.15944      299.39804      0.22045686   
    869000   500.15252      1350.9991      1851.1516      52.812723      302.35637      0.22630757   
    870000   440.31231      1361.2191      1801.5314     -11.609191      304.64362      0.23585568   
    871000   427.6429       1374.4917      1802.1346     -24.623659      307.61407      0.23819421   
    872000   440.8957       1353.2068      1794.1025      41.187337      302.85047      0.2335478    
    873000   440.11848      1357.0207      1797.1392      149.36619      303.70401      0.2221633    
    874000   462.20084      1322.472       1784.6729      239.08749      295.97195      0.21607972   
    875000   473.20307      1324.0541      1797.2571      314.13836      296.32602      0.21265758   
    876000   469.40475      1334.4205      1803.8252      326.28814      298.64604      0.21081742   
    877000   447.09179      1319.7098      1766.8016      286.90353      295.35377      0.21469468   
    878000   444.21113      1345.6291      1789.8402      274.30573      301.15455      0.21952011   
    879000   447.63141      1318.1127      1765.7441      135.38307      294.99633      0.22278708   
    880000   446.22095      1325.9636      1772.1846      113.80176      296.75338      0.22376646   
    881000   458.98771      1298.6138      1757.6015      185.58723      290.63243      0.22360481   
    882000   421.06577      1313.6036      1734.6694      161.57733      293.98718      0.22141166   
    883000   486.86862      1307.0986      1793.9673      148.4749       292.53136      0.21668369   
    884000   490.77895      1303.5692      1794.3481      186.78265      291.74146      0.20840453   
    885000   454.21323      1310.5291      1764.7423      181.76086      293.2991       0.20282127   
    886000   448.86323      1313.0973      1761.9605      243.61869      293.87386      0.20317928   
    887000   454.31591      1362.1577      1816.4736      285.76464      304.85369      0.2086956    
    888000   467.83806      1324.228       1792.0661      407.27828      296.36495      0.21780078   
    889000   461.04526      1323.6045      1784.6498      476.03098      296.22541      0.22243487   
    890000   439.89851      1345.2149      1785.1134      451.44266      301.06186      0.22368305   
    891000   451.14333      1314.0349      1765.1782      361.73892      294.0837       0.22093667   
    892000   461.36564      1273.53        1734.8956      171.65906      285.01862      0.21397537   
    893000   444.11869      1322.7417      1766.8604      78.318928      296.0323       0.2127162    
    894000   484.6422       1304.6621      1789.3043      64.813779      291.98607      0.21567515   
    895000   454.7404       1332.9206      1787.661       53.507452      298.31036      0.21583194   
    896000   464.02913      1332.5942      1796.6233      123.567        298.23732      0.21515825   
    897000   454.91668      1310.6504      1765.5671      212.23697      293.32626      0.2154041    
    898000   472.1246       1338.4183      1810.5429      312.48974      299.54077      0.21828756   
    899000   490.4978       1335.785       1826.2829      363.0441       298.95144      0.21914671   
    900000   467.44972      1340.2945      1807.7443      360.00645      299.96067      0.21500166   
    901000   478.12124      1342.6591      1820.7803      305.60516      300.48986      0.21026864   
    902000   476.49346      1327.9456      1804.4391      218.19556      297.19696      0.20526144   
    903000   488.36167      1318.7823      1807.1439      126.19805      295.14618      0.20702964   
    904000   469.21281      1339.0212      1808.234       154.54643      299.67569      0.21781845   
    905000   429.54747      1375.9084      1805.4558      195.81353      307.93111      0.22483699   
    906000   477.99195      1377.433       1855.4249      138.39459      308.27233      0.22587447   
    907000   464.93522      1359.1003      1824.0355      149.76919      304.16944      0.22240168   
    908000   493.22809      1345.0142      1838.2423      142.43121      301.01695      0.21716491   
    909000   456.18359      1360.9418      1817.1254      166.13323      304.58158      0.21381436   
    910000   485.95561      1354.7167      1840.6724      99.839835      303.18839      0.21206392   
    911000   476.42011      1393.5015      1869.9216      122.09335      311.86848      0.2168137    
    912000   471.03875      1373.9109      1844.9497      224.32472      307.48408      0.22341328   
    913000   455.52951      1372.9458      1828.4753      214.54375      307.26808      0.22537056   
    914000   467.46102      1343.8379      1811.2989      242.53407      300.75368      0.22515004   
    915000   450.59759      1321.6925      1772.2901      282.47048      295.79749      0.2188946    
    916000   469.26544      1337.0267      1806.2921      242.06156      299.22932      0.208257     
    917000   479.48608      1331.5875      1811.0736      194.95881      298.01202      0.20404698   
    918000   467.99372      1308.7201      1776.7138      150.72355      292.89424      0.20378885   
    919000   452.07804      1324.1162      1776.1942      144.99649      296.33991      0.20826307   
    920000   476.01825      1321.5571      1797.5753      106.64621      295.76719      0.21293546   
    921000   478.10928      1347.4731      1825.5824      84.665691      301.56724      0.21555493   
    922000   480.21221      1352.0527      1832.2649      219.19029      302.59217      0.21831901   
    923000   493.27225      1347.131       1840.4032      143.25763      301.49068      0.21701177   
    924000   473.34496      1353.5869      1826.9319      174.49909      302.93553      0.21879683   
    925000   498.49492      1378.0508      1876.5458      205.21517      308.41061      0.22199293   
    926000   460.44393      1377.6881      1838.1321      193.53112      308.32944      0.21961715   
    927000   499.81264      1358.8126      1858.6252      140.97581      304.10505      0.214204     
    928000   463.45623      1400.0295      1863.4857      226.75285      313.32947      0.21192049   
    929000   465.92866      1364.686       1830.6146      258.44701      305.41952      0.20771222   
    930000   489.62352      1364.4569      1854.0804      245.47558      305.36825      0.19964816   
    931000   510.82262      1354.1452      1864.9678      224.16772      303.06047      0.19739083   
    932000   491.29032      1403.6203      1894.9106      228.34338      314.1331       0.20465221   
    933000   508.64691      1374.5849      1883.2318      149.17995      307.63492      0.21158753   
    934000   467.16272      1369.5686      1836.7313      104.48522      306.51225      0.21514346   
    935000   475.81197      1352.244       1828.056       126.69341      302.63498      0.21485872   
    936000   456.41543      1362.0458      1818.4613      234.88144      304.82865      0.21529344   
    937000   482.22364      1360.3333      1842.5569      300.94378      304.44538      0.21637545   
    938000   474.9002       1352.1447      1827.0449      280.3311       302.61275      0.21328099   
    939000   470.00884      1354.572       1824.5809      309.73874      303.156        0.20514316   
    940000   507.76243      1342.3495      1850.1119      267.52758      300.42057      0.19858636   
    941000   469.82281      1308.5012      1778.324       223.80537      292.84525      0.20175021   
    942000   465.35975      1323.6444      1789.0041      187.74821      296.23433      0.21354127   
    943000   483.67667      1310.9193      1794.596       180.10485      293.38644      0.22041347   
    944000   472.06294      1311.3793      1783.4422      107.95592      293.48937      0.22435365   
    945000   421.76904      1295.0763      1716.8454      109.45835      289.84075      0.22485831   
    946000   449.95676      1356.6608      1806.6175      102.95952      303.62346      0.22227228   
    947000   474.06892      1344.4921      1818.561       72.156343      300.90009      0.21351135   
    948000   468.67499      1335.0722      1803.7472      174.12203      298.7919       0.20940413   
    949000   470.67204      1330.5347      1801.2067      260.49895      297.77639      0.20988791   
    950000   477.49717      1306.5501      1784.0473      295.17067      292.40859      0.2114743    
    951000   465.13313      1317.2156      1782.3488      227.28398      294.79556      0.21207999   
    952000   464.60469      1326.6635      1791.2682      134.03146      296.91001      0.21352797   
    953000   460.07163      1337.2119      1797.2835      126.32199      299.27076      0.21958393   
    954000   449.95285      1295.3798      1745.3326      166.29079      289.90865      0.22467649   
    955000   456.73106      1296.5441      1753.2751      170.80038      290.16922      0.22529217   
    956000   452.8247       1342.3952      1795.2199      248.0886       300.43079      0.22251422   
    957000   466.40806      1329.858       1796.266       241.20526      297.62494      0.2149794    
    958000   501.77746      1306.5147      1808.2922      207.79271      292.40068      0.20741225   
    959000   477.76409      1349.8337      1827.5978      187.81961      302.09555      0.2039158    
    960000   481.97864      1369.4714      1851.45        112.32664      306.4905       0.20525119   
    961000   490.60085      1324.2519      1814.8528      73.520262      296.3703       0.21086826   
    962000   469.52576      1354.3548      1823.8805      44.965899      303.10738      0.21667894   
    963000   489.02363      1335.4492      1824.4729      122.89552      298.87628      0.21986377   
    964000   510.40045      1319.0905      1829.4909      169.6059       295.21516      0.21859416   
    965000   485.5316       1321.4983      1807.0299      263.96121      295.75404      0.21554787   
    966000   455.43645      1336.1829      1791.6193      241.42854      299.04047      0.21301717   
    967000   440.86891      1312.5042      1753.3731      218.36634      293.74113      0.21022953   
    968000   464.19462      1340.6437      1804.8383      124.93802      300.03881      0.20906876   
    969000   497.50915      1327.2352      1824.7443      98.846162      297.03795      0.20726414   
    970000   472.30347      1348.963       1821.2665      120.18138      301.90068      0.20981989   
    971000   459.46595      1358.955       1818.421       159.1283       304.13693      0.21892611   
    972000   473.43373      1355.39        1828.8237      263.01101      303.33906      0.22632612   
    973000   465.86606      1337.8169      1803.6829      314.38315      299.40616      0.22383461   
    974000   443.13591      1349.717       1792.8529      311.86223      302.06944      0.21719281   
    975000   473.95746      1304.97        1778.9274      279.71719      292.05496      0.21259582   
    976000   470.68173      1331.2697      1801.9515      232.66411      297.9409       0.21036037   
    977000   475.20597      1306.3538      1781.5598      262.70574      292.36466      0.20991398   
    978000   444.5023       1350.1353      1794.6376      174.909        302.16305      0.21113794   
    979000   478.27571      1333.6998      1811.9755      74.619297      298.48474      0.21645177   
    980000   462.3874       1334.0346      1796.422       117.00493      298.55968      0.22376617   
    981000   486.92283      1301.3874      1788.3102      177.25896      291.25317      0.22494333   
    982000   444.64281      1355.3078      1799.9506      229.3234       303.32067      0.22283435   
    983000   443.36406      1346.5942      1789.9582      331.54931      301.37054      0.21927239   
    984000   479.13813      1381.429       1860.5672      284.94282      309.16666      0.21545623   
    985000   481.90844      1368.0197      1849.9281      224.22341      306.16561      0.21386089   
    986000   485.09727      1361.0668      1846.164       134.72086      304.60954      0.21476191   
    987000   499.83756      1358.9866      1858.8242      83.665049      304.14399      0.21175214   
    988000   541.14013      1401.6738      1942.814       124.91098      313.69748      0.20778094   
    989000   472.72277      1384.8813      1857.6041      174.07883      309.93928      0.20701672   
    990000   454.93682      1375.5608      1830.4977      237.41683      307.85334      0.21506887   
    991000   455.25866      1349.2242      1804.4829      253.919        301.95914      0.22594809   
    992000   466.56356      1333.3301      1799.8937      288.19213      298.40202      0.23087368   
    993000   459.01825      1307.8644      1766.8827      229.56384      292.70274      0.22716681   
    994000   466.48791      1329.3255      1795.8134      185.77904      297.50577      0.22248828   
    995000   489.38357      1314.258       1803.6416      178.63206      294.13364      0.21952676   
    996000   455.87863      1333.4054      1789.284       113.27564      298.41887      0.21682701   
    997000   471.96279      1319.1439      1791.1066      78.671873      295.2271       0.21637431   
    998000   476.44318      1307.3618      1783.805       186.63972      292.59026      0.2219428    
    999000   435.90939      1290.0876      1725.997       329.37855      288.72426      0.2336614    
   1000000   439.95606      1313.2754      1753.2315      514.68337      293.91374      0.24039635   
   1001000   446.90796      1310.315       1757.2229      471.23859      293.25118      0.23385256   
   1002000   443.03359      1349.3647      1792.3983      433.66216      301.99058      0.22738581   
   1003000   459.36206      1344.6489      1804.011       296.86478      300.93519      0.22419842   
   1004000   471.25207      1316.9217      1788.1738      155.80274      294.72978      0.22160348   
   1005000   453.54654      1333.0348      1786.5813      61.684722      298.33592      0.22085975   
   1006000   483.8396       1388.2023      1872.0419      66.7057        310.68253      0.21859277   
   1007000   492.33664      1354.6242      1846.9608      169.32587      303.16767      0.21225377   
   1008000   468.47078      1364.4086      1832.8794      258.65918      305.35744      0.20605673   
   1009000   491.15415      1363.5017      1854.6559      272.04665      305.15449      0.20557266   
   1010000   485.66528      1352.9587      1838.624       292.33639      302.79493      0.21209657   
   1011000   463.65233      1351.0073      1814.6596      194.56867      302.3582       0.22315559   
   1012000   486.58426      1351.6014      1838.1857      133.43975      302.49118      0.22915896   
   1013000   457.62685      1348.908       1806.5349      109.23494      301.88839      0.22637552   
   1014000   464.06131      1325.3045      1789.3658      125.551        296.60587      0.22124699   
   1015000   443.03115      1287.7648      1730.796       175.67229      288.20441      0.2203158    
   1016000   452.59504      1299.799       1752.3941      269.5297       290.89769      0.22112014   
   1017000   462.16662      1328.9918      1791.1584      298.08901      297.4311       0.22007028   
   1018000   447.22184      1351.7705      1798.9924      373.64262      302.52901      0.21894656   
   1019000   452.38307      1351.615       1803.9981      294.54574      302.49421      0.22009049   
   1020000   455.44261      1310.8685      1766.3111      232.22419      293.37506      0.22646066   
   1021000   437.39389      1345.8144      1783.2083      142.2704       301.19602      0.23215343   
   1022000   467.38413      1323.4927      1790.8768      148.4592       296.20038      0.23358226   
   1023000   446.71925      1385.0863      1831.8055      108.04072      309.98515      0.22814248   
   1024000   495.62909      1371.8342      1867.4633      143.41785      307.01932      0.21958003   
   1025000   498.61706      1369.4445      1868.0616      158.97703      306.48449      0.21219409   
   1026000   490.65735      1371.0585      1861.7158      128.97225      306.8457       0.21074558   
   1027000   464.28522      1313.4187      1777.7039      99.202503      293.9458       0.21227735   
   1028000   469.13319      1325.4708      1794.604       145.61921      296.64308      0.21939768   
   1029000   451.17147      1329.7872      1780.9586      197.05178      297.6091       0.22571179   
   1030000   474.23981      1299.3029      1773.5427      206.2326       290.78666      0.22957361   
   1031000   471.53388      1332.1232      1803.6571      228.17506      298.1319       0.23253368   
   1032000   457.98931      1314.0332      1772.0225      141.04559      294.08333      0.229118     
   1033000   465.2965       1288.4976      1753.7941      79.568914      288.36841      0.22444418   
   1034000   449.60059      1303.4032      1753.0038      91.681831      291.70432      0.22137271   
   1035000   425.67919      1337.9501      1763.6293      113.28095      299.43599      0.22225835   
   1036000   457.12786      1328.0039      1785.1318      216.8009       297.21         0.22761135   
   1037000   466.01432      1316.1287      1782.143       194.08677      294.5523       0.23567793   
   1038000   443.51564      1338.6514      1782.1671      225.17096      299.59294      0.2410637    
   1039000   444.34476      1343.0346      1787.3794      149.8685       300.57391      0.23531296   
   1040000   477.70957      1346.7221      1824.4317      195.78758      301.39917      0.22458396   
   1041000   486.39181      1342.589       1828.9808      114.01183      300.47416      0.21739261   
   1042000   476.4129       1341.09        1817.5029      89.823692      300.1387       0.21936836   
   1043000   452.65004      1362.5569      1815.207       112.98011      304.94304      0.22745308   
   1044000   481.64936      1383.1666      1864.816       80.745353      309.55553      0.2330032    
   1045000   459.31546      1376.6131      1835.9286      26.334818      308.08884      0.23297621   
   1046000   510.74061      1344.187       1854.9276      40.161065      300.83181      0.23008933   
   1047000   485.59296      1334.8116      1820.4046      60.61388       298.73357      0.22380611   
   1048000   461.33452      1338.1634      1799.4979      105.49756      299.48371      0.21762857   
   1049000   471.76972      1343.4153      1815.185       120.89105      300.6591       0.21369493   
   1050000   481.63914      1330.7066      1812.3457      177.47871      297.81487      0.21351203   
   1051000   461.15068      1352.065       1813.2157      218.24032      302.59492      0.21703281   
   1052000   444.27267      1366.0862      1810.3589      209.81248      305.73291      0.22050065   
   1053000   485.71127      1315.8909      1801.6022      209.85888      294.49909      0.22350816   
   1054000   445.0645       1288.4448      1733.5093      202.92509      288.35659      0.22427387   
   1055000   463.94385      1287.2852      1751.229       246.11194      288.09706      0.22600177   
   1056000   434.07503      1323.6306      1757.7056      271.9113       296.23125      0.22305619   
   1057000   492.71137      1299.9236      1792.6349      276.62477      290.92556      0.21293211   
   1058000   472.80355      1332.3054      1805.1089      199.24484      298.17268      0.20303464   
   1059000   480.82632      1322.5032      1803.3295      201.7757       295.97893      0.20633549   
   1060000   481.41639      1338.3844      1819.8008      81.056266      299.53317      0.21059006   
   1061000   496.96274      1337.331       1834.2938      80.300922      299.29743      0.2143359    
   1062000   452.17417      1382.198       1834.3722      143.54485      309.33875      0.21751028   
   1063000   466.08705      1390.4298      1856.5169      229.35716      311.18105      0.22119716   
   1064000   453.95888      1350.6353      1804.5941      246.68543      302.27495      0.22337245   
   1065000   484.57666      1328.8531      1813.4297      222.60679      297.40005      0.22604053   
   1066000   449.04444      1391.3177      1840.3621      176.17106      311.37975      0.22910742   
   1067000   468.54111      1347.3931      1815.9342      141.16039      301.54934      0.22884648   
   1068000   486.79863      1347.9112      1834.7099      117.07784      301.6653       0.22092916   
   1069000   494.64085      1371.2997      1865.9405      99.230226      306.89968      0.21061293   
   1070000   476.12205      1388.7858      1864.9078      197.07594      310.8131       0.20695564   
   1071000   487.24485      1318.6714      1805.9162      165.84356      295.12136      0.20531149   
   1072000   470.58505      1339.4837      1810.0687      186.41958      299.77919      0.20731437   
   1073000   463.56003      1323.3305      1786.8905      218.8099       296.16408      0.21449297   
   1074000   451.33961      1313.6992      1765.0388      272.06124      294.00858      0.22188532   
   1075000   468.52192      1278.0215      1746.5435      310.71253      286.02385      0.22389338   
   1076000   475.88267      1289.1376      1765.0202      300.4322       288.51163      0.22258065   
   1077000   450.48059      1326.996       1777.4765      251.28485      296.98442      0.21921848   
   1078000   468.35177      1334.3403      1802.692       138.9584       298.62809      0.21754053   
   1079000   464.15408      1348.4957      1812.6498      120.42553      301.79611      0.21769182   
   1080000   487.56047      1332.0817      1819.6422      159.65325      298.12262      0.21743136   
   1081000   481.30591      1350.6241      1831.93        149.20452      302.27244      0.2161171    
   1082000   487.9812       1369.5292      1857.5104      180.78897      306.50344      0.2139862    
   1083000   480.67276      1393.3906      1874.0634      189.71441      311.84368      0.21056506   
   1084000   481.07566      1356.234       1837.3097      188.06983      303.52796      0.20666762   
   1085000   501.67063      1345.027       1846.6976      155.88795      301.0198       0.20333394   
   1086000   492.71197      1342.6589      1835.3709      177.39164      300.48983      0.20695613   
   1087000   486.90341      1323.4906      1810.394       229.06953      296.19992      0.21768715   
   1088000   470.53548      1291.4641      1761.9996      298.7779       289.03232      0.22415099   
   1089000   466.71576      1326.1361      1792.8519      262.92925      296.79199      0.22558037   
   1090000   450.41567      1344.4642      1794.8799      133.17076      300.89385      0.22463097   
   1091000   441.38991      1325.9507      1767.3406      50.739384      296.75049      0.2237037    
   1092000   452.29789      1289.9781      1742.276       65.687091      288.69975      0.22132513   
   1093000   472.91933      1317.2065      1790.1258      73.575213      294.79351      0.21556258   
   1094000   492.25627      1332.4445      1824.7008      202.08555      298.20381      0.20821558   
   1095000   480.69644      1341.1417      1821.8381      364.41611      300.15026      0.20721409   
   1096000   492.2299       1337.308       1829.5379      383.88097      299.29227      0.21238084   
   1097000   495.5344       1360.7007      1856.2351      295.00537      304.52762      0.22429475   
   1098000   465.45171      1359.1599      1824.6116      214.22442      304.18278      0.23143691   
   1099000   461.61083      1347.0237      1808.6345      128.00868      301.46667      0.23287905   
   1100000   469.30775      1337.6408      1806.9485      93.951557      299.36675      0.22908901   
   1101000   449.71744      1339.2877      1789.0051      105.4483       299.73534      0.22060124   
   1102000   478.96977      1343.1143      1822.0841      163.61862      300.59174      0.21600416   
   1103000   474.70681      1318.0022      1792.709       228.1007       294.9716       0.21424437   
   1104000   487.33071      1327.3323      1814.663       355.57674      297.0597       0.2183461    
   1105000   444.99889      1328.9516      1773.9505      329.40518      297.42209      0.22249795   
   1106000   447.81608      1329.1242      1776.9403      203.78228      297.46073      0.22533073   
   1107000   471.18915      1277.3627      1748.5519      91.544941      285.8764       0.22678508   
   1108000   463.56548      1322.7853      1786.3508      42.217127      296.04207      0.22624252   
   1109000   463.39901      1347.6436      1811.0426      65.310244      301.60541      0.22413874   
   1110000   479.98797      1340.4264      1820.4143      189.92232      299.99017      0.22327365   
   1111000   471.12062      1342.9821      1814.1027      272.46399      300.56215      0.22115698   
   1112000   463.55162      1344.18        1807.7316      215.74098      300.83024      0.21848974   
   1113000   482.93821      1343.5652      1826.5035      88.876804      300.69266      0.21902204   
   1114000   469.08759      1364.8096      1833.8972      63.884445      305.4472       0.22501137   
   1115000   460.80024      1420.5736      1881.3739      25.830881      317.92729      0.23122754   
   1116000   481.01002      1361.619       1842.629       83.168313      304.73312      0.23621568   
   1117000   457.76306      1348.1998      1805.9629      144.64801      301.72989      0.24230876   
   1118000   410.3377       1331.2908      1741.6285      333.39471      297.94561      0.24311224   
   1119000   429.31474      1274.1768      1703.4915      247.32251      285.16338      0.23272346   
   1120000   468.02567      1311.72        1779.7457      245.2129       293.56562      0.22402495   
   1121000   468.33015      1318.5821      1786.9122      196.72699      295.10137      0.21997154   
   1122000   458.22064      1329.0579      1787.2786      99.465102      297.44589      0.21710421   
   1123000   467.26461      1315.0643      1782.3289      7.143827       294.3141       0.21386408   
   1124000   465.46854      1312.4201      1777.8886      53.534334      293.72231      0.21157754   
   1125000   458.81718      1348.4325      1807.2497      171.80009      301.78197      0.21193688   
   1126000   481.87045      1303.587       1785.4574      206.40579      291.74544      0.21274675   
   1127000   463.92478      1322.6858      1786.6106      258.68257      296.0198       0.22112469   
   1128000   453.00044      1304.8011      1757.8016      322.62024      292.01717      0.23075722   
   1129000   420.83236      1372.3157      1793.148       366.104        307.12707      0.23124273   
   1130000   472.92319      1347.5117      1820.4349      240.08329      301.57588      0.22540996   
   1131000   484.30973      1335.9838      1820.2935      226.94102      298.99592      0.22131552   
   1132000   470.08433      1347.3251      1817.4094      175.38282      301.53411      0.21998327   
   1133000   448.39481      1413.543       1861.9378      135.98968      316.35382      0.22410786   
   1134000   480.63927      1372.1069      1852.7462      155.34074      307.08034      0.23001458   
   1135000   443.74626      1369.7276      1813.4739      172.71754      306.54785      0.23122375   
   1136000   476.73294      1346.8132      1823.5461      127.39943      301.41955      0.22331372   
   1137000   496.22031      1331.5144      1827.7347      119.99251      297.99565      0.21325551   
   1138000   489.99226      1327.941       1817.9332      86.988201      297.19592      0.20873111   
   1139000   455.80745      1286.2685      1742.0759      138.49616      287.86952      0.21095904   
   1140000   474.30716      1313.7682      1788.0753      240.54515      294.02401      0.21779276   
   1141000   468.49545      1324.7747      1793.2702      418.00569      296.4873       0.22210466   
   1142000   460.37649      1331.6731      1792.0496      418.96489      298.03118      0.2211319    
   1143000   442.16086      1287.202       1729.3629      373.45001      288.07846      0.22043552   
   1144000   456.1808       1312.5082      1768.689       307.40183      293.74203      0.22212837   
   1145000   448.94617      1334.77        1783.7162      273.82843      298.72427      0.22349576   
   1146000   444.71892      1352.6915      1797.4105      239.10199      302.73514      0.22205277   
   1147000   437.11206      1367.2499      1804.362       234.12308      305.99334      0.22188237   
   1148000   461.58472      1320.4528      1782.0375      267.9585       295.52005      0.22081978   
   1149000   468.60342      1338.3551      1806.9585      214.0456       299.52663      0.22021342   
   1150000   456.32393      1335.4468      1791.7708      190.77985      298.87574      0.22303583   
   1151000   437.32188      1286.5936      1723.9154      97.09087       287.94228      0.22370074   
   1152000   451.25285      1299.0757      1750.3285      108.12806      290.7358       0.22271497   
   1153000   477.30319      1322.7968      1800.1         88.204229      296.04465      0.21919326   
   1154000   471.68986      1348.6403      1820.3302      117.11372      301.82847      0.21589609   
   1155000   466.72261      1323.2388      1789.9614      193.72201      296.14355      0.2127215    
   1156000   504.90469      1341.5254      1846.4301      280.55977      300.23615      0.2142034    
   1157000   493.84099      1352.3405      1846.1814      230.9746       302.65657      0.21733851   
   1158000   471.15305      1368.8783      1840.0314      226.63401      306.35778      0.22339567   
   1159000   470.25961      1349.2583      1819.5179      191.47442      301.96678      0.22955988   
   1160000   475.26963      1347.4569      1822.7266      107.36281      301.56362      0.23307878   
   1161000   488.916        1369.4783      1858.3943      100.92953      306.49206      0.23456519   
   1162000   432.22114      1380.4995      1812.7206      188.40047      308.95862      0.23460195   
   1163000   486.45685      1366.5933      1853.0502      268.58955      305.84639      0.22492597   
   1164000   500.19492      1339.1986      1839.3936      280.42653      299.7154       0.21404644   
   1165000   464.79957      1391.63        1856.4296      316.65032      311.44965      0.21215234   
   1166000   474.86306      1398.6656      1873.5287      252.9687       313.02424      0.21412169   
   1167000   492.96         1372.214       1865.174       159.80399      307.10431      0.216294     
   1168000   476.76004      1374.3125      1851.0725      130.84044      307.57395      0.21714634   
   1169000   452.2149       1373.9827      1826.1976      197.42031      307.50015      0.21987732   
   1170000   476.72349      1355.0156      1831.7391      218.15457      303.25527      0.22390418   
   1171000   461.58861      1348.1542      1809.7428      233.93631      301.71968      0.22607157   
   1172000   470.25982      1357.3693      1827.6291      232.06959      303.78204      0.22919677   
   1173000   482.50181      1384.4911      1866.9929      294.1663       309.85196      0.22928359   
   1174000   475.66392      1357.9753      1833.6392      215.13523      303.91766      0.22035685   
   1175000   490.77234      1349.2332      1840.0055      131.21807      301.96115      0.21243296   
   1176000   488.33643      1371.3375      1859.6739      141.7394       306.90815      0.21134284   
   1177000   499.69496      1335.3868      1835.0818      143.266        298.86232      0.2115744    
   1178000   509.47417      1308.8924      1818.3665      116.79256      292.9328       0.20970484   
   1179000   466.52027      1356.0432      1822.5634      132.01526      303.48524      0.20562093   
   1180000   453.90901      1385.5458      1839.4548      243.90218      310.088        0.20518036   
   1181000   493.43261      1353.5013      1846.9339      270.84915      302.91637      0.21084516   
   1182000   507.17386      1372.3292      1879.503       358.25087      307.13008      0.22405072   
   1183000   464.94015      1343.791       1808.7312      346.32546      300.74319      0.22812635   
   1184000   447.17203      1364.0211      1811.1931      189.2527       305.27072      0.22567379   
   1185000   481.56541      1349.134       1830.6994      65.359672      301.93896      0.22354762   
   1186000   488.54051      1321           1809.5405     -15.884273      295.64251      0.21882489   
   1187000   460.15336      1302.6047      1762.7581      12.730087      291.52561      0.21596432   
   1188000   443.59379      1317.0985      1760.6923      49.024886      294.76935      0.21630636   
   1189000   455.75333      1319.286       1775.0393      209.14236      295.25891      0.22656799   
   1190000   456.57548      1304.9019      1761.4774      294.77928      292.03972      0.23521311   
   1191000   442.29512      1318.6386      1760.9337      331.86673      295.11402      0.23257804   
   1192000   500.9912       1336.3645      1837.3557      225.79044      299.08112      0.22556513   
   1193000   465.28637      1352.2362      1817.5226      213.84933      302.63325      0.21955238   
   1194000   479.92137      1345.4882      1825.4096      174.92806      301.12302      0.21481568   
   1195000   492.75671      1318.6646      1811.4213      123.25626      295.11984      0.21508915   
   1196000   469.68772      1313.1961      1782.8838      89.358161      293.89598      0.22055776   
   1197000   464.15648      1334.917       1799.0735      136.71778      298.75718      0.22639096   
   1198000   458.40542      1388.2197      1846.6251      169.55264      310.68642      0.22935852   
   1199000   427.23521      1359.4172      1786.6524      229.03385      304.24037      0.22814065   
   1200000   466.4803       1354.3558      1820.8361      244.25527      303.1076       0.22576568   
   1201000   468.76015      1367.3718      1836.1319      176.50735      306.02061      0.21696588   
   1202000   482.28913      1340.071       1822.3601      128.07928      299.91064      0.20667992   
   1203000   520.43949      1323.1726      1843.6121      90.929161      296.12875      0.20497623   
   1204000   434.97016      1367.2962      1802.2664      156.88937      306.00371      0.2106946    
   1205000   479.59433      1307.4148      1787.0091      142.48724      292.60212      0.21767712   
   1206000   458.64338      1284.2913      1742.9347      242.13296      287.42703      0.22303813   
   1207000   460.70032      1299.868       1760.5683      239.39869      290.91312      0.22326363   
   1208000   468.5383       1326.0493      1794.5876      193.0384       296.77256      0.22170364   
   1209000   479.47624      1310.1602      1789.6365      160.17358      293.21655      0.22522827   
   1210000   463.72435      1302.143       1765.8673      110.47867      291.42227      0.22959632   
   1211000   464.06423      1324.7238      1788.7881      108.95514      296.47591      0.23396195   
   1212000   462.1502       1292.6393      1754.7895      86.820032      289.29534      0.23451423   
   1213000   464.22356      1307.2165      1771.4401      110.39756      292.55775      0.22834389   
   1214000   493.9478       1352.2048      1846.1526      156.12161      302.62621      0.22059868   
   1215000   467.45919      1375.3457      1842.8049      256.26132      307.80519      0.21730539   
   1216000   467.82796      1347.7189      1815.5468      249.37359      301.62225      0.21418574   
   1217000   477.85981      1314.6637      1792.5235      256.76096      294.22443      0.21309225   
   1218000   471.43808      1334.5704      1806.0085      198.4453       298.6796       0.2103965    
   1219000   492.28679      1342.8416      1835.1284      128.98845      300.53071      0.20931151   
   1220000   506.62772      1382.0917      1888.7194      68.673499      309.31496      0.21329874   
   1221000   455.42268      1366.7504      1822.1731      76.906713      305.88154      0.22005053   
   1222000   449.30682      1396.9751      1846.2819      98.980497      312.64589      0.22528176   
   1223000   445.03546      1389.9514      1834.9868      89.629314      311.07397      0.23007654   
   1224000   474.83616      1356.0451      1830.8812      139.53397      303.48567      0.23504845   
   1225000   449.39186      1354.5104      1803.9022      179.13655      303.1422       0.2324249    
   1226000   452.66346      1343.5028      1796.1663      274.28091      300.67868      0.21831569   
   1227000   467.04961      1327.3084      1794.358       287.38429      297.05435      0.21080014   
   1228000   502.85168      1327.2292      1830.0809      270.47917      297.03662      0.2080371    
   1229000   485.57547      1302.8536      1788.4291      256.74908      291.58132      0.20563333   
   1230000   450.87767      1335.3773      1786.2549      178.91771      298.86017      0.20761771   
   1231000   470.98394      1333.5649      1804.5489      102.09003      298.45456      0.2134044    
   1232000   484.79309      1301.2528      1786.0458      67.913675      291.22304      0.22049643   
   1233000   446.92127      1304.9167      1751.838       79.981877      292.04304      0.2201073    
   1234000   462.95678      1286.6878      1749.6446      100.21464      287.96337      0.21664271   
   1235000   490.73573      1322.1105      1812.8462      193.77419      295.89103      0.21322669   
   1236000   474.34538      1351.0427      1825.3881      314.23461      302.36613      0.21217258   
   1237000   500.69625      1359.3745      1860.0708      352.06831      304.23081      0.21350847   
   1238000   483.49801      1368.2679      1851.7659      247.6833       306.22116      0.21394191   
   1239000   479.05201      1358.775       1837.827       237.86021      304.09663      0.21797596   
   1240000   469.31883      1320.1451      1789.464       168.33879      295.45119      0.22119056   
   1241000   443.09927      1361.4161      1804.5154      120.63857      304.68773      0.22142454   
   1242000   478.21615      1332.5722      1810.7884      135.00832      298.2324       0.21992064   
   1243000   497.37187      1365.8541      1863.226       105.78951      305.68096      0.21446891   
   1244000   508.43495      1350.0054      1858.4404      157.32899      302.13399      0.21037102   
   1245000   462.13229      1345.6617      1807.794       246.21935      301.16185      0.21058966   
   1246000   461.26063      1305.7246      1766.9853      220.00882      292.22385      0.21542735   
   1247000   438.04469      1344.7014      1782.7461      243.85147      300.94693      0.22842936   
   1248000   441.64258      1328.5628      1770.2053      283.20623      297.33507      0.23261026   
   1249000   473.99091      1318.9641      1792.955       226.04165      295.18687      0.23003185   
   1250000   445.25712      1299.8188      1745.0759      188.81322      290.90211      0.22668716   
   1251000   478.26402      1317.6088      1795.8728      97.331112      294.88355      0.22308307   
   1252000   459.79463      1333.3745      1793.1691      34.810017      298.41194      0.21973019   
   1253000   466.75988      1347.8565      1814.6163      43.626744      301.65304      0.2165588    
   1254000   473.1908       1342.3213      1815.5121      49.225943      300.41426      0.2173748    
   1255000   455.90407      1319.1867      1775.0908      147.49928      295.23669      0.22517318   
   1256000   468.074        1345.5928      1813.6668      223.08727      301.14644      0.23536251   
   1257000   440.64248      1331.6133      1772.2558      322.9148       298.01779      0.23821867   
   1258000   482.28887      1304.4192      1786.7081      240.42881      291.9317       0.23112641   
   1259000   459.71755      1340.1212      1799.8387      223.0041       299.92186      0.22608582   
   1260000   452.64195      1331.0003      1783.6423      174.99281      297.88061      0.22483456   
   1261000   479.8375       1329.2077      1809.0452      133.61588      297.47941      0.2233947    
   1262000   483.30828      1388.4545      1871.7627      111.33473      310.73896      0.21898098   
   1263000   484.62554      1344.5499      1829.1754      207.37601      300.91303      0.21299573   
   1264000   481.74516      1343.3804      1825.1255      276.61786      300.65128      0.20999552   
   1265000   510.47498      1312.7065      1823.1815      329.32678      293.78642      0.21125175   
   1266000   434.72502      1344.594       1779.3191      413.50894      300.9229       0.21814194   
   1267000   469.89907      1320.6186      1790.5177      323.04504      295.55715      0.22187332   
   1268000   483.19951      1317.1951      1800.3946      193.75784      294.79097      0.22272323   
   1269000   481.81549      1363.3128      1845.1283      125.21812      305.11221      0.22105895   
   1270000   488.09895      1344.6119      1832.7109      43.269086      300.92691      0.21659337   
   1271000   486.0134       1391.7833      1877.7967      28.033484      311.48396      0.21517125   
   1272000   460.98379      1362.9217      1823.9055      107.23776      305.02467      0.21352624   
   1273000   476.09134      1319.232       1795.3233      232.22421      295.24683      0.21289974   
   1274000   448.98283      1291.8736      1740.8565      262.80583      289.12397      0.21240297   
   1275000   479.5976       1307.3995      1786.9971      260.35254      292.59868      0.21686174   
   1276000   419.4642       1316.2637      1735.7279      247.84737      294.58251      0.22891745   
   1277000   466.30963      1298.7774      1765.0871      162.36767      290.66906      0.23487894   
   1278000   467.05438      1298.9639      1766.0182      45.610522      290.71078      0.23150368   
   1279000   440.62766      1312.8136      1753.4413      6.3867485      293.81038      0.22752568   
   1280000   464.132        1292.7659      1756.8979      59.738329      289.32366      0.22420917   
   1281000   451.4332       1379.3672      1830.8004      166.02672      308.70521      0.22059562   
   1282000   467.89786      1363.8265      1831.7244      113.15985      305.22718      0.21604863   
   1283000   503.34058      1338.8779      1842.2185      216.87882      299.64362      0.2164812    
   1284000   482.51637      1349.8676      1832.3839      212.76042      302.10313      0.22098518   
   1285000   474.18174      1393.602       1867.7837      251.81276      311.89098      0.23358766   
   1286000   433.75124      1383.8313      1817.5825      199.17092      309.70428      0.23648808   
   1287000   476.43791      1352.6863      1829.1242      163.53223      302.73396      0.2288258    
   1288000   465.68183      1382.6642      1848.346       188.21728      309.44309      0.22180047   
   1289000   502.57094      1337.6326      1840.2035      156.10234      299.36492      0.21656027   
   1290000   511.63304      1330.5316      1842.1647      101.45498      297.77571      0.21401494   
   1291000   481.82815      1337.3289      1819.157       19.422282      299.29695      0.21403935   
   1292000   461.85414      1369.765       1831.6191      70.531516      306.55621      0.21914659   
   1293000   489.22204      1342.4056      1831.6276      159.88014      300.43313      0.22553852   
   1294000   503.81519      1344.2085      1848.0237      245.00367      300.83662      0.22636334   
   1295000   463.64413      1367.6739      1831.318       332.43591      306.08822      0.22523883   
   1296000   486.83121      1349.6099      1836.4411      366.98929      302.04547      0.22298418   
   1297000   468.44283      1355.2866      1823.7294      337.33575      303.31591      0.21754278   
   1298000   505.12351      1340.2085      1845.332       198.72593      299.94141      0.21020289   
   1299000   452.39307      1334.1198      1786.5129      174.28396      298.57875      0.20652075   
   1300000   481.28087      1309.8191      1791.1         143.1962       293.1402       0.20759183   
   1301000   459.8093       1339.0447      1798.854       181.03727      299.68095      0.21047169   
   1302000   475.19864      1311.5655      1786.7641      197.1172       293.53104      0.21781295   
   1303000   431.86478      1342.8972      1774.762       287.84984      300.54315      0.22207522   
   1304000   446.02598      1328.4022      1774.4282      230.46271      297.29914      0.22240875   
   1305000   464.54924      1325.7448      1790.294       147.50054      296.7044       0.22173      
   1306000   476.99361      1288.2506      1765.2442      101.49066      288.31314      0.21797776   
   1307000   484.7061       1331.2732      1815.9793      104.54952      297.94166      0.21019918   
   1308000   471.52755      1356.5689      1828.0965      174.97637      303.60291      0.20724669   
   1309000   488.64303      1365.0685      1853.7115      167.88882      305.50512      0.20641737   
   1310000   463.56532      1356.9099      1820.4752      166.72674      303.67922      0.20929568   
   1311000   471.56745      1320.2026      1791.77        253.85852      295.46405      0.21527135   
   1312000   495.63718      1326.9774      1822.6145      233.2212       296.98026      0.21755973   
   1313000   475.85803      1363.4896      1839.3477      190.38689      305.15178      0.21789245   
   1314000   453.24391      1359.3142      1812.5581      153.78941      304.2173       0.21851275   
   1315000   476.89326      1351.9083      1828.8016      55.815404      302.55985      0.21934914   
   1316000   480.39486      1351.6869      1832.0818      56.471906      302.51031      0.2211043    
   1317000   491.14651      1359.9669      1851.1134      168.63903      304.36338      0.22253691   
   1318000   486.42031      1345.3017      1831.722       230.55574      301.08128      0.2208253    
   1319000   483.80827      1366.4186      1850.2269      331.02728      305.80729      0.21567649   
   1320000   468.26633      1362.0827      1830.349       325.56418      304.8369       0.20811288   
   1321000   529.11766      1354.5203      1883.638       283.65125      303.14442      0.20449395   
   1322000   489.47117      1352.656       1842.1272      241.53768      302.7272       0.20174978   
   1323000   482.35186      1385.7057      1868.0576      242.53832      310.12379      0.2042641    
   1324000   488.38843      1343.3017      1831.6901      231.87396      300.63368      0.21499065   
   1325000   484.60463      1341.026       1825.6306      130.3829       300.12437      0.22116033   
   1326000   484.64102      1371.7446      1856.3856      75.436812      306.99926      0.22180906   
   1327000   467.91791      1417.485       1885.4029      108.81004      317.23605      0.21995251   
   1328000   503.47339      1354.1098      1857.5831      89.999709      303.05254      0.21748973   
   1329000   488.67467      1336.5487      1825.2233      203.06806      299.12233      0.21742989   
   1330000   470.56714      1344.4212      1814.9883      254.71562      300.88423      0.21819899   
   1331000   484.40861      1362.5206      1846.9292      221.56816      304.9349       0.22394945   
   1332000   486.89849      1426.3174      1913.2159      242.75422      319.21277      0.23669971   
   1333000   466.10433      1379.3312      1845.4355      193.22696      308.69716      0.23623859   
   1334000   455.14965      1364.862       1820.0116      187.9235       305.45891      0.23098815   
   1335000   473.36065      1351.0913      1824.452       203.63912      302.37702      0.22721967   
   1336000   489.53691      1369.0159      1858.5528      234.95613      306.38857      0.22438186   
   1337000   473.76459      1343.8168      1817.5814      304.99075      300.74896      0.22073652   
   1338000   491.84195      1305.1407      1796.9827      310.60974      292.09317      0.21604183   
   1339000   450.86304      1344.0178      1794.8809      303.34903      300.79395      0.21590785   
   1340000   470.27204      1340.0506      1810.3227      266.67588      299.90608      0.2187899    
   1341000   480.77718      1286.9423      1767.7194      177.53236      288.02032      0.228307     
   1342000   456.30587      1322.7891      1779.095       144.90961      296.04293      0.23479535   
   1343000   447.36211      1313.209       1760.5711      142.66904      293.89886      0.23122693   
   1344000   463.85016      1338.4042      1802.2543      135.75926      299.5376       0.22440535   
   1345000   467.01339      1330.3744      1797.3878      149.19241      297.74053      0.22096257   
   1346000   470.8747       1307.8085      1778.6832      181.31713      292.69022      0.2200892    
   1347000   460.05462      1292.2388      1752.2934      235.88701      289.2057       0.21898972   
   1348000   474.40366      1316.5847      1790.9884      291.57758      294.65436      0.21808062   
   1349000   488.47733      1340.0471      1828.5244      208.78131      299.90529      0.21598649   
   1350000   453.08818      1370.6444      1823.7325      162.4589       306.75302      0.21198537   
   1351000   454.15807      1360.6908      1814.8488      136.82506      304.52539      0.21132123   
   1352000   477.21386      1352.9768      1830.1906      119.75467      302.79898      0.2192247    
   1353000   512.94895      1368.7706      1881.7195      162.94509      306.33366      0.22933263   
   1354000   444.48167      1361.0006      1805.4823      204.66421      304.59473      0.23399652   
   1355000   448.14025      1365.2828      1813.423       221.26338      305.55309      0.23461646   
   1356000   420.99326      1355.2153      1776.2086      227.21131      303.29998      0.23033303   
   1357000   498.15751      1306.2231      1804.3806      272.3372       292.33541      0.22814117   
   1358000   441.83784      1312.2479      1754.0858      261.91874      293.68378      0.22535263   
   1359000   462.33467      1360.1074      1822.4421      280.34434      304.39483      0.21984025   
   1360000   514.7765       1359.6465      1874.423       326.34602      304.29167      0.21225079   
   1361000   519.98983      1347.7004      1867.6902      223.4378       301.61811      0.20904287   
   1362000   462.42443      1358.8948      1821.3192      281.06801      304.12344      0.21341709   
   1363000   501.9304       1371.5811      1873.5115      234.71834      306.96267      0.21670599   
   1364000   468.94808      1371.8872      1840.8353      174.11292      307.03117      0.21527486   
   1365000   460.6922       1364.1546      1824.8468      218.46876      305.30059      0.21690922   
   1366000   464.89477      1375.6884      1840.5832      212.60877      307.88189      0.2185974    
   1367000   471.57921      1370.1031      1841.6823      201.59092      306.63188      0.21911773   
   1368000   440.93259      1330.0455      1770.9781      185.05251      297.66691      0.21854863   
   1369000   468.17493      1330.6568      1798.8317      173.20551      297.80371      0.21941446   
   1370000   441.49266      1338.3826      1779.8753      213.20059      299.53278      0.22126091   
   1371000   469.00572      1302.8166      1771.8223      236.41451      291.57303      0.22102553   
   1372000   475.10011      1287.6019      1762.702       135.85358      288.16794      0.21652115   
   1373000   467.4244       1304.5938      1772.0182      131.39347      291.97078      0.21559029   
   1374000   458.00819      1352.835       1810.8432      114.45259      302.76725      0.21646039   
   1375000   488.59953      1346.3237      1834.9232      137.43563      301.31         0.21668435   
   1376000   483.75199      1346.5873      1830.3393      179.86398      301.369        0.21517429   
   1377000   505.3967       1371.4744      1876.8711      218.03053      306.93879      0.21121508   
   1378000   512.11923      1391.16        1903.2792      237.21403      311.34447      0.20675814   
   1379000   529.45081      1364.3451      1893.7959      289.93493      305.34324      0.20680123   
   1380000   484.38816      1353.3997      1837.7879      276.61177      302.89364      0.20896572   
   1381000   467.72044      1361.0098      1828.7302      278.71644      304.59678      0.2154009    
   1382000   464.92104      1374.3073      1839.2283      187.65114      307.5728       0.22223364   
   1383000   469.65488      1393.3112      1862.9661      232.55384      311.82591      0.22609368   
   1384000   465.58826      1320.8863      1786.4746      248.05814      295.61708      0.22181599   
   1385000   501.00055      1314.3559      1815.3564      301.88769      294.15554      0.21614679   
   1386000   469.24804      1309.1824      1778.4304      296.56991      292.99771      0.21043598   
   1387000   475.30265      1329.1998      1804.5024      222.81254      297.47764      0.20680848   
   1388000   463.92967      1324.3746      1788.3042      220.66615      296.39775      0.20595053   
   1389000   458.19951      1338.5739      1796.7734      240.11822      299.57559      0.20625129   
   1390000   441.44939      1331.1466      1772.596       155.01248      297.91334      0.20672749   
   1391000   474.94889      1320.5089      1795.4578      90.637742      295.53261      0.21020607   
   1392000   460.78142      1319.5498      1780.3312      78.595926      295.31794      0.21530584   
   1393000   466.39993      1314.9224      1781.3223      163.29927      294.28233      0.2178151    
   1394000   502.00276      1313.3566      1815.3593      170.31993      293.9319       0.21532623   
   1395000   519.82191      1338.5685      1858.3904      218.81645      299.57437      0.210677     
   1396000   492.07601      1336.9805      1829.0565      294.73068      299.21897      0.20825667   
   1397000   463.90937      1339.4729      1803.3822      276.48212      299.77677      0.20656643   
   1398000   461.71318      1300.0471      1761.7603      212.37489      290.95321      0.20597748   
   1399000   477.98151      1313.7138      1791.6953      220.90744      294.01185      0.21129803   
   1400000   485.81048      1313.082       1798.8924      182.40935      293.87044      0.22016123   
   1401000   488.0885       1377.4245      1865.513       192.53256      308.27042      0.2237572    
   1402000   449.92085      1385.7431      1835.6639      182.79009      310.13214      0.21947084   
   1403000   484.84547      1347.8551      1832.7006      188.18659      301.65274      0.21923723   
   1404000   473.26242      1350.9421      1824.2045      202.53622      302.34362      0.2239612    
   1405000   497.36648      1427.7794      1925.1459      233.64587      319.53996      0.22860499   
   1406000   469.26681      1385.7444      1855.0112      200.06152      310.13244      0.22733696   
   1407000   472.20852      1362.5078      1834.7163      140.51038      304.93204      0.22470741   
   1408000   485.86256      1334.1925      1820.0551      94.933442      298.59503      0.22266868   
   1409000   488.17984      1373.4796      1861.6595      146.26552      307.38756      0.22589758   
   1410000   493.53748      1319.7277      1813.2652      141.89728      295.35778      0.23086863   
   1411000   457.86448      1329.3787      1787.2432      183.39084      297.51768      0.23682039   
   1412000   396.21614      1362.4212      1758.6374      252.36407      304.91267      0.23720557   
   1413000   427.34482      1346.6956      1774.0404      304.86061      301.39324      0.2293035    
   1414000   493.79895      1350.7002      1844.4991      308.1214       302.28948      0.21811262   
   1415000   486.41759      1373.2999      1859.7174      223.42184      307.34733      0.21297722   
   1416000   483.78746      1335.1936      1818.981       170.05204      298.81906      0.2139732    
   1417000   501.92403      1364.6904      1866.6144      126.79218      305.4205       0.21721845   
   1418000   471.56563      1337.8959      1809.4615      132.17974      299.42384      0.22169898   
   1419000   477.60966      1323.6033      1801.2129      134.41746      296.22513      0.22654735   
   1420000   439.61534      1329.1749      1768.7902      113.10767      297.47207      0.2311663    
   1421000   446.47226      1305.951       1752.4233      103.71611      292.27452      0.23284948   
   1422000   459.3283       1294.1664      1753.4947      99.90775       289.63709      0.23269245   
   1423000   501.43766      1345.7139      1847.1515      144.5439       301.17353      0.22533666   
   1424000   510.49914      1319.628       1830.1271      124.41028      295.33545      0.21326253   
   1425000   502.05877      1286.0099      1788.0687      161.01834      287.81165      0.21022637   
   1426000   478.93604      1338.877       1817.8131      197.33682      299.64343      0.2143581    
   1427000   473.33246      1368.4246      1841.7571      230.6027       306.25624      0.22242325   
   1428000   450.08531      1363.4105      1813.4958      200.17177      305.13406      0.22623714   
   1429000   482.60977      1344.0209      1826.6307      166.86047      300.79464      0.22397654   
   1430000   485.43796      1341.9192      1827.3572      192.83018      300.32428      0.21955392   
   1431000   492.34758      1341.7156      1834.0632      140.90852      300.2787       0.21279285   
   1432000   507.15621      1341.0072      1848.1634      162.55567      300.12017      0.20966668   
   1433000   494.04781      1384.2783      1878.3261      166.10759      309.80432      0.20971246   
   1434000   495.07214      1358.0929      1853.165       157.35929      303.94398      0.20994765   
   1435000   491.10741      1327.1904      1818.2978      118.68758      297.02794      0.2087696    
   1436000   461.9793       1321.6961      1783.6754      98.44364       295.7983       0.20829344   
   1437000   483.62192      1322.0677      1805.6896      227.06684      295.88146      0.20836127   
   1438000   469.36962      1340.9451      1810.3147      256.12317      300.10627      0.20462224   
   1439000   509.10652      1357.9621      1867.0687      300.40682      303.91471      0.20322454   
   1440000   533.72984      1368.2267      1901.9566      324.72412      306.21195      0.20205125   
   1441000   487.50152      1359.099       1846.6005      336.64787      304.16915      0.20307866   
   1442000   481.61026      1365.1185      1846.7287      298.51946      305.51631      0.21164822   
   1443000   479.37788      1372.4893      1851.8671      213.98617      307.16592      0.21973679   
   1444000   450.89406      1343.9294      1794.8234      180.07576      300.77415      0.22322996   
   1445000   475.88043      1321.4852      1797.3657      152.33168      295.75111      0.22134691   
   1446000   467.17578      1381.885       1849.0607      154.09139      309.26869      0.21848044   
   1447000   472.69372      1359.8543      1832.548       193.17518      304.33818      0.21259125   
   1448000   484.15854      1345.4639      1829.6224      172.45095      301.11758      0.20620948   
   1449000   490.69792      1357.3259      1848.0238      253.90944      303.77231      0.20919185   
   1450000   494.24226      1372.1557      1866.3979      323.13688      307.09126      0.21682554   
   1451000   472.09805      1389.2915      1861.3896      292.19115      310.9263       0.22245103   
   1452000   440.50358      1350.9651      1791.4687      154.84021      302.34877      0.2243226    
   1453000   471.15699      1335.8599      1807.0169      89.188727      298.96819      0.22563199   
   1454000   473.51294      1354.3954      1827.9083      124.87755      303.11647      0.22499724   
   1455000   464.12852      1358.272       1822.4005      96.623601      303.98405      0.22405029   
   1456000   473.87079      1369.0112      1842.882       135.3821       306.38752      0.22556891   
   1457000   484.59878      1389.5241      1874.1229      203.57803      310.97835      0.22217865   
   1458000   491.17816      1342.8772      1834.0553      201.27304      300.53867      0.21601082   
   1459000   487.39069      1337.7956      1825.1863      205.49134      299.40141      0.21039605   
   1460000   469.12136      1360.1361      1829.2575      225.02928      304.40126      0.21146771   
   1461000   448.49666      1387.0572      1835.5539      216.59973      310.42625      0.21664413   
   1462000   459.24842      1306.5719      1765.8204      279.97116      292.41348      0.22159398   
   1463000   470.71129      1319.2784      1789.9897      256.86879      295.25722      0.22625732   
   1464000   461.46698      1336.7561      1798.223       234.02529      299.16875      0.23396081   
   1465000   454.16646      1322.5285      1776.6949      204.49721      295.98459      0.23205066   
   1466000   476.63584      1313.0845      1789.7203      148.71115      293.871        0.22052399   
   1467000   460.44743      1318.1209      1778.5684      132.85231      294.99817      0.21295265   
   1468000   509.53881      1308.4644      1818.0032      96.103253      292.83702      0.21188379   
   1469000   480.21725      1330.1173      1810.3346      51.986774      297.68299      0.2119488    
   1470000   493.15517      1314.7304      1807.8855      59.445643      294.23935      0.21886489   
   1471000   422.71172      1323.8248      1746.5365      146.31136      296.2747       0.22602877   
   1472000   446.61426      1338.733       1785.3472      255.13646      299.61119      0.22784218   
   1473000   445.05868      1327.0045      1772.0631      290.94108      296.98632      0.22257416   
   1474000   445.77964      1359.2265      1805.0062      302.3445       304.19769      0.2170475    
   1475000   466.98406      1332.9686      1799.9526      344.81745      298.3211       0.21301051   
   1476000   488.01367      1330.5961      1818.6098      230.59344      297.79013      0.20878029   
   1477000   447.64642      1336.2781      1783.9245      236.96674      299.06179      0.2126227    
   1478000   468.20692      1346.8908      1815.0977      184.51984      301.43692      0.21660691   
   1479000   462.55905      1346.6551      1809.2142      145.78618      301.38419      0.21675094   
   1480000   483.73313      1330.6769      1814.41        83.392183      297.80822      0.21516166   
   1481000   484.95857      1358.2126      1843.1711      95.811601      303.97076      0.21405785   
   1482000   489.32639      1339.0905      1828.4169      94.093751      299.69121      0.21474805   
   1483000   448.34859      1319.5647      1767.9133      106.15224      295.32129      0.21829018   
   1484000   479.69906      1343.5262      1823.2252      111.89146      300.68392      0.22431528   
   1485000   468.59104      1342.3902      1810.9812      225.55449      300.42968      0.22970313   
   1486000   442.49367      1394.4403      1836.934       363.04491      312.07861      0.23398619   
   1487000   442.33183      1345.5498      1787.8816      322.06923      301.1368       0.23366751   
   1488000   473.03818      1325.5303      1798.5685      289.03916      296.6564       0.23202853   
   1489000   471.12139      1316.4112      1787.5326      170.91121      294.61553      0.22934685   
   1490000   463.87152      1326.4175      1790.289       107.73693      296.85495      0.2284949    
   1491000   459.76059      1294.2544      1754.015       26.209775      289.65679      0.22757602   
   1492000   477.41856      1307.404       1784.8226      56.462027      292.5997       0.2288612    
   1493000   438.31946      1318.5508      1756.8703      185.98614      295.09438      0.23394281   
   1494000   445.88499      1307.6592      1753.5442      192.03855      292.65681      0.23251072   
   1495000   457.07799      1284.7893      1741.8673      210.06526      287.53848      0.22673179   
   1496000   497.21631      1317.7362      1814.9525      163.36614      294.91206      0.22039056   
   1497000   485.40718      1364.197       1849.6042      194.33996      305.31009      0.21828365   
   1498000   473.77098      1368.2376      1842.0085      177.35582      306.21438      0.21463988   
   1499000   499.77618      1346.3251      1846.1013      136.35386      301.31033      0.21327951   
   1500000   464.54021      1355.0737      1819.6139      77.970391      303.26827      0.21213152   
   1501000   513.44845      1371.2218      1884.6702      87.995091      306.88225      0.21167732   
   1502000   488.42583      1366.3026      1854.7284      142.91494      305.78132      0.21618493   
   1503000   499.83442      1364.8221      1864.6565      200.71565      305.44999      0.22463837   
   1504000   473.82559      1376.2707      1850.0963      297.77358      308.01221      0.23090742   
   1505000   489.58986      1350.9731      1840.563       315.77978      302.35056      0.22974997   
   1506000   436.36575      1373.6304      1809.9962      349.95395      307.4213       0.22523932   
   1507000   475.08478      1356.8764      1831.9612      287.99616      303.67172      0.22090251   
   1508000   475.28314      1352.8418      1828.1249      242.34641      302.76877      0.21937485   
   1509000   457.21588      1313.4649      1770.6808      239.84015      293.95614      0.21679638   
   1510000   454.40335      1314.0313      1768.4347      211.29642      294.08291      0.21253717   
   1511000   481.89193      1314.525       1796.417       204.72561      294.1934       0.21192556   
   1512000   468.37035      1332.2652      1800.6355      218.66215      298.16368      0.21167248   
   1513000   473.61212      1324.457       1798.0691      153.38114      296.41619      0.21132137   
   1514000   470.67506      1273.5256      1744.2007      82.257913      285.01765      0.2123909    
   1515000   492.63725      1324.3069      1816.9441      166.17705      296.3826       0.21482419   
   1516000   453.13693      1368.8121      1821.9491      151.0316       306.34296      0.21624572   
   1517000   465.47042      1387.2452      1852.7156      223.48705      310.46833      0.22174967   
   1518000   459.50173      1329.7502      1789.2519      140.96634      297.60082      0.22654837   
   1519000   464.82819      1301.495       1766.3232      106.90805      291.27725      0.22983481   
   1520000   462.10306      1316.33        1778.4331      113.60214      294.59736      0.22776237   
   1521000   437.45729      1325.0328      1762.4901      139.79099      296.54506      0.22085957   
   1522000   496.76197      1286.3934      1783.1554      175.56594      287.89748      0.21313589   
   1523000   509.13919      1317.5357      1826.6749      226.735        294.86721      0.21036515   
   1524000   462.19829      1323.629       1785.8273      251.1743       296.23089      0.21436487   
   1525000   454.39422      1335.3632      1789.7574      184.30185      298.85702      0.21579834   
   1526000   476.77389      1298.6133      1775.3872      125.05051      290.63232      0.21558993   
   1527000   474.90201      1324.0944      1798.9964      110.64786      296.33505      0.21695105   
   1528000   457.53477      1333.7679      1791.3026      183.97411      298.49999      0.21958743   
   1529000   489.50888      1319.2398      1808.7486      210.30425      295.24857      0.22143535   
   1530000   462.12045      1336.304       1798.4245      195.09013      299.06758      0.21971236   
   1531000   498.52915      1305.7302      1804.2593      175.03782      292.22509      0.2181069    
   1532000   461.57249      1325.1809      1786.7534      151.82082      296.57822      0.21559242   
   1533000   480.04599      1302.201       1782.247       145.61882      291.43525      0.21743918   
   1534000   470.7584       1312.6932      1783.4516      182.13454      293.78342      0.22523766   
   1535000   463.50981      1322.2109      1785.7207      191.47539      295.91352      0.23492498   
   1536000   449.77255      1318.6662      1768.4387      118.86488      295.1202       0.23495752   
   1537000   448.13215      1307.4281      1755.5602      71.474977      292.60509      0.2310598    
   1538000   416.72519      1304.0507      1720.7759      125.66051      291.84922      0.22679138   
   1539000   468.75797      1353.9126      1822.6706      190.64208      303.00842      0.22240318   
   1540000   480.18057      1334.5025      1814.6831      238.46952      298.66441      0.21888252   
   1541000   493.87803      1361.1374      1855.0154      227.70021      304.62534      0.21565908   
   1542000   488.76123      1377.646       1866.4072      257.02688      308.32001      0.21390195   
   1543000   509.2205       1342.4833      1851.7038      273.59449      300.45051      0.21259644   
   1544000   488.09857      1350.2228      1838.3214      213.39217      302.18263      0.20824578   
   1545000   518.62202      1352.8976      1871.5196      107.10232      302.78125      0.20705264   
   1546000   496.08928      1395.6806      1891.7699      169.96818      312.35619      0.21176447   
   1547000   480.88559      1387.8452      1868.7308      143.06682      310.60261      0.2161251    
   1548000   485.32481      1345.1246      1830.4494      260.80222      301.04164      0.21896419   
   1549000   513.7468       1355.0858      1868.8326      241.43076      303.27098      0.21776331   
   1550000   474.74201      1373.6579      1848.3999      277.7985       307.42745      0.21538766   
   1551000   484.48258      1369.5099      1853.9925      278.37201      306.49914      0.21030005   
   1552000   517.50162      1322.8851      1840.3867      232.96671      296.06441      0.20373995   
   1553000   487.64722      1314.6861      1802.3333      128.43491      294.22945      0.20189029   
   1554000   480.85564      1338.6746      1819.5302      114.36345      299.59812      0.20825525   
   1555000   463.51074      1319.2765      1782.7873      117.76467      295.2568       0.22036565   
   1556000   470.34779      1268.8456      1739.1934      96.530962      283.97024      0.22191127   
   1557000   460.74185      1308.1429      1768.8848      116.93708      292.76507      0.21720605   
   1558000   470.94172      1324.5844      1795.5261      168.06257      296.4447       0.21032569   
   1559000   484.98977      1328.7278      1813.7175      190.65786      297.372        0.20774341   
   1560000   511.80095      1304.8091      1816.61        242.02391      292.01895      0.20585415   
   1561000   467.25787      1318.7044      1785.9622      293.90101      295.12875      0.20587992   
   1562000   470.23323      1300.6421      1770.8754      268.49225      291.08638      0.20973622   
   1563000   491.15512      1332.2948      1823.4499      214.53919      298.17032      0.21442607   
   1564000   481.54575      1339.9344      1821.4802      203.28427      299.88007      0.21791616   
   1565000   465.88162      1356.6844      1822.566       183.36095      303.62876      0.22201936   
   1566000   467.48149      1334.5037      1801.9851      232.10726      298.66466      0.22147695   
   1567000   462.91076      1328.4266      1791.3374      232.33046      297.30461      0.21555519   
   1568000   482.93755      1340.2267      1823.1642      250.21664      299.94548      0.21117852   
   1569000   489.7698       1291.3035      1781.0733      197.8183       288.99638      0.20993263   
   1570000   475.56169      1308.9011      1784.4628      132.0064       292.93476      0.2113982    
   1571000   469.284        1337.7798      1807.0638      180.78972      299.39787      0.2192301    
   1572000   446.95747      1324.1658      1771.1233      172.8413       296.35103      0.22573654   
   1573000   445.02032      1322.6377      1767.658       171.20259      296.00903      0.22648987   
   1574000   455.98842      1303.0284      1759.0168      183.14086      291.62042      0.22006522   
   1575000   510.69592      1284.9541      1795.65        167.19952      287.57537      0.20896786   
   1576000   521.22264      1296.6643      1817.8869      200.20156      290.19613      0.20141016   
   1577000   492.67122      1341.5822      1834.2535      200.08686      300.24886      0.20080402   
   1578000   461.15779      1353.239       1814.3968      239.09903      302.85767      0.20491773   
   1579000   502.42335      1332.4769      1834.9002      203.82463      298.21106      0.20903312   
   1580000   490.54385      1322.5502      1813.094       149.90531      295.98944      0.20958433   
   1581000   445.78045      1345.6685      1791.4489      93.121075      301.16337      0.2086616    
   1582000   483.79473      1337.2323      1821.027       20.198046      299.27533      0.20794202   
   1583000   493.85155      1330.4135      1824.2651      32.85325       297.74928      0.20987791   
   1584000   448.29822      1353.3283      1801.6265      105.72055      302.87765      0.21235811   
   1585000   467.79863      1327.2175      1795.0161      125.24295      297.03399      0.21209222   
   1586000   490.36524      1309.9779      1800.3431      78.634865      293.17573      0.21273584   
   1587000   488.1109       1314.2829      1802.3938      133.67893      294.1392       0.21793909   
   1588000   461.7855       1342.0955      1803.881       121.1739       300.36373      0.22037598   
   1589000   461.79771      1308.0474      1769.8451      181.20265      292.74368      0.22354666   
   1590000   473.3738       1272.1509      1745.5247      242.226        284.70998      0.22507787   
   1591000   459.58956      1284.987       1744.5766      263.41252      287.58273      0.2238595    
   1592000   488.63363      1298.8568      1787.4904      339.05922      290.68682      0.22350605   
   1593000   442.17357      1349.2741      1791.4477      310.80486      301.97032      0.22217473   
   1594000   472.94632      1331.1927      1804.139       220.59866      297.92365      0.2260835    
   1595000   447.51984      1341.9793      1789.4992      138.29812      300.33773      0.22861623   
   1596000   494.98971      1392.5177      1887.5074      61.748818      311.64833      0.2227562    
   1597000   512.65833      1379.6487      1892.307       38.349048      308.76821      0.21297085   
   1598000   490.86356      1362.004       1852.8676      100.36824      304.8193       0.20946132   
   1599000   467.025        1368.5934      1835.6184      171.75088      306.294        0.21214487   
   1600000   481.58071      1334.1144      1815.6952      284.75007      298.57755      0.21973373   
   1601000   454.88553      1298.9163      1753.8019      281.58632      290.70014      0.22502934   
   1602000   444.74984      1269.4173      1714.1671      217.5035       284.09819      0.22731795   
   1603000   455.47215      1317.5951      1773.0672      132.55732      294.88048      0.22868442   
   1604000   462.77032      1334.527       1797.2973      113.79031      298.66989      0.23278454   
   1605000   459.45566      1326.5926      1786.0483      77.907435      296.89415      0.23767156   
   1606000   442.41707      1347.338       1789.7551      157.14483      301.53702      0.24148598   
   1607000   461.88828      1317.6685      1779.5568      170.81536      294.89693      0.23757962   
   1608000   436.47876      1315.5345      1752.0133      258.84614      294.41933      0.22837818   
   1609000   488.05859      1346.6208      1834.6794      255.29155      301.3765       0.22018133   
   1610000   463.38032      1377.1004      1840.4807      275.24554      308.1979       0.2174005    
   1611000   506.36043      1327.4253      1833.7857      287.13972      297.0805       0.21741741   
   1612000   494.36381      1329.9005      1824.2643      283.24677      297.63446      0.21552393   
   1613000   525.53235      1358.5718      1884.1041      204.08838      304.05115      0.21362442   
   1614000   501.42132      1386.4449      1887.8663      154.27881      310.28922      0.21610059   
   1615000   504.61908      1321.989       1826.6081      171.37838      295.86385      0.22222225   
   1616000   497.04103      1362.3493      1859.3903      178.9676       304.89656      0.22728525   
   1617000   465.13181      1362.1414      1827.2732      99.730456      304.85005      0.22837998   
   1618000   489.64398      1383.954       1873.598       94.870343      309.73174      0.22784391   
   1619000   480.23756      1372.8848      1853.1223      156.54503      307.25443      0.22310292   
   1620000   472.7225       1365.8208      1838.5433      189.78438      305.6735       0.21628724   
   1621000   500.54514      1356.5246      1857.0698      195.17829      303.59299      0.21393618   
   1622000   472.80568      1374.5405      1847.3462      221.18077      307.62499      0.21219283   
   1623000   479.8207       1371.434       1851.2547      178.77369      306.92974      0.20794358   
   1624000   510.92859      1363.059       1873.9876      83.115369      305.0554       0.20052388   
   1625000   505.84756      1302.6876      1808.5351      48.5851        291.54415      0.2028464    
   1626000   500.52118      1338.7778      1839.2989      107.49546      299.62121      0.21151453   
   1627000   487.47496      1322.5597      1810.0347      191.34945      295.99158      0.21590653   
   1628000   503.47064      1357.2086      1860.6792      300.67231      303.74606      0.21787544   
   1629000   513.41156      1358.516       1871.9275      308.79236      304.03866      0.21650499   
   1630000   467.84852      1376.8223      1844.6708      298.92966      308.13566      0.21686216   
   1631000   471.64664      1358.4745      1830.1211      259.98743      304.02937      0.22075513   
   1632000   485.75794      1356.4959      1842.2538      106.57652      303.58656      0.22242491   
   1633000   495.97088      1348.1827      1844.1536      39.787997      301.72606      0.22470626   
   1634000   459.90495      1346.9723      1806.8772      105.49641      301.45516      0.23044519   
   1635000   444.30514      1371.1585      1815.4636      132.20201      306.86809      0.232451     
   1636000   482.28708      1325.9805      1808.2676      213.36475      296.75716      0.22590964   
   1637000   497.30791      1363.2455      1860.5534      315.98045      305.09715      0.21561457   
   1638000   477.82836      1355.8764      1833.7048      352.92363      303.44792      0.20987213   
   1639000   474.21114      1364.3634      1838.5745      332.30557      305.34733      0.21141751   
   1640000   486.94995      1393.5808      1880.5307      239.77389      311.88623      0.21546996   
   1641000   468.15683      1347.3526      1815.5094      137.6123       301.54027      0.22004946   
   1642000   438.76167      1357.4742      1796.2359      49.04527       303.80551      0.22545593   
   1643000   447.78881      1289.0559      1736.8448      62.321763      288.49337      0.23121267   
   1644000   454.44688      1309.5932      1764.0401      82.909322      293.08966      0.23271887   
   1645000   454.43381      1319.9375      1774.3713      155.5169       295.40472      0.23215516   
   1646000   452.99178      1325.2601      1778.2518      250.35622      296.59592      0.22993049   
   1647000   482.81229      1340.196       1823.0083      203.69         299.93861      0.21896576   
   1648000   496.18895      1292.8196      1789.0085      207.46302      289.33567      0.20908643   
   1649000   503.37113      1290.4712      1793.8423      177.60468      288.81011      0.20878006   
   1650000   457.98659      1326.0239      1784.0105      254.71232      296.76687      0.21598397   
   1651000   464.58163      1333.7711      1798.3527      220.25658      298.5007       0.22108879   
   1652000   474.35087      1305.8725      1780.2234      114.35342      292.25695      0.22039511   
   1653000   465.12294      1342.2505      1807.3734      100.24576      300.39842      0.22060515   
   1654000   480.37339      1363.2897      1843.6631      164.27142      305.10704      0.2204003    
   1655000   491.02895      1342.5603      1833.5892      280.51898      300.46775      0.21643288   
   1656000   494.98932      1335.5443      1830.5336      360.20054      298.89756      0.21198947   
   1657000   500.13958      1356.9019      1857.0415      224.39812      303.67744      0.20498311   
   1658000   486.34418      1350.4989      1836.8431      160.58641      302.24442      0.20865933   
   1659000   472.4281       1366.5517      1838.9798      90.409417      305.83708      0.21950037   
   1660000   468.06793      1370.7388      1838.8068      135.23368      306.77416      0.22327218   
   1661000   465.62023      1360.0084      1825.6287      214.04534      304.37268      0.22041332   
   1662000   488.2223       1354.3708      1842.5931      209.48987      303.11096      0.2161188    
   1663000   480.24963      1367.4751      1847.7247      365.03206      306.04374      0.21924231   
   1664000   483.78056      1379.3752      1863.1557      373.33301      308.707        0.22381163   
   1665000   466.98733      1347.849       1814.8363      352.36161      301.65136      0.22810178   
   1666000   470.20218      1337.613       1807.8152      303.81747      299.36054      0.23026438   
   1667000   486.11995      1341.9712      1828.0911      295.27356      300.33591      0.23130295   
   1668000   476.30663      1369.6099      1845.9165      133.29687      306.52151      0.22914047   
   1669000   493.75369      1352.8973      1846.651       9.2941487      302.7812       0.21966577   
   1670000   510.19316      1358.1698      1868.363       23.627123      303.96119      0.21258683   
   1671000   481.58999      1322.4048      1803.9948      85.725622      295.95692      0.21106399   
   1672000   469.93232      1345.3351      1815.2674      114.08739      301.08875      0.21346281   
   1673000   508.79727      1358.1235      1866.9208      123.59035      303.95084      0.21891795   
   1674000   451.61838      1348.2913      1799.9097      169.5433       301.75036      0.22300701   
   1675000   442.67568      1350.0813      1792.7569      211.20031      302.15096      0.22969048   
   1676000   434.29727      1331.7927      1766.09        276.71012      298.05795      0.23737639   
   1677000   447.62406      1307.8458      1755.4699      219.53856      292.69858      0.23955544   
   1678000   428.30648      1294.2512      1722.5577      106.97286      289.65607      0.23088809   
   1679000   482.86193      1335.8336      1818.6955      117.76832      298.96229      0.22319582   
   1680000   482.42784      1333.8691      1816.297       90.256808      298.52265      0.21955995   
   1681000   518.59         1341.8634      1860.4534      87.745091      300.31179      0.21777088   
   1682000   469.52022      1366.5513      1836.0716      139.87863      305.83699      0.21595532   
   1683000   489.56468      1376.0596      1865.6243      140.16491      307.96497      0.21356114   
   1684000   510.70404      1374.1918      1884.8958      208.07206      307.54694      0.21492767   
   1685000   460.34438      1365.5962      1825.9406      270.17074      305.62323      0.21774362   
   1686000   463.08525      1320.9315      1784.0167      289.73607      295.62717      0.22053005   
   1687000   462.89572      1315.9825      1778.8783      282.78877      294.51959      0.22400017   
   1688000   474.02258      1340.9175      1814.9401      233.69996      300.1001       0.22576575   
   1689000   472.93022      1321.4444      1794.3747      245.19188      295.74198      0.22569316   
   1690000   451.75326      1351.8016      1803.5548      201.86611      302.53597      0.22258069   
   1691000   470.69517      1359.0259      1829.7211      206.26505      304.15279      0.21831378   
   1692000   513.95036      1353.9061      1867.8564      252.53739      303.00696      0.21266115   
   1693000   479.74632      1354.3731      1834.1194      283.49688      303.11149      0.20958027   
   1694000   508.97905      1359.4076      1868.3867      275.32492      304.23821      0.2110815    
   1695000   491.3104       1346.9318      1838.2422      290.05811      301.44611      0.21913673   
   1696000   479.58774      1345.1299      1824.7176      216.21976      301.04282      0.22565471   
   1697000   484.12948      1371.7617      1855.8912      152.84209      307.00308      0.22839656   
   1698000   491.29898      1334.4646      1825.7636      66.570953      298.65592      0.22581743   
   1699000   504.73424      1361.421       1866.1553      62.303058      304.68882      0.22464491   
   1700000   457.69681      1333.9634      1791.6603      84.811958      298.54376      0.22419272   
   1701000   477.15561      1332.5831      1809.7388      103.60862      298.23484      0.22708342   
   1702000   430.10062      1315.2994      1745.4         127.16073      294.3667       0.22804519   
   1703000   461.92014      1316.4961      1778.4163      302.44686      294.63454      0.23476774   
   1704000   446.26034      1317.3868      1763.6471      287.1659       294.83386      0.23662232   
   1705000   451.83834      1289.3448      1741.1832      212.0706       288.55802      0.23124904   
   1706000   447.8896       1309.4459      1757.3355      214.6736       293.05667      0.22630599   
   1707000   465.62036      1326.0135      1791.6339      227.40749      296.76455      0.22298237   
   1708000   480.49698      1356.1601      1836.657       226.19537      303.51141      0.22115682   
   1709000   475.32913      1386.6404      1861.9695      252.78717      310.33296      0.22166166   
   1710000   494.12116      1342.2937      1836.4148      217.13742      300.40808      0.22522013   
   1711000   472.70448      1347.6069      1820.3114      188.09886      301.59719      0.23490915   
   1712000   470.72636      1345.3009      1816.0272      193.83919      301.0811       0.24442801   
   1713000   440.39635      1385.1594      1825.5557      237.17985      310.00152      0.24627934   
   1714000   424.19289      1378.2717      1802.4646      181.93156      308.46003      0.23774935   
   1715000   478.2041       1340.172       1818.3761      201.43075      299.93325      0.22902239   
   1716000   473.30151      1347.5687      1820.8702      187.5767       301.58865      0.22558176   
   1717000   472.51136      1349.2729      1821.7842      187.42679      301.97004      0.22428216   
   1718000   467.49944      1323.2893      1790.7888      287.97879      296.15487      0.2266655    
   1719000   455.3148       1315.9526      1771.2674      336.87631      294.51288      0.22696955   
   1720000   435.92712      1298.8164      1734.7435      232.9019       290.67778      0.22427249   
   1721000   473.09013      1325.236       1798.3262      195.16339      296.59054      0.22042286   
   1722000   478.50102      1345.5674      1824.0684      141.037        301.14075      0.21614478   
   1723000   478.58783      1315.9286      1794.5164      99.986244      294.50751      0.21509089   
   1724000   478.96402      1335.6584      1814.6225      186.43888      298.9231       0.21834045   
   1725000   504.14297      1305.2509      1809.3939      191.98719      292.11783      0.22188034   
   1726000   489.92509      1314.2507      1804.1758      332.6722       294.13201      0.2291705    
   1727000   427.1913       1343.1975      1770.3888      390.54982      300.61036      0.228644     
   1728000   476.04856      1388.5546      1864.6031      271.65616      310.76136      0.21934747   
   1729000   494.54758      1341.8461      1836.3937      158.80329      300.30792      0.21393226   
   1730000   462.55761      1327.4227      1789.9803      144.26082      297.07993      0.21309221   
   1731000   470.18342      1305.8918      1776.0752      147.46563      292.26127      0.21317375   
   1732000   445.43443      1305.0708      1750.5052      219.51036      292.07753      0.21299413   
   1733000   479.16565      1322.215       1801.3806      258.26404      295.91443      0.21341453   
   1734000   466.31399      1323.2762      1789.5902      285.93419      296.15193      0.21296988   
   1735000   458.18816      1288.4488      1746.6369      151.12528      288.35748      0.20882758   
   1736000   484.08997      1336.9622      1821.0522      123.56327      299.21489      0.20298872   
   1737000   485.17835      1297.4846      1782.6629      97.379325      290.37971      0.19939875   
   1738000   510.50391      1288.2669      1798.7708      85.523442      288.31677      0.2044951    
   1739000   469.65205      1329.4739      1799.1259      161.88571      297.53898      0.21304613   
   1740000   460.24644      1345.7789      1806.0254      222.61958      301.18809      0.21561542   
   1741000   485.32345      1287.5885      1772.912       206.91469      288.16496      0.21366986   
   1742000   458.16978      1281.1161      1739.2859      226.33561      286.71642      0.21581299   
   1743000   489.55015      1302.2945      1791.8446      206.17416      291.45617      0.22309842   
   1744000   483.92164      1318.4372      1802.3588      120.78326      295.06895      0.23077953   
   1745000   467.77729      1313.2675      1781.0448      183.37108      293.91197      0.2344817    
   1746000   446.32123      1338.4528      1784.7741      197.30787      299.54849      0.23164567   
   1747000   477.64644      1302.7959      1780.4423      189.74101      291.5684       0.22882255   
   1748000   465.87798      1299.6199      1765.4978      252.11646      290.85759      0.22650391   
   1749000   468.78224      1301.7481      1770.5303      317.35694      291.3339       0.22234051   
   1750000   516.16417      1349.1093      1865.2734      334.17171      301.93342      0.21788766   
   1751000   458.29325      1367.8382      1826.1315      372.01383      306.125        0.21415874   
   1752000   482.58655      1361.3029      1843.8894      298.57811      304.66238      0.21094367   
   1753000   498.69913      1373.8008      1872.4999      255.25448      307.45944      0.21372233   
   1754000   481.36667      1414.2482      1895.6148      240.3041       316.51164      0.22476904   
   1755000   434.4824       1379.6718      1814.1542      227.60941      308.77338      0.23266344   
   1756000   466.71147      1374.9248      1841.6362      124.51831      307.71099      0.23269729   
   1757000   480.34762      1388.1909      1868.5386      116.18139      310.67998      0.22724672   
   1758000   480.11246      1349.9735      1830.086       128.15308      302.12684      0.21797487   
   1759000   482.58447      1334.7181      1817.3026      182.57529      298.71266      0.214833     
   1760000   448.88257      1333.6013      1782.4839      225.70235      298.46271      0.21749441   
   1761000   468.00726      1310.7339      1778.7412      210.52494      293.34494      0.22325047   
   1762000   451.93801      1269.9405      1721.8785      166.6442       284.21528      0.22706017   
   1763000   481.87378      1283.8919      1765.7657      166.65922      287.33764      0.22587556   
   1764000   477.16767      1326.8866      1804.0542      195.26273      296.95994      0.21870682   
   1765000   493.24974      1339.0926      1832.3424      229.15734      299.69168      0.21315546   
   1766000   525.92414      1305.8619      1831.786       169.52068      292.25457      0.21085431   
   1767000   488.74244      1290.4006      1779.1431      96.715043      288.79431      0.21138266   
   1768000   482.17253      1326.1863      1808.3589      41.828075      296.80322      0.21638031   
   1769000   465.04591      1319.3572      1784.4031      101.67762      295.27485      0.22744192   
   1770000   488.24003      1280.6915      1768.9315      192.4098       286.62139      0.2313665    
   1771000   437.3375       1277.18        1714.5175      276.02916      285.8355       0.22769834   
   1772000   472.734        1308.275       1781.009       351.68965      292.79463      0.22085513   
   1773000   491.97075      1307.2834      1799.2542      373.5468       292.57271      0.21646158   
   1774000   487.89306      1315.6758      1803.5688      268.66769      294.45094      0.21535509   
   1775000   503.08018      1355.3342      1858.4144      166.62086      303.32659      0.21715376   
   1776000   485.88679      1369.2452      1855.132       43.771943      306.43988      0.2154741    
   1777000   469.72425      1359.7185      1829.4428      27.530636      304.3078       0.21547887   
   1778000   468.62657      1375.1063      1843.7328      105.29091      307.7516       0.21804697   
   1779000   502.07279      1338.8606      1840.9333      160.04357      299.63974      0.22237869   
   1780000   502.37284      1348.9479      1851.3207      260.77917      301.8973       0.22930094   
   1781000   492.31982      1391.4745      1883.7943      279.57765      311.41485      0.23205449   
   1782000   464.27885      1398.3565      1862.6353      258.65997      312.95505      0.22511654   
   1783000   487.21415      1347.1807      1834.3949      167.38665      301.50181      0.21668237   
   1784000   495.59957      1333.6329      1829.2325      146.15125      298.46979      0.21060607   
   1785000   479.74039      1311.474       1791.2144      125.82217      293.51057      0.20741694   
   1786000   477.09615      1345.2853      1822.3815      135.82065      301.07762      0.20906005   
   1787000   471.35194      1336.7045      1808.0565      192.39137      299.15721      0.21774246   
   1788000   458.89532      1314.7956      1773.691       241.51881      294.25397      0.22704552   
   1789000   457.20309      1343.1471      1800.3501      297.79943      300.59907      0.23073183   
   1790000   451.31401      1304.7665      1756.0805      265.26243      292.00941      0.22641898   
   1791000   475.979        1328.0719      1804.0509      226.51272      297.22521      0.22175431   
   1792000   473.78236      1340.619       1814.4014      225.98742      300.03329      0.21919948   
   1793000   463.8694       1348.7634      1812.6328      171.41817      301.85602      0.21776995   
   1794000   479.27134      1339.2014      1818.4727      54.277224      299.71602      0.21580421   
   1795000   476.37452      1359.6173      1835.9919      68.693829      304.28515      0.22219794   
   1796000   439.16018      1375.4951      1814.6553      193.49894      307.83864      0.23361544   
   1797000   471.2599       1369.9065      1841.1664      215.66277      306.58789      0.23580324   
   1798000   487.52901      1356.634       1844.163       225.53613      303.61747      0.2313658    
   1799000   472.39139      1387.2787      1859.6701      245.00286      310.47583      0.2244817    
   1800000   472.86026      1347.5108      1820.371       202.83236      301.57567      0.22071751   
   1801000   498.67859      1336.6706      1835.3492      157.72277      299.14963      0.22165668   
   1802000   454.33379      1338.7444      1793.0782      214.12973      299.61374      0.22653628   
   1803000   464.32157      1336.1559      1800.4775      193.58913      299.03443      0.23433392   
   1804000   461.49091      1337.532       1799.0229      268.92819      299.34241      0.23988931   
   1805000   442.59123      1340.1518      1782.743       201.6257       299.92872      0.23626087   
   1806000   438.10888      1291.2157      1729.3246      130.2723       288.97673      0.22794635   
   1807000   480.39424      1310.2054      1790.5997      93.521878      293.22667      0.2224704    
   1808000   468.41658      1325.1161      1793.5327      34.986282      296.5637       0.22016784   
   1809000   446.69514      1309.692       1756.3872      103.20532      293.11176      0.2232972    
   1810000   477.03112      1304.6471      1781.6782      191.66221      291.9827       0.22537303   
   1811000   474.26733      1322.6742      1796.9415      264.29556      296.0172       0.22178821   
   1812000   489.98924      1322.7551      1812.7444      262.73823      296.03531      0.21646521   
   1813000   486.3227       1316.036       1802.3587      212.9971       294.53155      0.21357469   
   1814000   479.4365       1277.3509      1756.7874      195.49593      285.87376      0.21426553   
   1815000   470.50588      1297.8988      1768.4047      71.032073      290.47241      0.21579667   
   1816000   504.00183      1297.8374      1801.8393      14.579752      290.45868      0.21605725   
   1817000   512.98961      1303.0262      1816.0158      61.702272      291.61994      0.21242891   
   1818000   486.41175      1294.7867      1781.1985      139.7129       289.77592      0.21067016   
   1819000   470.71857      1259.0351      1729.7537      206.61942      281.77464      0.20993907   
   1820000   487.85778      1307.3962      1795.254       217.56594      292.59796      0.21189763   
   1821000   486.72284      1345.1211      1831.8439      157.20582      301.04086      0.22051369   
   1822000   498.93628      1372.1709      1871.1072      156.65348      307.09466      0.22944786   
   1823000   486.75411      1365.99        1852.7441      91.192987      305.71136      0.22885295   
   1824000   483.08375      1355.3059      1838.3897      226.35471      303.32025      0.22292116   
   1825000   514.63469      1351.7238      1866.3585      249.631        302.51856      0.21486042   
   1826000   503.08035      1356.7845      1859.8648      199.68673      303.65114      0.20954845   
   1827000   498.33896      1360.4005      1858.7395      187.37803      304.46043      0.20868651   
   1828000   496.37317      1345.7813      1842.1545      139.46858      301.18862      0.21170094   
   1829000   484.09417      1332.6547      1816.7489      152.10563      298.25086      0.21761331   
   1830000   462.10079      1322.8585      1784.9593      188.10125      296.05846      0.22417663   
   1831000   456.69944      1305.081       1761.7804      146.59213      292.0798       0.22816618   
   1832000   456.35105      1370.4747      1826.8257      176.36266      306.71504      0.22769388   
   1833000   460.45388      1366.2101      1826.6639      267.77033      305.76062      0.22485309   
   1834000   474.47742      1361.6015      1836.0789      236.88041      304.7292       0.22111894   
   1835000   497.81167      1373.1408      1870.9524      270.05406      307.31172      0.21971638   
   1836000   492.0483       1351.4262      1843.4745      279.94509      302.45196      0.21967281   
   1837000   471.93113      1361.8627      1833.7939      241.85058      304.78767      0.22182173   
   1838000   456.50687      1331.0966      1787.6035      223.83673      297.90215      0.22822146   
   1839000   451.21642      1297.3248      1748.5412      72.960904      290.34396      0.23223777   
   1840000   465.31476      1317.7124      1783.0271      34.598893      294.90674      0.23106846   
   1841000   486.94479      1341.7581      1828.7029      42.550487      300.28822      0.22477074   
   1842000   487.80735      1362.4136      1850.221       68.843309      304.91097      0.21136569   
   1843000   534.44474      1372.797       1907.2418      149.8387       307.2348       0.20949368   
   1844000   491.28424      1355.7575      1847.0417      201.44067      303.42131      0.21502495   
   1845000   487.63499      1371.8052      1859.4402      265.88079      307.01283      0.22140736   
   1846000   489.8772       1348.8481      1838.7253      256.84282      301.87497      0.22267482   
   1847000   466.2023       1349.5684      1815.7707      177.83865      302.03617      0.22181135   
   1848000   490.9561       1363.8564      1854.8125      99.727702      305.23386      0.22276217   
   1849000   481.12898      1339.5133      1820.6423      87.542748      299.78582      0.22743083   
   1850000   464.86512      1362.5011      1827.3662      207.50118      304.93054      0.23367882   
   1851000   462.20327      1355.6368      1817.8401      241.43357      303.39431      0.23197822   
   1852000   489.60996      1350.7219      1840.3318      324.8777       302.29433      0.2262045    
   1853000   510.32043      1347.9831      1858.3036      228.27453      301.68139      0.21107847   
   1854000   488.46316      1354.9392      1843.4024      242.91799      303.23818      0.2071291    
   1855000   488.8387       1356.3384      1845.1771      110.42931      303.55132      0.20477087   
   1856000   516.82792      1287.605       1804.4329      41.908437      288.16864      0.20615972   
   1857000   489.54988      1277.0688      1766.6187      18.964225      285.81062      0.21025863   
   1858000   462.45441      1325.7244      1788.1788      62.459813      296.69984      0.21932071   
   1859000   471.2212       1312.8813      1784.1025      122.27426      293.82552      0.22494836   
   1860000   468.20547      1312.8544      1781.0598      202.49065      293.8195       0.22695223   
   1861000   457.23507      1266.7103      1723.9454      276.78011      283.49237      0.22469157   
   1862000   475.53569      1314.1129      1789.6486      351.67806      294.10116      0.2218897    
   1863000   496.41236      1319.1773      1815.5897      327.21441      295.23459      0.21914022   
   1864000   458.59885      1346.7243      1805.3231      257.21218      301.39966      0.21558602   
   1865000   478.24204      1324.9192      1803.1613      100.58977      296.51964      0.21221095   
   1866000   489.034        1338.9281      1827.9621      33.955313      299.65487      0.21533886   
   1867000   499.86983      1357.8059      1857.6757      66.272407      303.87974      0.22662942   
   1868000   467.05003      1359.5078      1826.5578      193.35661      304.26063      0.23410913   
   1869000   488.16849      1367.5637      1855.7322      245.67946      306.06356      0.23377514   
   1870000   465.62848      1350.9899      1816.6184      345.59889      302.35431      0.23240987   
   1871000   465.39821      1344.4812      1809.8794      340.43803      300.89764      0.22935607   
   1872000   485.89473      1319.6314      1805.5261      293.40976      295.33621      0.22441261   
   1873000   483.72833      1341.2839      1825.0122      128.84331      300.18208      0.21568472   
   1874000   479.16971      1309.4889      1788.6586      2.7478615      293.0663       0.21525355   
   1875000   482.46138      1321.4667      1803.928       25.690083      295.74695      0.21845507   
   1876000   497.68792      1300.8612      1798.5492      48.496876      291.13542      0.2201445    
   1877000   482.40763      1299.3282      1781.7358      95.014083      290.79232      0.2188041    
   1878000   463.21882      1298.643       1761.8618      98.528801      290.63896      0.21810876   
   1879000   471.26808      1314.8198      1786.0879      138.91005      294.25938      0.21614188   
   1880000   471.96166      1321.9223      1793.8839      89.436524      295.84892      0.20862242   
   1881000   510.19447      1330.9926      1841.187       134.5354       297.87887      0.20545978   
   1882000   510.81186      1328.298       1839.1098      192.68942      297.27581      0.20832351   
   1883000   516.70495      1371.1497      1887.8547      220.32839      306.86612      0.21444755   
   1884000   471.0555       1379.2079      1850.2634      234.99174      308.66956      0.22027575   
   1885000   497.38196      1365.0504      1862.4324      192.7151       305.50109      0.2209895    
   1886000   483.50854      1359.2121      1842.7207      132.39966      304.19446      0.21994485   
   1887000   490.03107      1354.827       1844.8581      240.99304      303.21307      0.21898316   
   1888000   477.97037      1382.7563      1860.7266      230.29529      309.46369      0.22054942   
   1889000   497.26462      1397.1579      1894.4225      315.56137      312.6868       0.22596476   
   1890000   491.50376      1362.4408      1853.9445      280.97264      304.91704      0.22636087   
   1891000   470.41484      1337.462       1807.8769      270.7939       299.32675      0.22203894   
   1892000   500.37384      1353.9147      1854.2886      279.41485      303.00889      0.21453918   
   1893000   479.12369      1342.4514      1821.5751      186.26085      300.44338      0.20859736   
   1894000   501.23305      1315.0668      1816.2998      148.1689       294.31464      0.21303146   
   1895000   479.28162      1316.0247      1795.3064      106.05278      294.52904      0.22062471   
   1896000   499.0998       1317.593       1816.6928      43.997126      294.88002      0.22626604   
   1897000   470.96419      1339.6947      1810.6589      62.798586      299.82642      0.22844688   
   1898000   489.3726       1360.2542      1849.6268      145.73692      304.42768      0.22769761   
   1899000   471.64015      1361.474       1833.1141      246.41196      304.70067      0.22507393   
   1900000   482.51078      1350.5714      1833.0822      378.80397      302.26065      0.2240555    
   1901000   504.99905      1354.6148      1859.6138      399.23339      303.16557      0.22123717   
   1902000   496.15602      1373.9647      1870.1207      367.86253      307.49611      0.22014731   
   1903000   453.77961      1374.9976      1828.7772      283.62774      307.72728      0.22060755   
   1904000   488.77627      1353.0765      1841.8528      194.53368      302.8213       0.22038595   
   1905000   484.52506      1295.3873      1779.9124      66.004271      289.91034      0.21755499   
   1906000   462.86064      1341.0389      1803.8995      85.350633      300.12725      0.2162782    
   1907000   469.78409      1314.9172      1784.7013      105.33653      294.28117      0.21450585   
   1908000   486.00386      1305.668       1791.6719      267.13261      292.21118      0.21688065   
   1909000   478.58082      1321.3105      1799.8913      425.51667      295.71199      0.22493669   
   1910000   453.82963      1353.7392      1807.5688      446.08309      302.9696       0.23078251   
   1911000   482.95007      1298.256       1781.2061      316.25901      290.55235      0.22850949   
   1912000   446.05513      1273.3874      1719.4425      217.64381      284.98671      0.22550131   
   1913000   482.13044      1296.8533      1778.9838      106.78252      290.23844      0.22199067   
   1914000   490.39664      1299.7784      1790.1751     -2.254816       290.89308      0.21642688   
   1915000   472.81874      1359.1928      1832.0115      8.8269931      304.19014      0.20815304   
   1916000   521.28133      1338.4903      1859.7717      20.494051      299.55688      0.20176614   
   1917000   522.39358      1351.383       1873.7766      93.241058      302.44229      0.20110993   
   1918000   499.08513      1351.7715      1850.8567      185.83551      302.52924      0.20885162   
   1919000   480.33199      1376.6425      1856.9745      153.33707      308.09542      0.21782837   
   1920000   473.75439      1361.7674      1835.5218      214.31159      304.76633      0.22292231   
   1921000   485.58911      1362.0395      1847.6286      228.23267      304.82724      0.22472667   
   1922000   488.501        1340.3207      1828.8217      224.70357      299.96653      0.22689658   
   1923000   494.56997      1376.3723      1870.9422      266.78809      308.03494      0.22637752   
   1924000   459.11358      1366.2297      1825.3433      266.74373      305.76502      0.21921323   
   1925000   515.7153       1345.225       1860.9403      185.0945       301.06411      0.21160713   
   1926000   513.34636      1354.4111      1867.7575      150.36544      303.11999      0.20795986   
   1927000   515.91112      1350.3689      1866.28        111.07919      302.21533      0.20676414   
   1928000   497.00081      1389.4643      1886.4651      168.62944      310.96496      0.21145851   
   1929000   462.10186      1375.1884      1837.2902      291.75051      307.76998      0.21452376   
   1930000   495.87313      1366.5265      1862.3997      304.742        305.83145      0.21376366   
   1931000   503.65633      1376.2251      1879.8815      303.27582      308.00201      0.21207545   
   1932000   499.19655      1370.4848      1869.6813      256.09919      306.7173       0.21272327   
   1933000   481.02466      1324.4408      1805.4655      223.65967      296.41258      0.21689263   
   1934000   471.67813      1343.8669      1815.545       179.64015      300.76017      0.21704896   
   1935000   513.66141      1323.5912      1837.2526      129.18794      296.22243      0.21300211   
   1936000   500.59946      1369.4668      1870.0663      123.21171      306.48949      0.21037141   
   1937000   507.1191       1337.6247      1844.7438      160.79263      299.36316      0.20905338   
   1938000   490.67307      1357.1801      1847.8532      292.45993      303.7397       0.21951328   
   1939000   474.10229      1349.2172      1823.3195      405.11127      301.95759      0.23046737   
   1940000   473.80021      1374.9306      1848.7308      483.99928      307.71229      0.23676038   
   1941000   455.7026       1349.024       1804.7266      441.19204      301.91433      0.23673404   
   1942000   487.54515      1354.3184      1841.8636      266.19666      303.09924      0.22949829   
   1943000   500.76012      1318.368       1819.1281      183.3579       295.05346      0.22288041   
   1944000   488.74532      1323.9217      1812.667       20.825222      296.2964       0.21747051   
   1945000   456.76112      1362.855       1819.6162     -4.3991416      305.00976      0.21804454   
   1946000   466.64747      1297.5568      1764.2043      60.529568      290.39587      0.22090382   
   1947000   470.69921      1318.7853      1789.4845      218.1033       295.14685      0.2236672    
   1948000   462.09989      1311.1318      1773.2317      273.99337      293.43399      0.22297024   
   1949000   469.44165      1349.4999      1818.9415      319.44796      302.02084      0.22604063   
   1950000   471.21306      1342.8853      1814.0983      360.41066      300.54048      0.23169589   
   1951000   486.54778      1308.7954      1795.3432      188.32088      292.9111       0.23418806   
   1952000   457.42409      1284.6238      1742.0479      100.66227      287.50144      0.23226782   
   1953000   463.52087      1305.8578      1769.3787      49.752028      292.25366      0.22229857   
   1954000   467.41537      1328.8554      1796.2708     -5.9261436      297.40058      0.21322934   
   1955000   522.78505      1303.4742      1826.2593      46.445603      291.7202       0.21309297   
   1956000   485.06031      1329.4874      1814.5478      230.67457      297.54202      0.2182614    
   1957000   444.62528      1370.3696      1814.9948      370.43973      306.69152      0.22492382   
   1958000   486.67769      1346.9499      1833.6276      391.72187      301.45015      0.22795806   
   1959000   496.13968      1346.5702      1842.7099      379.08614      301.36518      0.22821863   
   1960000   465.06724      1352.541       1817.6083      239.74782      302.70145      0.22632484   
   1961000   473.60609      1372.0284      1845.6345      187.2725       307.06277      0.22037795   
   1962000   532.22897      1374.4161      1906.645       178.93556      307.59714      0.21424355   
   1963000   505.68844      1404.8581      1910.5465      218.51651      314.41012      0.20888702   
   1964000   527.58497      1366.8565      1894.4415      235.21473      305.90529      0.20771241   
   1965000   485.566        1355.6784      1841.2444      279.29912      303.40362      0.21210839   
   1966000   496.84678      1371.5009      1868.3477      236.44582      306.94472      0.22291145   
   1967000   530.07398      1423.4365      1953.5105      220.4796       318.56801      0.22786421   
   1968000   496.45983      1355.1173      1851.5771      138.63347      303.27803      0.22327831   
   1969000   488.44193      1354.943       1843.3849      16.52571       303.23903      0.21674393   
   1970000   494.50695      1380.8309      1875.3379      104.90608      309.03279      0.21669818   
   1971000   494.67813      1338.8093      1833.4874      107.09951      299.62827      0.21913263   
   1972000   508.03926      1342.0601      1850.0994      149.47735      300.35581      0.22505871   
   1973000   504.48567      1350.5947      1855.0804      235.35355      302.26586      0.22875168   
   1974000   493.19503      1394.1396      1887.3346      300.77149      312.0113       0.22956361   
   1975000   484.61452      1353.866       1838.4805      281.51806      302.99799      0.22630135   
   1976000   495.47602      1346.9064      1842.3824      296.36229      301.44042      0.22334072   
   1977000   485.75492      1373.4452      1859.2001      299.14662      307.37985      0.22476407   
   1978000   475.44621      1375.5595      1851.0058      266.29286      307.85305      0.23056913   
   1979000   496.00957      1341.482       1837.4915      198.0376       300.22642      0.23501571   
   1980000   482.59305      1344.3451      1826.9381      45.170434      300.86718      0.23343541   
   1981000   497.53005      1344.2734      1841.8035      4.982017       300.85116      0.22526982   
   1982000   473.41237      1336.4669      1809.8793      132.11189      299.10404      0.21808405   
   1983000   527.25914      1328.371       1855.6301      277.15562      297.29216      0.2179713    
   1984000   488.95947      1374.5831      1863.5426      345.4848       307.63452      0.22019828   
   1985000   452.09786      1375.8244      1827.9223      390.57371      307.91233      0.22715565   
   1986000   479.10087      1350.2667      1829.3676      308.661        302.19246      0.23098976   
   1987000   497.5415       1314.6418      1812.1833      291.50969      294.21953      0.23343502   
   1988000   464.6573       1345.9756      1810.6329      170.02712      301.2321       0.22911523   
   1989000   462.38313      1321.0037      1783.3868      75.092654      295.64333      0.22280728   
   1990000   483.18751      1319.2965      1802.484       15.801457      295.26127      0.22047474   
   1991000   501.23148      1342.6264      1843.8578      108.95236      300.48254      0.22090823   
   1992000   471.76938      1376.0369      1847.8063      191.24153      307.95988      0.22233105   
   1993000   477.3596       1351.0314      1828.391       278.09871      302.3636       0.22183457   
   1994000   510.17596      1357.7222      1867.8982      319.61259      303.86102      0.22170871   
   1995000   495.23233      1353.8816      1849.114       305.00281      303.00149      0.2224624    
   1996000   493.47429      1354.1698      1847.6441      300.0073       303.06599      0.22664507   
   1997000   446.01469      1359.6179      1805.6326      306.88147      304.28528      0.23176768   
   1998000   470.68515      1346.957       1817.6421      268.58203      301.45173      0.23277799   
   1999000   483.29438      1334.6632      1817.9575      166.23193      298.70036      0.22639207   
   2000000   495.94075      1281.5594      1777.5001      92.290224      286.81562      0.21868764   
Loop time of 7638.98 on 8 procs for 2000000 steps with 1500 atoms

Performance: 11.310 ns/day, 2.122 hours/ns, 261.815 timesteps/s, 392.722 katom-step/s
99.5% CPU use with 8 MPI tasks x 1 OpenMP threads

MPI task timing breakdown:
Section |  min time  |  avg time  |  max time  |%varavg| %total
---------------------------------------------------------------
Pair    | 458.16     | 466.67     | 476.58     |  29.6 |  6.11
Bond    | 20.848     | 21.053     | 21.29      |   2.9 |  0.28
Kspace  | 3084.8     | 3094.7     | 3101.9     |  10.8 | 40.51
Neigh   | 7.5872     | 7.5942     | 7.6011     |   0.2 |  0.10
Comm    | 143.77     | 144.41     | 145.2      |   4.6 |  1.89
Output  | 0.45141    | 1.0959     | 5.6065     | 162.9 |  0.01
Modify  | 3360.3     | 3579.6     | 3893.4     | 263.1 | 46.86
Other   |            | 323.9      |            |       |  4.24

Nlocal:          187.5 ave         215 max         158 min
Histogram: 1 0 2 0 1 1 0 0 2 1
Nghost:        1953.25 ave        2025 max        1887 min
Histogram: 1 2 1 0 0 1 0 1 0 2
Neighs:        18794.1 ave       22433 max       14634 min
Histogram: 1 0 2 0 1 0 1 0 1 2

Total # of neighbors = 150353
Ave neighs/atom = 100.23533
Ave special neighs/atom = 2
Neighbor list builds = 12325
Dangerous builds = 0
System init for write_data ...
PPPM initialization ...
  using 12-bit tables for long-range coulomb (src/kspace.cpp:342)
  G vector (1/distance) = 0.27017315
  grid = 45 45 45
  stencil order = 5
  estimated absolute RMS force accuracy = 0.00040634323
  estimated relative force accuracy = 1.2236906e-06
  using single precision FFTW3
  3d grid and FFT values/proc = 27000 12420
Generated 1 of 1 mixed pair_coeff terms from arithmetic mixing rule
Last active /omp style is kspace_style pppm/omp
