LAMMPS (19 Nov 2024)
OMP_NUM_THREADS environment is not set. Defaulting to 1 thread. (src/comm.cpp:99)
  using 1 OpenMP thread(s) per MPI task
using multi-threaded neighbor list subroutines
Reading data file ...
  orthogonal box = (0 0 0) to (51.724067 51.724067 51.724067)
  2 by 2 by 2 MPI processor grid
  reading atoms ...
  1500 atoms
  scanning bonds ...
  1 = max bonds/atom
  scanning angles ...
  1 = max angles/atom
  orthogonal box = (0 0 0) to (51.724067 51.724067 51.724067)
  2 by 2 by 2 MPI processor grid
  reading bonds ...
  1000 bonds
  reading angles ...
  500 angles
Finding 1-2 1-3 1-4 neighbors ...
  special bond factors lj:    0        0        0       
  special bond factors coul:  0        0        0       
     2 = max # of 1-2 neighbors
     1 = max # of 1-3 neighbors
     1 = max # of 1-4 neighbors
     2 = max # of special neighbors
  special bonds CPU = 0.012 seconds
  read_data CPU = 0.158 seconds
Setting atom values ...
  1000 settings made for charge
Setting atom values ...
  500 settings made for charge
1000 atoms in group oxy
500 atoms in group carb
PPPM initialization ...
  using 12-bit tables for long-range coulomb (src/kspace.cpp:342)
  G vector (1/distance) = 0.26873989
  grid = 48 48 48
  stencil order = 5
  estimated absolute RMS force accuracy = 0.00039673335
  estimated relative force accuracy = 1.1947507e-06
  using single precision FFTW3
  3d grid and FFT values/proc = 29791 13824
Generated 1 of 1 mixed pair_coeff terms from arithmetic mixing rule
Last active /omp style is kspace_style pppm/omp
Neighbor list info ...
  update: every = 1 steps, delay = 0 steps, check = yes
  max neighbors/atom: 2000, page size: 100000
  master list distance cutoff = 15
  ghost atom cutoff = 15
  binsize = 7.5, bins = 7 7 7
  1 neighbor lists, perpetual/occasional/extra = 1 0 0
  (1) pair lj/cut/coul/long/omp, perpetual
      attributes: half, newton on, omp
      pair build: half/bin/newton/omp
      stencil: half/bin/3d
      bin: standard
Setting up cg style minimization ...
  Unit style    : real
  Current step  : 0
Per MPI rank memory allocation (min/avg/max) = 9.589 | 9.598 | 9.606 Mbytes
   Step          Temp          E_pair         E_mol          TotEng         Press     
         0   0              29.250573      1.5236362e-05  29.250588      399.94699    
      9001   0             -568.75321      0.31293479    -568.44028     -16.124611    
Loop time of 43.7787 on 8 procs for 9001 steps with 1500 atoms

99.2% CPU use with 8 MPI tasks x 1 OpenMP threads

Minimization stats:
  Stopping criterion = energy tolerance
  Energy initial, next-to-last, final = 
      29.2505878469758  -568.440152340939  -568.440275660286
  Force two-norm initial, final = 111.77387 0.8963406
  Force max component initial, final = 14.621383 0.13761565
  Final line search alpha, max atom move = 0.83089082 0.11434358
  Iterations, force evaluations = 9001 17999

MPI task timing breakdown:
Section |  min time  |  avg time  |  max time  |%varavg| %total
---------------------------------------------------------------
Pair    | 3.882      | 7.9263     | 10.672     |  90.7 | 18.11
Bond    | 0.1387     | 0.16218    | 0.20126    |   5.2 |  0.37
Kspace  | 30.748     | 33.55      | 37.702     |  44.9 | 76.64
Neigh   | 0.026859   | 0.027811   | 0.028443   |   0.3 |  0.06
Comm    | 1.4051     | 1.5608     | 1.6996     |   8.4 |  3.57
Output  | 0          | 0          | 0          |   0.0 |  0.00
Modify  | 0.038041   | 0.043848   | 0.049438   |   1.4 |  0.10
Other   |            | 0.5079     |            |       |  1.16

Nlocal:          187.5 ave         277 max         102 min
Histogram: 1 1 1 0 1 2 0 0 0 2
Nghost:        1911.88 ave        1989 max        1786 min
Histogram: 1 0 0 1 0 2 1 0 1 2
Neighs:        22235.9 ave       35846 max        5875 min
Histogram: 1 0 2 0 0 1 1 1 0 2

Total # of neighbors = 177887
Ave neighs/atom = 118.59133
Ave special neighs/atom = 2
Neighbor list builds = 43
Dangerous builds = 0
PPPM initialization ...
  using 12-bit tables for long-range coulomb (src/kspace.cpp:342)
  G vector (1/distance) = 0.26873989
  grid = 48 48 48
  stencil order = 5
  estimated absolute RMS force accuracy = 0.00039673335
  estimated relative force accuracy = 1.1947507e-06
  using single precision FFTW3
  3d grid and FFT values/proc = 29791 13824
Generated 1 of 1 mixed pair_coeff terms from arithmetic mixing rule
Last active /omp style is kspace_style pppm/omp
Setting up Verlet run ...
  Unit style    : real
  Current step  : 9001
  Time step     : 0.1
Per MPI rank memory allocation (min/avg/max) = 8.482 | 8.484 | 8.486 Mbytes
   Step         PotEng         KinEng         TotEng         Press           Temp        v_Density   
      9001  -568.44028      1340.4703      772.03         426.67991      300            0.16747647   
     10000   269.95416      1154.1465      1424.1007      265.9527       258.30036      0.13796257   
     11000   85.513085      1428.2657      1513.7787      215.79657      319.64879      0.12054023   
     12000   244.31928      1297.9491      1542.2684      130.5322       290.48368      0.11593343   
     13000   221.21327      1324.8822      1546.0955      138.27818      296.51135      0.11774786   
     14000   180.4284       1385.6187      1566.0471      173.23268      310.10431      0.12260031   
     15000   256.26093      1287.6482      1543.9091      120.37032      288.17831      0.12845032   
     16000   177.86023      1387.7504      1565.6106      182.03637      310.58138      0.13226681   
     17000   245.25727      1235.5454      1480.8027      134.00886      276.5176       0.13853903   
     18000   205.70366      1344.2414      1549.945       168.45707      300.84397      0.14290783   
     19000   256.08192      1257.7369      1513.8188      128.07779      281.4841       0.14945789   
     20000   237.08263      1326.9739      1564.0566      175.71803      296.97949      0.15436657   
     21000   252.80039      1280.5688      1533.3692      133.31463      286.59393      0.15831382   
     22000   263.2257       1301.9112      1565.1369      133.68541      291.3704       0.16725392   
     23000   252.66709      1365.1419      1617.809       161.87373      305.52156      0.16350731   
     24000   314.56718      1274.7257      1589.2929      153.49428      285.28623      0.158174     
     25000   319.58756      1317.5965      1637.1841      146.91063      294.8808       0.15246201   
     26000   314.02498      1251.2761      1565.301       110.90364      280.03815      0.15640679   
     27000   307.71128      1326.3431      1634.0544      184.09525      296.8383       0.16433565   
     28000   325.86997      1304.6633      1630.5333      162.68892      291.98632      0.16080536   
     29000   320.85978      1326.2004      1647.0602      125.76377      296.80638      0.15827695   
     30000   326.22181      1316.3548      1642.5766      143.63625      294.60291      0.16080936   
     31000   305.34867      1343.1474      1648.4961      233.41195      300.59914      0.1627287    
     32000   315.15956      1383.1476      1698.3071      177.97419      309.55127      0.16843789   
     33000   328.24447      1345.3958      1673.6403      64.084667      301.10235      0.16301422   
     34000   321.75644      1338.0181      1659.7745      161.90615      299.4512       0.15425734   
     35000   347.61252      1323.2818      1670.8943      221.02349      296.15318      0.15237201   
     36000   346.87784      1371.5633      1718.4412      154.61501      306.95869      0.15079107   
     37000   363.62217      1356.2739      1719.8961      53.922731      303.53688      0.14593792   
     38000   371.26645      1353.8886      1725.155       175.43834      303.00304      0.15251524   
     39000   335.79526      1373.1542      1708.9494      252.46993      307.31472      0.15118161   
     40000   340.20879      1353.6946      1693.9034      121.53372      302.95962      0.14714723   
     41000   340.90172      1282.4954      1623.3971      53.999092      287.02511      0.15599261   
     42000   326.41634      1349.9994      1676.4157      222.91278      302.13263      0.15666264   
     43000   365.27789      1321.2237      1686.5016      229.07342      295.69257      0.15493791   
     44000   307.83254      1364.238       1672.0706      110.42798      305.31927      0.16012629   
     45000   331.75358      1293.7931      1625.5466      49.950586      289.55354      0.16930187   
     46000   310.53981      1331.1838      1641.7236      242.3629       297.92166      0.16296188   
     47000   333.47814      1354.6489      1688.1271      246.03826      303.17322      0.15543794   
     48000   342.59764      1292.6499      1635.2476      87.339648      289.29771      0.14878885   
     49000   352.9554       1344.8567      1697.8122      111.47643      300.9817       0.1473229    
     50000   351.13916      1345.7538      1696.893       222.87265      301.18247      0.14598146   
     51000   349.31796      1338.8227      1688.1407      214.63739      299.63127      0.15576236   
     52000   365.42728      1342.0497      1707.4769      73.07224       300.35347      0.15829902   
     53000   353.48245      1386.745       1740.2274      124.88505      310.35637      0.14983725   
     54000   365.27195      1373.679       1738.951       236.40075      307.43218      0.14979101   
     55000   369.88115      1367.462       1737.3432      176.85962      306.0408       0.1536294    
     56000   354.71461      1362.1807      1716.8953      59.640554      304.85884      0.15108424   
     57000   365.7465       1357.081       1722.8275      144.49976      303.71752      0.14044065   
     58000   386.35251      1375.3712      1761.7237      250.744        307.8109       0.14754397   
     59000   356.65173      1361.6553      1718.307       147.74099      304.74125      0.14541906   
     59001   362.54818      1355.6482      1718.1964      143.03192      303.39685      0.14541291   
Loop time of 223.915 on 8 procs for 50000 steps with 1500 atoms

Performance: 1.929 ns/day, 12.440 hours/ns, 223.299 timesteps/s, 334.949 katom-step/s
99.3% CPU use with 8 MPI tasks x 1 OpenMP threads

MPI task timing breakdown:
Section |  min time  |  avg time  |  max time  |%varavg| %total
---------------------------------------------------------------
Pair    | 6.2616     | 10.089     | 13.144     |  70.3 |  4.51
Bond    | 0.41426    | 0.50964    | 0.61982    |   9.6 |  0.23
Kspace  | 91.95      | 95.156     | 99.275     |  24.2 | 42.50
Neigh   | 0.045915   | 0.047336   | 0.048083   |   0.4 |  0.02
Comm    | 3.7163     | 4.0719     | 4.44       |  11.5 |  1.82
Output  | 0.0037155  | 0.0039981  | 0.005716   |   1.0 |  0.00
Modify  | 105.95     | 110.47     | 113.08     |  25.8 | 49.34
Other   |            | 3.565      |            |       |  1.59

Nlocal:          187.5 ave         213 max         128 min
Histogram: 1 0 0 0 0 0 2 2 1 2
Nghost:        1578.88 ave        1642 max        1551 min
Histogram: 3 1 0 2 1 0 0 0 0 1
Neighs:          12903 ave       16665 max        8285 min
Histogram: 1 0 0 0 2 3 0 0 1 1

Total # of neighbors = 103224
Ave neighs/atom = 68.816
Ave special neighs/atom = 2
Neighbor list builds = 88
Dangerous builds = 0
PPPM initialization ...
  using 12-bit tables for long-range coulomb (src/kspace.cpp:342)
  G vector (1/distance) = 0.26830734
  grid = 50 50 50
  stencil order = 5
  estimated absolute RMS force accuracy = 0.00038089105
  estimated relative force accuracy = 1.1470421e-06
  using single precision FFTW3
  3d grid and FFT values/proc = 32768 16250
Generated 1 of 1 mixed pair_coeff terms from arithmetic mixing rule
Last active /omp style is kspace_style pppm/omp
Setting up Verlet run ...
  Unit style    : real
  Current step  : 59001
  Time step     : 0.25
Per MPI rank memory allocation (min/avg/max) = 8.668 | 8.756 | 8.977 Mbytes
   Step         PotEng         KinEng         TotEng         Press           Temp        v_Density   
     59001   362.54921      1355.6482      1718.1974      143.03146      303.39685      0.14541291   
     60000   371.58522      1317.2391      1688.8243      82.119641      294.80081      0.15585523   
     61000   386.77544      1382.8198      1769.5953      6.9785288      309.47792      0.14989222   
     62000   391.80661      1371.6717      1763.4783      127.78971      306.98295      0.15648991   
     63000   399.1357       1353.8077      1752.9435      212.58942      302.98495      0.15643499   
     64000   402.76701      1361.7697      1764.5367      268.40998      304.76684      0.14730007   
     65000   376.63277      1374.8939      1751.5267      206.12465      307.70408      0.15876573   
     66000   379.56699      1345.1725      1724.7395      83.214613      301.05237      0.15499338   
     67000   381.28078      1335.2044      1716.4851      66.065707      298.82148      0.15238563   
     68000   380.31453      1306.3598      1686.6744      144.05571      292.36602      0.15558124   
     69000   386.12096      1310.4845      1696.6054      213.60917      293.28911      0.15513672   
     70000   364.61512      1273.2803      1637.8954      218.24184      284.96274      0.15690902   
     71000   387.89517      1310.3859      1698.2811      180.65129      293.26705      0.15436215   
     72000   401.27667      1397.1943      1798.4709      171.08104      312.69494      0.1595516    
     73000   401.32507      1411.8439      1813.169       152.88035      315.97356      0.14978817   
     74000   381.43514      1386.9068      1768.3419      170.1287       310.39259      0.15057218   
     75000   382.31595      1373.0729      1755.3889      171.77116      307.29654      0.15615607   
     76000   388.27966      1338.1061      1726.3858      180.0189       299.47089      0.16073408   
     77000   388.07825      1336.7947      1724.873       167.21356      299.1774       0.15685632   
     78000   396.65085      1388.5344      1785.1853      170.57111      310.75685      0.15752776   
     79000   403.3374       1378.6115      1781.949       157.09723      308.53609      0.15256644   
     80000   396.00264      1332.6967      1728.6993      148.11418      298.26025      0.15706241   
     81000   379.81393      1326.7361      1706.5501      153.95435      296.92627      0.15439184   
     82000   389.58135      1321.3812      1710.9626      167.90199      295.72783      0.14910483   
     83000   377.56031      1346.3269      1723.8872      164.89585      301.31071      0.1568188    
     84000   410.35814      1349.2527      1759.6108      164.73827      301.96552      0.15550924   
     85000   378.56053      1365.4936      1744.0541      190.76213      305.60027      0.16545598   
     86000   373.40598      1376.674       1750.0799      118.29856      308.10246      0.15465672   
     87000   392.52714      1339.7574      1732.2845      123.64647      299.84045      0.16070968   
     88000   388.09514      1302.3905      1690.4856      122.85941      291.47766      0.15670843   
     89000   374.28984      1310.4045      1684.6943      182.94696      293.27121      0.15611984   
     90000   369.0787       1307.1342      1676.2129      211.08465      292.53932      0.16343567   
     91000   375.86545      1316.7476      1692.6131      178.74266      294.69083      0.15446353   
     92000   359.94006      1298.1313      1658.0713      135.89466      290.52444      0.15735912   
     93000   375.07239      1336.326       1711.3984      158.93534      299.07251      0.15522996   
     94000   367.99857      1351.6608      1719.6594      204.74052      302.50446      0.14772532   
     95000   382.15704      1378.503       1760.6601      201.34204      308.51181      0.15967137   
     96000   388.58015      1360.9368      1749.5169      158.87206      304.58044      0.15214023   
     97000   378.26598      1362.5451      1740.8111      50.205668      304.9404       0.15353609   
     98000   380.47201      1415.1299      1795.6019      106.1665       316.70897      0.15284131   
     99000   356.85267      1358.2438      1715.0965      142.24649      303.97775      0.15818959   
    100000   392.94162      1331.0794      1724.021       154.87266      297.8983       0.14331457   
    101000   413.94214      1384.9839      1798.926       206.18949      309.96224      0.15325006   
    102000   390.67175      1362.7536      1753.4253      156.83826      304.98705      0.15428374   
    103000   401.73608      1349.5266      1751.2627      105.41854      302.02682      0.14524226   
    104000   396.54851      1427.0536      1823.6022      86.953163      319.37753      0.14845439   
    105000   387.91821      1413.2874      1801.2056      116.10539      316.29663      0.14918834   
    106000   391.22624      1371.4484      1762.6747      201.81856      306.93297      0.14732013   
    107000   401.70337      1383.1759      1784.8792      227.7253       309.5576       0.15422351   
    108000   399.06922      1389.0189      1788.0881      177.22248      310.86528      0.14480978   
    109000   374.11197      1307.6506      1681.7626      151.01814      292.65489      0.15331556   
    109001   365.19839      1312.7772      1677.9756      153.76025      293.80223      0.15331631   
Loop time of 262.203 on 8 procs for 50000 steps with 1500 atoms

Performance: 4.119 ns/day, 5.827 hours/ns, 190.692 timesteps/s, 286.037 katom-step/s
99.4% CPU use with 8 MPI tasks x 1 OpenMP threads

MPI task timing breakdown:
Section |  min time  |  avg time  |  max time  |%varavg| %total
---------------------------------------------------------------
Pair    | 7.6525     | 8.5971     | 9.44       |  19.4 |  3.28
Bond    | 0.47926    | 0.51948    | 0.55313    |   3.1 |  0.20
Kspace  | 114.84     | 115.96     | 116.82     |   5.5 | 44.23
Neigh   | 0.092674   | 0.095968   | 0.097655   |   0.6 |  0.04
Comm    | 3.8805     | 4.2249     | 4.5753     |  11.4 |  1.61
Output  | 0.0030777  | 0.0033307  | 0.0050271  |   1.1 |  0.00
Modify  | 111.42     | 123.1      | 132.33     |  67.7 | 46.95
Other   |            | 9.697      |            |       |  3.70

Nlocal:          187.5 ave         214 max         173 min
Histogram: 1 1 3 1 0 1 0 0 0 1
Nghost:        1601.38 ave        1643 max        1531 min
Histogram: 1 0 0 1 0 1 2 0 1 2
Neighs:        13112.8 ave       16776 max       10971 min
Histogram: 1 2 0 1 3 0 0 0 0 1

Total # of neighbors = 104902
Ave neighs/atom = 69.934667
Ave special neighs/atom = 2
Neighbor list builds = 199
Dangerous builds = 0
PPPM initialization ...
  using 12-bit tables for long-range coulomb (src/kspace.cpp:342)
  G vector (1/distance) = 0.26921247
  grid = 50 50 50
  stencil order = 5
  estimated absolute RMS force accuracy = 0.00036270234
  estimated relative force accuracy = 1.0922673e-06
  using single precision FFTW3
  3d grid and FFT values/proc = 32768 16250
Generated 1 of 1 mixed pair_coeff terms from arithmetic mixing rule
Last active /omp style is kspace_style pppm/omp
Setting up Verlet run ...
  Unit style    : real
  Current step  : 109001
  Time step     : 0.5
Per MPI rank memory allocation (min/avg/max) = 8.668 | 8.756 | 8.977 Mbytes
   Step         PotEng         KinEng         TotEng         Press           Temp        v_Density   
    109001   365.19812      1312.7772      1677.9753      153.76034      293.80223      0.15331631   
    110000   470.85237      1323.4198      1794.2722      148.65659      296.18407      0.16799172   
    111000   492.67348      1343.6627      1836.3362      158.5974       300.71448      0.17250369   
    112000   519.36241      1317.8395      1837.2019      91.290315      294.93518      0.1723185    
    113000   501.17768      1367.0683      1868.246       225.618        305.95269      0.17114157   
    114000   458.74807      1362.3579      1821.106       208.20356      304.8985       0.17547161   
    115000   461.23196      1361.4165      1822.6484      81.929272      304.6878       0.17167847   
    116000   479.06605      1403.0668      1882.1329      184.60354      314.00924      0.16974859   
    117000   460.98499      1327.4959      1788.4809      198.04362      297.0963       0.18097363   
    118000   508.15201      1337.7953      1845.9473      110.19053      299.40134      0.17626567   
    119000   480.37673      1335.9145      1816.2912      155.08809      298.9804       0.17639338   
    120000   454.72276      1338.8759      1793.5986      198.79584      299.64317      0.182181     
    121000   489.03099      1341.1929      1830.2239      108.22459      300.16172      0.18054557   
    122000   484.98006      1322.9313      1807.9113      189.74343      296.07473      0.17129222   
    123000   463.15858      1322.8661      1786.0247      196.39287      296.06016      0.18076475   
    124000   500.22245      1310.6555      1810.878       45.897624      293.32739      0.17803897   
    125000   471.31385      1364.4803      1835.7942      142.20651      305.37349      0.17997468   
    126000   477.7893       1334.6331      1812.4224      205.51461      298.69363      0.17794319   
    127000   480.15653      1296.8986      1777.0552      84.840998      290.24858      0.17120425   
    128000   462.55771      1350.8498      1813.4075      89.299043      302.32296      0.1792748    
    129000   474.06215      1340.7845      1814.8466      253.43131      300.07032      0.1823136    
    130000   495.79034      1357.2484      1853.0387      94.799828      303.75497      0.16513523   
    131000   492.208        1377.0817      1869.2897      112.22799      308.19372      0.17950922   
    132000   490.12555      1316.17        1806.2955      242.46815      294.56154      0.17166712   
    133000   458.3944       1361.2737      1819.6681      150.00356      304.65585      0.16552937   
    134000   474.56422      1365.4589      1840.0231      135.35785      305.5925       0.16853892   
    135000   469.55925      1336.976       1806.5353      231.03883      299.21798      0.16341256   
    136000   522.49627      1307.1385      1829.6347      108.56418      292.54027      0.16544632   
    137000   516.24114      1340.968       1857.2092      93.699788      300.11139      0.17585939   
    138000   496.94624      1338.5866      1835.5328      222.54029      299.57843      0.17431896   
    139000   429.53956      1318.2533      1747.7928      207.9833       295.02779      0.17248204   
    140000   480.98686      1325.6594      1806.6462      31.404162      296.68529      0.1798983    
    141000   470.57225      1352.5772      1823.1494      230.49775      302.70954      0.1761902    
    142000   473.48023      1312.5721      1786.0523      181.09877      293.75633      0.17214807   
    143000   488.31203      1351.1616      1839.4737      22.189366      302.39274      0.1766698    
    144000   440.17892      1328.3584      1768.5373      225.41712      297.28934      0.1747601    
    145000   448.92399      1334.8401      1783.7641      201.10168      298.73995      0.1738824    
    146000   491.03333      1348.5182      1839.5515      84.415642      301.80113      0.17362085   
    147000   462.53299      1277.8699      1740.4028      206.57394      285.9899       0.17430619   
    148000   454.54888      1345.8071      1800.356       202.85264      301.19439      0.1823568    
    149000   460.49468      1326.0062      1786.5009      42.417939      296.76291      0.1911161    
    150000   480.91358      1341.6567      1822.5703      248.88377      300.26552      0.19749887   
    151000   481.15947      1350.064       1831.2235      206.16106      302.14709      0.17892198   
    152000   491.40502      1318.8055      1810.2105      14.635102      295.15137      0.18347632   
    153000   439.80529      1340.3823      1780.1876      181.89843      299.98031      0.18741607   
    154000   485.64849      1396.717       1882.3655      279.41855      312.58812      0.17764946   
    155000   478.78413      1340.0456      1818.8297      28.602218      299.90495      0.18039699   
    156000   477.02273      1340.0923      1817.115       114.62271      299.9154       0.18141246   
    157000   489.07575      1329.9353      1819.0111      333.77449      297.64225      0.18455252   
    158000   490.51015      1337.7335      1828.2436      57.650237      299.3875       0.19237179   
    159000   472.45766      1331.5424      1804.0001      90.920391      298.00193      0.17722469   
    159001   472.56559      1332.0274      1804.5929      96.715901      298.11046      0.17716077   
Loop time of 263.202 on 8 procs for 50000 steps with 1500 atoms

Performance: 8.207 ns/day, 2.924 hours/ns, 189.968 timesteps/s, 284.953 katom-step/s
99.4% CPU use with 8 MPI tasks x 1 OpenMP threads

MPI task timing breakdown:
Section |  min time  |  avg time  |  max time  |%varavg| %total
---------------------------------------------------------------
Pair    | 9.339      | 9.8023     | 10.281     |  10.6 |  3.72
Bond    | 0.49225    | 0.52191    | 0.54519    |   2.2 |  0.20
Kspace  | 115.33     | 115.94     | 116.3      |   2.9 | 44.05
Neigh   | 0.22464    | 0.23164    | 0.23494    |   0.9 |  0.09
Comm    | 4.0096     | 4.4007     | 4.7944     |  13.1 |  1.67
Output  | 0.0027648  | 0.0030267  | 0.0047224  |   1.2 |  0.00
Modify  | 111.38     | 122.78     | 131.78     |  66.5 | 46.65
Other   |            | 9.531      |            |       |  3.62

Nlocal:          187.5 ave         223 max         170 min
Histogram: 5 0 0 0 0 0 1 0 1 1
Nghost:        1800.38 ave        1875 max        1723 min
Histogram: 1 1 0 1 0 2 1 1 0 1
Neighs:        15691.1 ave       21806 max       12313 min
Histogram: 3 1 1 0 1 0 0 0 1 1

Total # of neighbors = 125529
Ave neighs/atom = 83.686
Ave special neighs/atom = 2
Neighbor list builds = 399
Dangerous builds = 0
PPPM initialization ...
  using 12-bit tables for long-range coulomb (src/kspace.cpp:342)
  G vector (1/distance) = 0.26971905
  grid = 48 48 48
  stencil order = 5
  estimated absolute RMS force accuracy = 0.00037642317
  estimated relative force accuracy = 1.1335872e-06
  using single precision FFTW3
  3d grid and FFT values/proc = 29791 13824
Generated 1 of 1 mixed pair_coeff terms from arithmetic mixing rule
Last active /omp style is kspace_style pppm/omp
Setting up Verlet run ...
  Unit style    : real
  Current step  : 0
  Time step     : 0.5
Per MPI rank memory allocation (min/avg/max) = 8.483 | 8.552 | 8.753 Mbytes
   Step         PotEng         KinEng         TotEng         Press           Temp        v_Density   
         0   472.56541      1332.0274      1804.5928      96.715303      298.11046      0.17716077   
      1000   462.71664      1323.0567      1785.7734      11.588464      296.10281      0.17823426   
      2000   455.88471      1337.1466      1793.0313      56.80678       299.25615      0.18058007   
      3000   463.26017      1304.532       1767.7922      82.401349      291.95695      0.18173531   
      4000   441.51831      1322.8567      1764.3751      156.91703      296.05805      0.18165915   
      5000   485.41926      1312.7827      1798.2019      177.7843       293.80346      0.17889085   
      6000   467.31958      1329.4587      1796.7783      163.90582      297.53559      0.17680922   
      7000   459.62308      1308.6918      1768.3149      132.76923      292.88791      0.1749012    
      8000   491.88882      1298.9776      1790.8664      130.23378      290.71386      0.17481094   
      9000   450.77792      1345.9415      1796.7194      108.8012       301.22447      0.17847129   
     10000   459.28035      1281.9578      1741.2381      125.38567      286.90479      0.18192866   
     11000   483.97756      1292.755       1776.7326      183.20466      289.32123      0.18279841   
     12000   439.34925      1372.7435      1812.0927      197.14015      307.2228       0.18004038   
     13000   488.89657      1358.9012      1847.7977      168.10424      304.12487      0.17446683   
     14000   504.79128      1314.2806      1819.0719      138.13015      294.1387       0.1690854    
     15000   496.66508      1311.6807      1808.3458      130.49071      293.55683      0.16739395   
     16000   485.19583      1281.0962      1766.292       99.792609      286.71196      0.16838124   
     17000   492.72477      1317.5309      1810.2557      152.69515      294.86612      0.17376886   
     18000   447.07425      1337.6651      1784.7393      167.96812      299.37218      0.17814549   
     19000   444.86937      1325.1378      1770.0071      138.85395      296.56855      0.18138407   
     20000   461.18471      1304.3176      1765.5023      93.010463      291.90896      0.18259392   
     21000   447.67405      1299.3786      1747.0526      64.686295      290.80359      0.18329318   
     22000   446.56949      1306.8817      1753.4512      117.30756      292.4828       0.18619149   
     23000   443.68331      1321.0622      1764.7455      189.82478      295.65643      0.19005403   
     24000   453.8705       1326.3727      1780.2432      237.51745      296.84492      0.19399966   
     25000   456.69426      1328.9434      1785.6376      254.66081      297.42025      0.19849801   
     26000   439.21294      1309.6774      1748.8904      220.28787      293.10849      0.20195469   
     27000   445.22762      1269.6153      1714.843       62.403302      284.14252      0.19705726   
     28000   458.5082       1309.1915      1767.6997      6.7326315      292.99975      0.18612002   
     29000   451.28693      1338.0543      1789.3413      40.936093      299.45931      0.18372141   
     30000   473.51736      1313.8196      1787.3369      102.79647      294.03552      0.18403048   
     31000   476.69873      1317.0643      1793.763       277.83236      294.76168      0.18408204   
     32000   460.02655      1319.192       1779.2185      315.75703      295.23788      0.18297818   
     33000   464.16399      1302.2854      1766.4494      283.46169      291.45415      0.18293471   
     34000   453.80178      1351.5822      1805.3839      263.84351      302.48686      0.18712084   
     35000   476.30355      1314.636       1790.9395      170.68516      294.21823      0.19007491   
     36000   453.31767      1295.5546      1748.8723      105.28687      289.94778      0.18832328   
     37000   434.86714      1337.6563      1772.5234      50.786417      299.37023      0.18420461   
     38000   477.27622      1340.5728      1817.849       37.744316      300.02295      0.1816649    
     39000   475.46041      1334.8466      1810.3071      15.958011      298.74142      0.17977344   
     40000   473.46504      1350.4448      1823.9099      37.074802      302.23232      0.18236919   
     41000   460.67719      1406.8579      1867.5351      64.944426      314.85769      0.19061927   
     42000   477.69649      1381.4394      1859.1359      63.754633      309.16898      0.19426037   
     43000   466.48387      1336.6896      1803.1734      107.86434      299.15387      0.19348472   
     44000   441.2902       1373.843       1815.1332      175.79289      307.46889      0.19193686   
     45000   467.2852       1378.5905      1845.8757      223.27454      308.53137      0.18942342   
     46000   480.5322       1366.8952      1847.4274      265.26769      305.91394      0.18624456   
     47000   472.77025      1385.5929      1858.3631      278.23839      310.09853      0.18254507   
     48000   477.90638      1322.8713      1800.7777      264.04695      296.06132      0.17612149   
     49000   483.90808      1310.4146      1794.3227      236.93966      293.27348      0.17339561   
     50000   483.66024      1336.0263      1819.6865      232.38754      299.00542      0.17496468   
     51000   451.2778       1325.0338      1776.3116      270.7926       296.54529      0.17985437   
     52000   475.65301      1320.7825      1796.4355      248.05778      295.59383      0.18575376   
     53000   462.88236      1321.8486      1784.731       213.19969      295.83243      0.19023704   
     54000   438.57145      1335.1201      1773.6915      258.07844      298.80261      0.19507949   
     55000   478.86082      1320.9405      1799.8013      271.47883      295.62919      0.19421693   
     56000   440.92698      1300.3238      1741.2507      228.89333      291.01512      0.18621137   
     57000   473.51104      1328.171       1801.682       229.66965      297.24739      0.17735808   
     58000   467.92456      1305.7464      1773.671       186.42874      292.22874      0.17352636   
     59000   481.95233      1338.0777      1820.03        182.79854      299.46454      0.1744078    
     60000   512.25165      1335.1461      1847.3977      150.82551      298.80843      0.17524383   
     61000   496.40757      1338.1249      1834.5324      155.71749      299.47509      0.1767058    
     62000   465.03455      1354.343       1819.3775      211.61502      303.10474      0.18069511   
     63000   460.17751      1368.9913      1829.1688      232.73668      306.38306      0.18550531   
     64000   475.84594      1393.5095      1869.3554      268.12602      311.87028      0.19005418   
     65000   497.87416      1347.8778      1845.752       221.95061      301.65783      0.18527214   
     66000   483.62277      1360.7077      1844.3305      216.95209      304.52918      0.17648906   
     67000   476.58072      1382.0914      1858.6722      183.0306       309.3149       0.17439763   
     68000   508.16006      1357.7973      1865.9574      171.45559      303.87783      0.17500727   
     69000   512.55776      1351.1095      1863.6673      150.24834      302.38108      0.17633126   
     70000   453.16529      1402.0695      1855.2347      143.38008      313.78602      0.17878875   
     71000   471.17284      1395.006       1866.1788      167.23014      312.2052       0.17981357   
     72000   471.083        1338.6708      1809.7538      152.63786      299.59728      0.17637672   
     73000   501.13666      1337.8258      1838.9625      137.94707      299.40816      0.16881376   
     74000   491.98527      1334.6452      1826.6305      118.34997      298.69635      0.16343657   
     75000   484.04013      1313.4387      1797.4788      112.72511      293.95028      0.1659353    
     76000   473.69726      1344.053       1817.7503      134.53416      300.80182      0.17250681   
     77000   480.27732      1324.6692      1804.9465      59.497624      296.46368      0.17576808   
     78000   496.73274      1327.8141      1824.5469      63.863224      297.16753      0.17929364   
     79000   477.31644      1327.8484      1805.1649      68.538314      297.1752       0.18153615   
     80000   461.37966      1354.4236      1815.8032      108.69147      303.12278      0.18400517   
     81000   474.81778      1347.326       1822.1438      127.03019      301.53433      0.18421705   
     82000   458.86602      1306.8202      1765.6862      190.18942      292.46904      0.18380099   
     83000   444.03735      1327.1833      1771.2206      233.4824       297.02634      0.18448974   
     84000   454.71225      1321.5215      1776.2338      262.8508       295.75923      0.18532912   
     85000   488.99749      1314.4704      1803.4679      233.47704      294.18117      0.18029108   
     86000   462.70423      1319.6524      1782.3566      204.20384      295.34091      0.17134529   
     87000   478.17691      1288.0334      1766.2103      164.41688      288.26453      0.16880761   
     88000   482.37352      1333.4065      1815.78        125.82979      298.41911      0.16842613   
     89000   495.28196      1339.2895      1834.5715      93.519593      299.73574      0.16919858   
     90000   498.948        1354.416       1853.364       42.677634      303.12109      0.1708735    
     91000   497.29921      1361.0203      1858.3195      112.63563      304.59914      0.17726849   
     92000   492.1964       1373.7685      1865.9649      167.50833      307.4522       0.1841638    
     93000   496.36681      1332.5857      1828.9525      179.42426      298.23542      0.18590901   
     94000   466.25983      1326.3967      1792.6565      148.53543      296.8503       0.18414797   
     95000   475.8126       1318.2391      1794.0517      134.73984      295.02461      0.18351743   
     96000   471.76991      1337.8728      1809.6427      122.74333      299.41867      0.18341023   
     97000   489.71523      1319.7447      1809.4599      148.31769      295.36157      0.18454628   
     98000   461.95358      1329.1978      1791.1514      173.24226      297.4772       0.18412083   
     99000   469.34026      1327.1123      1796.4526      215.43458      297.01046      0.18349801   
    100000   481.93861      1328.0984      1810.037       222.83689      297.23115      0.18216601   
    101000   462.24126      1358.5411      1820.7824      242.4927       304.04429      0.18000125   
    102000   500.43667      1345.2128      1845.6494      217.04679      301.06138      0.17581076   
    103000   492.23402      1335.7285      1827.9626      212.21688      298.93879      0.17389997   
    104000   462.53839      1355.0552      1817.5936      268.04843      303.26414      0.17745885   
    105000   483.83539      1362.4611      1846.2965      226.09618      304.92159      0.18461175   
    106000   446.48274      1400.6357      1847.1185      230.12779      313.46515      0.19037681   
    107000   450.97783      1401.9306      1852.9085      191.71623      313.75495      0.18996942   
    108000   459.0035       1368.8223      1827.8258      144.92366      306.34523      0.18637228   
    109000   487.88359      1345.4687      1833.3523      112.39407      301.11865      0.1871254    
    110000   484.60198      1353.0261      1837.6281      122.98166      302.81002      0.1884899    
    111000   474.88354      1355.3919      1830.2754      129.97169      303.33949      0.18569113   
    112000   502.4181       1344.7906      1847.2087      151.3769       300.96689      0.17946973   
    113000   513.60879      1346.8619      1860.4707      190.54452      301.43046      0.17399723   
    114000   486.89746      1339.2088      1826.1063      254.18381      299.71768      0.17151068   
    115000   487.65218      1312.611       1800.2632      267.97318      293.76504      0.17371047   
    116000   461.94178      1309.2313      1771.1731      206.86745      293.00865      0.17707003   
    117000   472.92453      1340.7602      1813.6847      170.59427      300.06488      0.17898365   
    118000   468.49495      1316.7183      1785.2132      157.78812      294.68426      0.17927701   
    119000   454.87022      1347.0447      1801.9149      144.36797      301.47136      0.18307129   
    120000   466.18788      1297.6811      1763.869       184.18139      290.42369      0.18869599   
    121000   468.95419      1334.9427      1803.8969      185.68863      298.76292      0.19275444   
    122000   482.28256      1328.9386      1811.2211      232.73468      297.41918      0.19196376   
    123000   470.20786      1363.7203      1833.9281      174.1559       305.2034       0.18681986   
    124000   462.57056      1373.771       1836.3416      173.08189      307.45277      0.18133216   
    125000   499.99957      1363.2192      1863.2188      140.10105      305.09126      0.17744373   
    126000   475.30787      1356.266       1831.5739      177.28903      303.53511      0.17777545   
    127000   485.6646       1354.1162      1839.7808      164.98813      303.05399      0.177765     
    128000   488.93555      1337.3131      1826.2487      170.10422      299.29342      0.17600281   
    129000   474.33001      1351.3733      1825.7033      180.48846      302.44012      0.17570035   
    130000   475.61664      1348.117       1823.7337      237.12743      301.71136      0.18034705   
    131000   480.07499      1324.1363      1804.2113      207.34969      296.34442      0.18581224   
    132000   454.79388      1350.5505      1805.3444      172.21617      302.25598      0.18860075   
    133000   474.79185      1400.6178      1875.4097      166.83734      313.46115      0.18530405   
    134000   469.8626       1375.1985      1845.0611      146.07028      307.77225      0.1728354    
    135000   506.85872      1363.8322      1870.6909      139.55432      305.22844      0.16622106   
    136000   488.0405       1340.7985      1828.839       141.92605      300.07345      0.16719187   
    137000   488.47433      1358.4528      1846.9271      101.95906      304.02452      0.17210355   
    138000   503.91794      1384.035       1887.9529      92.223309      309.74987      0.17840627   
    139000   489.83422      1350.7773      1840.6116      67.384347      302.30674      0.18203354   
    140000   485.25543      1331.1736      1816.429       107.34509      297.91938      0.18327956   
    141000   460.35462      1354.4889      1814.8435      190.65839      303.13739      0.18368882   
    142000   460.31146      1349.4569      1809.7684      231.2066       302.01122      0.18310689   
    143000   472.8452       1312.3353      1785.1805      205.80645      293.70334      0.18351719   
    144000   472.31475      1306.2894      1778.6041      146.39878      292.35024      0.18496866   
    145000   469.1129       1317.5412      1786.6541      125.12672      294.86843      0.18756883   
    146000   451.38787      1303.9187      1755.3066      102.01417      291.81968      0.19189299   
    147000   452.67797      1348.0729      1800.7509      83.162035      301.70149      0.19399869   
    148000   475.1344       1343.7515      1818.8859      69.870482      300.73433      0.18989671   
    149000   499.99399      1321.6633      1821.6573      92.138097      295.79096      0.18132678   
    150000   454.53015      1317.9532      1772.4833      143.03347      294.96063      0.17859841   
    151000   455.27963      1326.2187      1781.4983      176.91134      296.81047      0.17659807   
    152000   509.57925      1312.2559      1821.8351      228.85093      293.68556      0.1750418    
    153000   483.00135      1329.0638      1812.0652      248.99813      297.44721      0.17589667   
    154000   500.65312      1314.8573      1815.5105      213.77377      294.26777      0.17950279   
    155000   464.62412      1363.5091      1828.1333      141.86716      305.15614      0.18713304   
    156000   441.24415      1369.4034      1810.6475      116.50022      306.47528      0.19682122   
    157000   434.00453      1364.7754      1798.7799      116.10371      305.43953      0.19712445   
    158000   475.60545      1351.4926      1827.098       135.16208      302.46681      0.19373429   
    159000   471.52167      1341.8547      1813.3764      125.05055      300.30984      0.18926121   
    160000   491.80907      1332.0366      1823.8457      150.76401      298.11253      0.18636428   
    161000   479.32455      1317.9706      1797.2952      138.40186      294.96453      0.18397076   
    162000   458.15828      1282.8267      1740.9849      131.17341      287.09924      0.18106065   
    163000   475.40913      1314.1028      1789.5119      111.79591      294.0989       0.17926413   
    164000   484.44313      1316.2891      1800.7323      141.92524      294.58821      0.17774161   
    165000   470.35687      1338.3014      1808.6583      164.15001      299.51461      0.1762676    
    166000   477.52422      1318.9968      1796.521       210.52571      295.19418      0.17900675   
    167000   459.09248      1338.8268      1797.9193      217.33699      299.63219      0.18590014   
    168000   462.19337      1350.7637      1812.9571      228.69466      302.30369      0.19326372   
    169000   486.02268      1368.6445      1854.6672      190.79305      306.30545      0.19438234   
    170000   502.02988      1371.0688      1873.0987      153.05393      306.84802      0.18746059   
    171000   514.13559      1386.5853      1900.7209      119.50644      310.32064      0.18032273   
    172000   500.52437      1373.0416      1873.566       93.972889      307.28953      0.17661607   
    173000   488.33881      1360.0191      1848.3579      111.01389      304.37507      0.17679287   
    174000   503.31883      1341.3747      1844.6935      221.87793      300.20241      0.18006211   
    175000   489.28718      1361.0466      1850.3338      174.88899      304.60503      0.18210137   
    176000   496.47403      1334.0545      1830.5286      215.99077      298.56415      0.18639239   
    177000   489.26777      1359.3897      1848.6575      228.50974      304.23421      0.18819649   
    178000   505.50508      1336.861       1842.366       169.86627      299.19223      0.18494656   
    179000   499.61616      1337.7767      1837.3929      117.62763      299.39718      0.17665026   
    180000   479.96233      1351.7556      1831.718       68.094828      302.52569      0.16989138   
    181000   487.16342      1325.46        1812.6234      38.910802      296.64066      0.16983364   
    182000   494.46412      1308.2766      1802.7408      61.171824      292.795        0.17426981   
    183000   493.95727      1318.1985      1812.1558      126.83217      295.01553      0.17955539   
    184000   478.35757      1331.8773      1810.2348      202.36319      298.07686      0.18366287   
    185000   459.47282      1320.9502      1780.4231      248.65837      295.63138      0.18369236   
    186000   460.58139      1325.6358      1786.2172      175.09227      296.68001      0.18082992   
    187000   482.98375      1307.4201      1790.4038      126.05501      292.6033       0.17801682   
    188000   502.13685      1323.8444      1825.9812      120.53206      296.27909      0.1776527    
    189000   465.31742      1316.3827      1781.7001      129.59965      294.60914      0.17784274   
    190000   494.81404      1312.1871      1807.0011      165.56177      293.67016      0.17694196   
    191000   485.9282       1309.9988      1795.927       162.91651      293.18042      0.17346967   
    192000   486.91429      1321.9493      1808.8636      181.26681      295.85497      0.16984559   
    193000   483.61227      1348.0362      1831.6485      180.95866      301.69327      0.16900511   
    194000   496.33364      1301.1334      1797.4671      162.28528      291.19633      0.17167801   
    195000   494.051        1304.2915      1798.3425      153.27372      291.90311      0.17798165   
    196000   488.90494      1329.1986      1818.1036      179.98573      297.47738      0.18358295   
    197000   452.94712      1311.6761      1764.6232      184.89009      293.55581      0.18504552   
    198000   465.85882      1386.9473      1852.8061      170.02845      310.40166      0.18454309   
    199000   483.46485      1357.0996      1840.5645      154.44759      303.72168      0.18191527   
    200000   480.67468      1355.9368      1836.6115      164.83478      303.46145      0.17964856   
    201000   487.49587      1336.5912      1824.087       140.01332      299.13185      0.1788505    
    202000   502.07058      1375.3158      1877.3864      201.48189      307.79851      0.18210683   
    203000   493.53335      1376.7944      1870.3278      175.59108      308.12942      0.1836945    
    204000   457.83896      1348.1464      1805.9853      156.77211      301.71792      0.1839463    
    205000   456.17749      1340.0771      1796.2546      167.56974      299.91201      0.18585628   
    206000   455.45226      1351.7069      1807.1591      230.40398      302.51477      0.18705604   
    207000   474.2025       1363.1944      1837.3969      259.36988      305.08571      0.187503     
    208000   481.51251      1376.6503      1858.1628      327.53621      308.09716      0.19084218   
    209000   463.59389      1356.1094      1819.7032      254.63494      303.50006      0.19135227   
    210000   477.1837       1328.6429      1805.8266      142.32374      297.35302      0.18791498   
    211000   474.02178      1367.2563      1841.2781      73.825528      305.99477      0.18117213   
    212000   532.58028      1378.9437      1911.5239      95.120108      308.61042      0.17516425   
    213000   481.07188      1389.9313      1871.0032      99.335038      311.06947      0.17244153   
    214000   506.19449      1354.0248      1860.2193      169.98663      303.03353      0.1735789    
    215000   487.90099      1334.9656      1822.8666      150.63298      298.76803      0.17578384   
    216000   479.89093      1342.2548      1822.1457      154.86277      300.39938      0.18198464   
    217000   451.41063      1309.8717      1761.2824      138.49386      293.15198      0.18402149   
    218000   495.21401      1308.7683      1803.9823      209.86663      292.90503      0.18440496   
    219000   497.8953       1328.9803      1826.8756      218.44528      297.42853      0.18265035   
    220000   483.4202       1339.7779      1823.1981      213.94969      299.84504      0.1787385    
    221000   485.09534      1341.3077      1826.403       228.8102       300.18741      0.1730619    
    222000   496.45772      1331.6056      1828.0633      219.09466      298.01606      0.17002601   
    223000   481.45676      1330.2511      1811.7078      228.02213      297.71292      0.17154988   
    224000   490.45618      1363.2692      1853.7254      238.09095      305.10245      0.17447983   
    225000   498.45738      1371.8173      1870.2747      232.68359      307.01553      0.17688018   
    226000   504.49739      1390.0956      1894.593       215.94857      311.10625      0.17704882   
    227000   503.48736      1392.6935      1896.1809      210.54324      311.68767      0.17687493   
    228000   485.17317      1329.6545      1814.8277      175.07079      297.57942      0.17798734   
    229000   485.57592      1323.9485      1809.5245      181.79998      296.3024       0.18040104   
    230000   488.06505      1319.5869      1807.6519      108.77581      295.32625      0.18204526   
    231000   493.11321      1300.0408      1793.154       119.86678      290.9518       0.18533957   
    232000   488.31998      1329.2167      1817.5367      203.9595       297.48144      0.18944198   
    233000   493.68072      1294.4832      1788.164       185.43569      289.70801      0.1877971    
    234000   492.14393      1349.5448      1841.6887      177.05882      302.0309       0.17885296   
    235000   520.09857      1376.5918      1896.6904      98.184222      308.08407      0.17116095   
    236000   495.38233      1422.611       1917.9934      130.11745      318.38327      0.17008706   
    237000   499.34158      1359.9742      1859.3158      138.39092      304.36503      0.17152271   
    238000   507.66504      1374.0126      1881.6777      218.69942      307.50685      0.17497549   
    239000   507.86003      1343.8943      1851.7543      271.618        300.7663       0.17907975   
    240000   497.69816      1330.1052      1827.8033      304.35705      297.68027      0.1831825    
    241000   465.75878      1354.4671      1820.2259      248.61639      303.13251      0.18310204   
    242000   459.01604      1302.3552      1761.3713      187.58312      291.46978      0.18000966   
    243000   495.41695      1292.9237      1788.3406      75.443639      289.35898      0.17663989   
    244000   476.9212       1322.7056      1799.6269      4.3926978      296.02424      0.17579494   
    245000   483.15972      1321.4865      1804.6462      15.427584      295.75138      0.17818271   
    246000   477.2115       1312.0114      1789.2229      19.963517      293.63085      0.17943746   
    247000   507.49942      1328.9684      1836.4679      57.187034      297.42587      0.17905724   
    248000   482.6303       1363.7011      1846.3314      136.68679      305.1991       0.17902018   
    249000   502.91577      1327.5736      1830.4893      188.23443      297.11369      0.18057703   
    250000   475.01274      1351.2825      1826.2953      240.47411      302.4198       0.18485976   
    251000   447.33674      1348.6977      1796.0344      249.20206      301.84131      0.18749404   
    252000   470.28857      1334.8767      1805.1652      233.85053      298.74814      0.1893951    
    253000   483.24043      1346.3434      1829.5838      222.0695       301.31442      0.18820311   
    254000   490.8459       1339.7245      1830.5704      163.18655      299.83309      0.18508181   
    255000   491.88785      1356.9889      1848.8767      116.4011       303.6969       0.18188357   
    256000   473.6026       1355.3526      1828.9552      96.354904      303.33069      0.17888605   
    257000   483.10556      1318.9679      1802.0734      155.79395      295.18771      0.1784791    
    258000   487.37504      1332.7818      1820.1569      219.71458      298.27931      0.18024636   
    259000   449.95205      1352.8356      1802.7877      272.13988      302.76739      0.18323894   
    260000   462.10136      1292.3948      1754.4961      229.04457      289.2406       0.1889162    
    261000   471.5653       1329.3612      1800.9265      200.28714      297.51376      0.19756971   
    262000   470.08893      1359.9069      1829.9959      144.54414      304.34996      0.19839589   
    263000   461.86854      1357.2133      1819.0818      215.01339      303.74712      0.19202068   
    264000   506.55369      1358.2896      1864.8433      170.41378      303.988        0.18350004   
    265000   479.67885      1345.6514      1825.3302      152.74848      301.15954      0.18162441   
    266000   477.76205      1358.6216      1836.3837      144.27995      304.06231      0.18145798   
    267000   503.98839      1367.7299      1871.7183      66.443191      306.10077      0.17796885   
    268000   506.52061      1387.9182      1894.4388      50.934738      310.61895      0.17297703   
    269000   503.00314      1359.2318      1862.235       65.792776      304.19887      0.17055514   
    270000   523.52206      1383.9936      1907.5157      86.675503      309.74061      0.17335887   
    271000   497.24839      1340.844       1838.0923      129.44549      300.08363      0.17909114   
    272000   483.53046      1347.9379      1831.4683      127.50147      301.67126      0.18369586   
    273000   509.11752      1378.5658      1887.6833      110.11648      308.52585      0.18563132   
    274000   502.85967      1367.2686      1870.1283      122.93498      305.99752      0.18481402   
    275000   493.50459      1337.861       1831.3656      95.896293      299.41604      0.18116838   
    276000   466.23165      1342.0099      1808.2415      124.62501      300.34456      0.17897429   
    277000   490.99033      1336.8033      1827.7937      178.49294      299.17933      0.17731958   
    278000   505.53996      1305.8944      1811.4343      158.71136      292.26184      0.17567082   
    279000   502.27022      1307.4334      1809.7036      115.95551      292.60627      0.17519442   
    280000   477.77573      1326.28        1804.0557      130.38838      296.82418      0.184879     
    281000   466.38561      1306.3096      1772.6952      135.40506      292.35477      0.19369637   
    282000   462.07453      1288.4302      1750.5047      94.807345      288.35332      0.19459211   
    283000   459.44633      1274.2162      1733.6625      90.099771      285.17219      0.19344163   
    284000   476.54209      1307.009       1783.5511      144.38648      292.5113       0.18945581   
    285000   480.08132      1280.5298      1760.6111      72.144656      286.58519      0.18089225   
    286000   490.28313      1323.5421      1813.8252      101.28642      296.21143      0.1781049    
    287000   498.08714      1322.7723      1820.8595      128.07421      296.03916      0.178495     
    288000   462.47367      1343.0173      1805.4909      110.73252      300.57002      0.17777796   
    289000   488.4234       1341.1026      1829.526       79.492708      300.14151      0.17814173   
    290000   494.25149      1363.5832      1857.8347      113.30546      305.17272      0.18031205   
    291000   508.15036      1353.4569      1861.6073      142.25989      302.90643      0.18131658   
    292000   468.75163      1377.5881      1846.3397      185.7151       308.30705      0.18613221   
    293000   485.7675       1347.8054      1833.5729      201.69345      301.64161      0.19195651   
    294000   464.71917      1384.0777      1848.7968      200.02536      309.75942      0.19294037   
    295000   505.71446      1364.4718      1870.1863      214.01023      305.37159      0.18905416   
    296000   533.29493      1369.8243      1903.1192      191.60006      306.56949      0.18097249   
    297000   493.25087      1378.303       1871.5539      155.21988      308.46705      0.17562752   
    298000   494.73341      1348.0705      1842.8039      117.4915       301.70093      0.17674351   
    299000   514.76163      1352.4844      1867.246       152.38177      302.68878      0.18258394   
    300000   463.21151      1351.2654      1814.4769      106.40887      302.41598      0.18456844   
    301000   473.08738      1367.8338      1840.9212      126.0868       306.12402      0.18636595   
    302000   481.03285      1345.8791      1826.9119      123.55411      301.21049      0.18479688   
    303000   504.34899      1345.6469      1849.9959      167.43314      301.15854      0.18140295   
    304000   491.96425      1405.1531      1897.1174      87.801544      314.47616      0.17287169   
    305000   539.73495      1384.3383      1924.0733      62.560043      309.81776      0.16915998   
    306000   510.22269      1378.7165      1888.9392      61.251237      308.55958      0.16995327   
    307000   508.7741       1354.9535      1863.7276      110.05621      303.24137      0.17448472   
    308000   482.0265       1335.4304      1817.4569      134.49379      298.87206      0.18015062   
    309000   464.03902      1361.1596      1825.1986      143.00644      304.6303       0.18450233   
    310000   480.68041      1344.0865      1824.767       212.91619      300.80933      0.18697854   
    311000   486.27529      1344.3258      1830.601       178.71177      300.86286      0.18607745   
    312000   500.93254      1334.1552      1835.0877      125.17062      298.58667      0.18500424   
    313000   465.44887      1379.6512      1845.1001      168.38571      308.76877      0.18450532   
    314000   482.4195       1383.3306      1865.7501      105.52431      309.59224      0.18215144   
    315000   492.07757      1361.7254      1853.803       115.87398      304.75695      0.18176314   
    316000   497.54937      1345.7931      1843.3424      189.07         301.19125      0.18564273   
    317000   484.14984      1362.3912      1846.541       261.11271      304.90594      0.19093546   
    318000   484.15797      1365.4925      1849.6505      288.24001      305.60003      0.19298435   
    319000   471.79646      1367.3501      1839.1466      241.32796      306.01577      0.19233302   
    320000   475.82477      1347.1527      1822.9775      211.05008      301.49555      0.18585623   
    321000   503.7143       1337.3659      1841.0802      140.5475       299.30522      0.17816949   
    322000   486.57028      1374.6413      1861.2116      162.92567      307.64755      0.17874243   
    323000   492.17021      1356.053       1848.2232      148.33365      303.48743      0.18114445   
    324000   491.53122      1353.3312      1844.8624      151.81488      302.8783       0.18360258   
    325000   489.00288      1335.2918      1824.2947      168.75847      298.84105      0.18559543   
    326000   475.71067      1323.761       1799.4716      170.82808      296.26042      0.18720805   
    327000   489.51847      1294.7876      1784.3061      159.248        289.77613      0.18942719   
    328000   460.80658      1275.407       1736.2135      119.35564      285.4387       0.1879076    
    329000   469.45953      1321.6349      1791.0944      127.37838      295.78461      0.18664276   
    330000   471.44571      1304.6463      1776.0921      154.62022      291.98253      0.18377842   
    331000   474.39784      1289.9388      1764.3367      184.10385      288.69096      0.17627239   
    332000   474.88812      1318.1359      1793.024       236.36492      295.00151      0.17123766   
    333000   508.26668      1318.3309      1826.5975      234.30415      295.04515      0.17112487   
    334000   510.29514      1336.5848      1846.8799      140.26765      299.13042      0.17291523   
    335000   507.39341      1370.5759      1877.9693      118.35774      306.7377       0.17660039   
    336000   503.67929      1350.4039      1854.0832      48.048344      302.22317      0.17490467   
    337000   513.48467      1356.2905      1869.7752      13.651196      303.5406       0.16703275   
    338000   537.10836      1386.6951      1923.8035      118.192        310.34522      0.16322971   
    339000   499.86877      1414.2485      1914.1173      107.71037      316.51171      0.16382833   
    340000   483.94515      1367.9646      1851.9098      158.58844      306.15329      0.17190797   
    341000   489.87475      1304.6794      1794.5542      215.91158      291.98994      0.17871917   
    342000   478.09211      1326.8859      1804.978       250.76137      296.95979      0.18133687   
    343000   455.76831      1335.4195      1791.1878      236.97601      298.86962      0.18324836   
    344000   506.88191      1381.1827      1888.0646      177.34684      309.11151      0.18403119   
    345000   486.61555      1341.4481      1828.0636      121.9597       300.21883      0.17966821   
    346000   481.78189      1319.2605      1801.0424      150.26515      295.25322      0.17686929   
    347000   501.6676       1335.1794      1836.847       180.51151      298.81589      0.17419447   
    348000   502.66379      1323.4987      1826.1625      248.32055      296.20173      0.17253049   
    349000   482.52096      1321.6949      1804.2159      248.96761      295.79803      0.17307002   
    350000   493.83928      1338.3883      1832.2275      250.3267       299.53404      0.17622748   
    351000   495.34816      1305.0244      1800.3726      170.73813      292.06714      0.17894647   
    352000   473.29667      1348.7048      1822.0014      232.37184      301.84289      0.18198075   
    353000   501.77636      1365.3366      1867.113       240.25721      305.56513      0.18405323   
    354000   494.81536      1341.2379      1836.0532      287.20601      300.17178      0.18381418   
    355000   475.76709      1379.4517      1855.2188      310.52005      308.72413      0.17894833   
    356000   516.42144      1357.7738      1874.1953      224.22962      303.87257      0.17302009   
    357000   519.55448      1348.0552      1867.6097      128.80696      301.69752      0.16969912   
    358000   531.27245      1367.3743      1898.6467      39.128704      306.02117      0.16871216   
    359000   486.09065      1353.087       1839.1776      32.094344      302.82365      0.17339911   
    360000   488.82565      1340.7968      1829.6224     -20.478945      300.07307      0.18065909   
    361000   500.48         1355.7432      1856.2232      88.704692      303.41811      0.18604199   
    362000   474.19653      1363.8096      1838.0061      229.55428      305.22338      0.18630392   
    363000   507.12628      1334.6866      1841.8129      313.85814      298.7056       0.18249556   
    364000   485.55041      1359.4686      1845.019       358.82061      304.25187      0.17887672   
    365000   500.18613      1360.8566      1861.0427      314.9625       304.5625       0.17811757   
    366000   476.81586      1374.2307      1851.0465      211.47853      307.55565      0.17685229   
    367000   467.30544      1329.7399      1797.0454      85.637085      297.59852      0.17817601   
    368000   452.66655      1358.4676      1811.1341      23.605941      304.02784      0.18188284   
    369000   463.70269      1371.6351      1835.3378      49.432342      306.97474      0.18598102   
    370000   507.74496      1357.8925      1865.6375      96.254911      303.89914      0.18891976   
    371000   501.27471      1358.8128      1860.0875      179.21663      304.10509      0.19045778   
    372000   482.2887       1354.3176      1836.6063      164.51703      303.09907      0.1852469    
    373000   480.98425      1339.0955      1820.0798      199.84402      299.69233      0.17870246   
    374000   484.23496      1281.9245      1766.1595      228.09214      286.89733      0.17489431   
    375000   505.29789      1289.5349      1794.8328      203.53617      288.60056      0.17666917   
    376000   455.47162      1338.0144      1793.486       226.69109      299.45036      0.18269068   
    377000   482.70353      1330.1429      1812.8465      210.81314      297.68872      0.18800509   
    378000   478.75386      1349.7072      1828.4611      180.04234      302.06725      0.19058219   
    379000   478.35071      1383.0439      1861.3947      172.71072      309.52807      0.19081378   
    380000   491.17246      1358.8057      1849.9782      107.20399      304.10351      0.18790877   
    381000   493.71426      1362.2633      1855.9776      76.52298       304.87732      0.18528658   
    382000   501.0311       1355.1505      1856.1816      91.793941      303.28546      0.1832558    
    383000   519.74855      1368.8219      1888.5704      96.020534      306.34515      0.18236709   
    384000   478.55403      1408.0318      1886.5858      144.46498      315.12041      0.18214514   
    385000   502.93075      1375.5376      1878.4683      185.48512      307.84813      0.18255046   
    386000   501.54319      1350.3002      1851.8434      210.70337      302.19995      0.18174326   
    387000   510.72635      1339.2161      1849.9424      231.79794      299.71931      0.18460818   
    388000   464.96007      1352.5264      1817.4865      209.97391      302.69819      0.1886298    
    389000   473.53278      1297.2745      1770.8073      188.36933      290.3327       0.1924223    
    390000   452.08631      1348.696       1800.7823      175.28303      301.84092      0.19440041   
    391000   495.53853      1359.18        1854.7185      179.52178      304.18727      0.19324355   
    392000   474.4128       1356.918       1831.3308      101.91073      303.68103      0.18699687   
    393000   473.55692      1345.0229      1818.5798      80.415563      301.01889      0.18076727   
    394000   511.98523      1330.4749      1842.4601      79.72177       297.76301      0.17920428   
    395000   464.81882      1355.3368      1820.1556      105.22361      303.32715      0.18098555   
    396000   445.50683      1362.6192      1808.126       121.70891      304.95696      0.18972408   
    397000   466.35114      1319.3894      1785.7406      131.09269      295.28206      0.19828402   
    398000   475.91989      1323.365       1799.2849      171.84003      296.17181      0.20185353   
    399000   457.53066      1302.5461      1760.0768      199.07542      291.51249      0.20079821   
    400000   475.70778      1326.5632      1802.271       195.26767      296.88758      0.19705012   
Loop time of 1850.51 on 8 procs for 400000 steps with 1500 atoms

Performance: 9.338 ns/day, 2.570 hours/ns, 216.157 timesteps/s, 324.235 katom-step/s
99.3% CPU use with 8 MPI tasks x 1 OpenMP threads

MPI task timing breakdown:
Section |  min time  |  avg time  |  max time  |%varavg| %total
---------------------------------------------------------------
Pair    | 77.535     | 80.576     | 83.528     |  27.2 |  4.35
Bond    | 4.147      | 4.2414     | 4.4201     |   4.5 |  0.23
Kspace  | 797.06     | 803.56     | 808.96     |  14.0 | 43.42
Neigh   | 1.4021     | 1.4534     | 1.4743     |   2.4 |  0.08
Comm    | 33.493     | 36.844     | 40.794     |  44.4 |  1.99
Output  | 0.021543   | 0.49103    | 3.7759     | 177.2 |  0.03
Modify  | 857.35     | 896.01     | 917.31     |  70.5 | 48.42
Other   |            | 27.33      |            |       |  1.48

Nlocal:          187.5 ave         219 max         173 min
Histogram: 4 1 0 0 0 1 1 0 0 1
Nghost:         1885.5 ave        1947 max        1849 min
Histogram: 3 0 2 0 0 1 0 0 1 1
Neighs:        16995.4 ave       21121 max       14564 min
Histogram: 1 1 2 1 0 2 0 0 0 1

Total # of neighbors = 135963
Ave neighs/atom = 90.642
Ave special neighs/atom = 2
Neighbor list builds = 2475
Dangerous builds = 0
PPPM initialization ...
  using 12-bit tables for long-range coulomb (src/kspace.cpp:342)
  G vector (1/distance) = 0.27195947
  grid = 48 48 48
  stencil order = 5
  estimated absolute RMS force accuracy = 0.00033703289
  estimated relative force accuracy = 1.0149645e-06
  using single precision FFTW3
  3d grid and FFT values/proc = 29791 13824
Generated 1 of 1 mixed pair_coeff terms from arithmetic mixing rule
Last active /omp style is kspace_style pppm/omp
Setting up Verlet run ...
  Unit style    : real
  Current step  : 0
  Time step     : 0.5
Per MPI rank memory allocation (min/avg/max) = 8.484 | 8.552 | 8.753 Mbytes
   Step         PotEng         KinEng         TotEng         Press           Temp        v_Density   
         0   475.70708      1326.5632      1802.2703      195.2678       296.88758      0.19705012   
      1000   459.80369      1311.3696      1771.1733      206.52852      293.4872       0.19598177   
      2000   431.7416       1277.2984      1709.04        104.38117      285.862        0.18967388   
      3000   469.75705      1311.6871      1781.4441      99.066334      293.55826      0.18425713   
      4000   477.03487      1311.4531      1788.488       108.27508      293.50591      0.17970924   
      5000   467.29931      1339.196       1806.4953      127.71906      299.71481      0.17818501   
      6000   477.56186      1331.4565      1809.0183      153.51692      297.98269      0.17765787   
      7000   458.7857       1326.5781      1785.3638      233.18864      296.89091      0.17930467   
      8000   481.28132      1293.5443      1774.8256      246.75354      289.49787      0.18138187   
      9000   437.38731      1320.3178      1757.7051      243.19516      295.48984      0.18230063   
     10000   488.31565      1331.4383      1819.7539      232.51214      297.97862      0.18345072   
     11000   487.83512      1323.4979      1811.3331      136.08113      296.20156      0.18655797   
     12000   493.87657      1336.9914      1830.868       129.06505      299.22143      0.19469015   
     13000   472.65666      1358.4208      1831.0774      137.60958      304.01735      0.19899514   
     14000   478.76957      1386.3958      1865.1653      66.480073      310.27822      0.19682525   
     15000   489.82874      1332.5086      1822.3374      73.096633      298.21817      0.19007919   
     16000   474.40745      1372.4675      1846.8749      112.0233       307.16103      0.18455411   
     17000   475.02746      1355.608       1830.6355      111.65804      303.38785      0.1829509    
     18000   501.84387      1381.4171      1883.261       142.74165      309.16398      0.18368671   
     19000   490.00888      1353.1695      1843.1784      135.94595      302.84211      0.18275388   
     20000   487.49721      1353.9291      1841.4263      144.52564      303.0121       0.18225269   
     21000   479.87713      1389.4889      1869.366       191.32043      310.97047      0.18278424   
     22000   485.11291      1350.0399      1835.1528      186.40163      302.14169      0.18468464   
     23000   471.75824      1365.2771      1837.0353      186.17982      305.55181      0.1851496    
     24000   491.96879      1374.8658      1866.8346      217.82954      307.69779      0.18471418   
     25000   487.47523      1346.9073      1834.3826      225.97372      301.44062      0.18575826   
     26000   463.01422      1372.2624      1835.2766      238.55133      307.11514      0.18288486   
     27000   482.48888      1378.9442      1861.4331      241.49299      308.61055      0.17639338   
     28000   495.44833      1395.4885      1890.9369      220.14879      312.3132       0.17384505   
     29000   499.40345      1360.4065      1859.8099      143.99998      304.46176      0.17421614   
     30000   475.6847       1355.0926      1830.7773      129.3898       303.2725       0.17675697   
     31000   501.85793      1313.2874      1815.1454      133.62048      293.91642      0.18278256   
     32000   453.08224      1311.1266      1764.2088      163.95656      293.43282      0.18582678   
     33000   424.21337      1304.1862      1728.3996      186.59291      291.87955      0.18493852   
     34000   479.67566      1337.7955      1817.4711      202.57016      299.40137      0.17915235   
     35000   499.47049      1341.8547      1841.3251      159.50152      300.30983      0.16943834   
     36000   535.78552      1360.3363      1896.1218      139.08499      304.44606      0.16746845   
     37000   511.95092      1387.5499      1899.5008      174.60346      310.53652      0.17079356   
     38000   521.82701      1355.5491      1877.3761      184.07792      303.37467      0.17413469   
     39000   481.1929       1372.4557      1853.6486      209.49917      307.15841      0.17739062   
     40000   505.17613      1337.245       1842.4212      227.29231      299.27818      0.18089786   
     41000   514.65741      1357.845       1872.5024      228.63863      303.88849      0.18145091   
     42000   516.06245      1336.7425      1852.8049      180.97542      299.16571      0.17955792   
     43000   493.96215      1359.5899      1853.552       89.705493      304.27901      0.17442558   
     44000   534.51474      1346.737       1881.2517      47.90048       301.4025       0.16808378   
     45000   508.87793      1353.0819      1861.9598      73.562392      302.82251      0.16911527   
     46000   479.41471      1362.7488      1842.1635      144.12801      304.98597      0.17881089   
     47000   487.79519      1387.5379      1875.3331      183.123        310.53383      0.18693617   
     48000   490.57726      1345.9722      1836.5494      255.44668      301.23133      0.18953064   
     49000   480.68913      1377.4768      1858.1659      278.83805      308.28214      0.18509752   
     50000   486.8111       1386.3236      1873.1347      264.75007      310.26206      0.1782035    
     51000   507.92731      1332.9796      1840.9069      190.45273      298.32356      0.17419569   
     52000   501.63339      1334.2964      1835.9297      126.82141      298.61826      0.1743498    
     53000   465.22425      1285.1937      1750.418       133.39247      287.629        0.17842368   
     54000   464.45531      1303.7744      1768.2297      165.75782      291.78738      0.18385152   
     55000   487.87152      1331.3314      1819.2029      192.91892      297.95471      0.18363525   
     56000   495.39696      1367.1421      1862.5391      155.52734      305.96921      0.18085478   
     57000   497.70335      1392.6874      1890.3907      155.49026      311.68629      0.17890262   
     58000   509.92558      1398.6847      1908.6103      102.71175      313.02851      0.17845105   
     59000   489.39302      1336.4072      1825.8002      84.140747      299.09067      0.17839629   
     60000   493.84623      1331.5615      1825.4078      90.578283      298.00621      0.17892313   
     61000   493.84698      1356.8634      1850.7104      153.97207      303.66882      0.18018709   
     62000   500.03161      1341.7586      1841.7902      187.57087      300.28832      0.18178827   
     63000   494.85303      1346.9181      1841.7711      204.06978      301.44304      0.18526568   
     64000   513.69984      1345.5074      1859.2072      144.32178      301.12732      0.18890535   
     65000   481.78021      1385.0458      1866.826       133.0646       309.9761       0.19066707   
     66000   489.11231      1338.614       1827.7263      110.68516      299.58457      0.19053231   
     67000   461.23677      1365.5137      1826.7505      196.70305      305.60478      0.19036444   
     68000   463.7956       1351.9855      1815.7811      264.02697      302.57713      0.18967789   
     69000   505.94324      1378.5951      1884.5384      209.3849       308.53242      0.18655454   
     70000   480.61315      1372.135       1852.7481      176.20652      307.08662      0.18423594   
     71000   487.6829       1347.7786      1835.4615      179.34138      301.63563      0.18350155   
     72000   475.96764      1333.041       1809.0087      158.34863      298.33732      0.18195416   
     73000   489.91974      1326.0715      1815.9913      241.79939      296.77753      0.18244934   
     74000   468.15152      1326.2912      1794.4428      274.57891      296.8267       0.18139957   
     75000   477.6364       1290.2192      1767.8556      223.92929      288.7537       0.18127687   
     76000   470.43752      1301.1418      1771.5793      190.11316      291.1982       0.18309518   
     77000   493.35432      1330.7456      1824.0999      176.04462      297.82359      0.18534096   
     78000   476.00831      1349.4703      1825.4786      161.39363      302.01422      0.18695084   
     79000   486.49792      1334.3404      1820.8383      203.85744      298.62812      0.18830388   
     80000   489.6432       1379.9374      1869.5806      211.6995       308.83282      0.18469104   
     81000   474.87159      1374.6286      1849.5002      191.40822      307.64471      0.17766292   
     82000   469.1035       1375.7935      1844.897       161.01558      307.90542      0.17370973   
     83000   502.23494      1347.1328      1849.3678      138.91373      301.49109      0.1737913    
     84000   486.85297      1380.4445      1867.2975      169.8925       308.94631      0.17771905   
     85000   485.46947      1357.9182      1843.3876      202.88599      303.90487      0.18199388   
     86000   495.13303      1347.5097      1842.6427      222.2135       301.57543      0.18463858   
     87000   454.98006      1383.253       1838.233       267.04369      309.57485      0.18712351   
     88000   509.111        1409.9562      1919.0672      243.99269      315.55109      0.18782568   
     89000   529.11372      1339.4089      1868.5226      154.45576      299.76245      0.18049743   
     90000   514.36197      1342.9639      1857.3259      112.09856      300.55808      0.17355819   
     91000   502.5214       1333.3856      1835.907       109.7275       298.41443      0.17356126   
     92000   496.33567      1354.0665      1850.4022      114.96434      303.04286      0.17834941   
     93000   479.5844       1345.4063      1824.9907      142.22416      301.10468      0.18379336   
     94000   507.98178      1356.5399      1864.5216      174.35736      303.59641      0.18604144   
     95000   501.21565      1402.7987      1904.0144      215.21874      313.94923      0.18709905   
     96000   495.4245       1364.9229      1860.3474      170.92771      305.47254      0.18580613   
     97000   487.04765      1366.8128      1853.8604      174.46613      305.8955       0.18499104   
     98000   463.98474      1358.0968      1822.0815      177.55961      303.94485      0.18551584   
     99000   487.32376      1368.8418      1856.1656      219.11515      306.3496       0.19184293   
    100000   475.93816      1359.261       1835.1992      214.86567      304.2054       0.20094191   
    101000   464.33725      1350.6274      1814.9647      178.92453      302.27319      0.20246881   
    102000   478.12912      1354.4044      1832.5335      143.4976       303.11848      0.19959979   
    103000   473.41556      1336.6067      1810.0223      86.084743      299.13533      0.19223344   
    104000   478.05605      1322.2563      1800.3124      71.258104      295.92368      0.18771759   
    105000   481.40259      1332.8357      1814.2383      126.67749      298.29138      0.18784071   
    106000   486.88588      1326.8381      1813.724       149.89147      296.9491       0.18689783   
    107000   441.32982      1301.9856      1743.3155      184.66868      291.38706      0.18701619   
    108000   453.48747      1313.0467      1766.5342      161.53121      293.86255      0.18962213   
    109000   470.26904      1324.0948      1794.3639      144.99985      296.33514      0.19151108   
    110000   466.63612      1345.3048      1811.9409      101.34188      301.08197      0.18942104   
    111000   499.39862      1319.4071      1818.8057      113.82499      295.28602      0.18688586   
    112000   499.55015      1297.2445      1796.7946      196.13248      290.32597      0.18868261   
    113000   472.14958      1336.7586      1808.9081      250.0813       299.16931      0.19255214   
    114000   466.06268      1356.298       1822.3607      292.29709      303.54228      0.19117681   
    115000   462.02913      1342.9513      1804.9804      243.00579      300.55525      0.1820535    
    116000   493.28661      1337.5471      1830.8337      133.27375      299.34578      0.17829497   
    117000   511.09506      1320.5758      1831.6708      117.80778      295.54757      0.17997418   
    118000   442.60113      1339.5103      1782.1114      40.92089       299.78515      0.18189109   
    119000   491.16472      1265.2085      1756.3732     -42.12225       283.15626      0.18233877   
    120000   473.80744      1298.6805      1772.4879      14.915082      290.64736      0.18198727   
    121000   504.18494      1310.0756      1814.2605      58.026469      293.1976       0.18175144   
    122000   446.45411      1345.5923      1792.0464      161.13089      301.14633      0.17942491   
    123000   481.80303      1316.4311      1798.2341      271.70164      294.61998      0.17709595   
    124000   475.68011      1300.9387      1776.6188      283.9274       291.15275      0.17378247   
    125000   489.5851       1262.2397      1751.8248      253.13399      282.49185      0.17333833   
    126000   476.80762      1328.5222      1805.3298      253.43579      297.32598      0.17926397   
    127000   454.89324      1345.952       1800.8453      196.14511      301.22683      0.18328312   
    128000   487.80671      1301.7741      1789.5808      117.43709      291.33971      0.18200104   
    129000   485.86113      1266.7626      1752.6237      39.429312      283.50407      0.17616958   
    130000   522.40548      1309.4285      1831.834       26.576614      293.05279      0.17198331   
    131000   495.90992      1314.8941      1810.804       7.694554       294.276        0.17012559   
    132000   496.57173      1320.6161      1817.1879      53.364562      295.5566       0.17159964   
    133000   502.33545      1308.6066      1810.942       107.5953       292.86883      0.17618136   
    134000   475.94301      1319.077       1795.02        192.31344      295.21213      0.17874789   
    135000   450.62014      1330.2781      1780.8983      257.80011      297.71897      0.18234389   
    136000   450.26215      1254.4696      1704.7318      227.12091      280.75288      0.18554191   
    137000   481.1755       1311.8707      1793.0462      232.43039      293.59935      0.1868807    
    138000   481.40693      1316.3945      1797.8014      154.53144      294.61178      0.1840621    
    139000   473.89682      1318.5812      1792.4781      97.07615       295.10119      0.17737703   
    140000   472.17533      1311.674       1783.8493      80.672325      293.55533      0.17332388   
    141000   469.75693      1326.6984      1796.4553      129.57208      296.91782      0.17365752   
    142000   485.55238      1369.7831      1855.3355      156.85283      306.56026      0.17616809   
    143000   495.09435      1336.3165      1831.4108      155.54027      299.07037      0.17946049   
    144000   480.37729      1350.3569      1830.7342      112.41774      302.21264      0.1843086    
    145000   497.61691      1340.248       1837.8649      118.18973      299.95026      0.18885598   
    146000   489.23569      1387.4847      1876.7204      47.592366      310.52193      0.18757182   
    147000   463.48991      1372.7143      1836.2042      99.506432      307.21627      0.18447232   
    148000   508.07871      1331.5832      1839.6619      134.13001      298.01106      0.17923856   
    149000   510.32907      1347.9104      1858.2395      174.80114      301.66512      0.17650207   
    150000   487.76929      1364.5565      1852.3258      177.20833      305.39054      0.17712495   
    151000   489.29855      1391.9173      1881.2158      177.03557      311.51395      0.18122462   
    152000   488.50156      1347.6118      1836.1134      211.18543      301.5983       0.18771972   
    153000   470.25063      1337.4153      1807.666       240.79873      299.3163       0.19173177   
    154000   482.01744      1372.933       1854.9504      193.64647      307.26522      0.19111344   
    155000   483.17274      1365.4602      1848.633       152.72724      305.5928       0.18763308   
    156000   483.28615      1383.605       1866.8911      163.34768      309.65364      0.18709521   
    157000   490.50102      1356.0421      1846.5431      182.08971      303.485        0.18781811   
    158000   467.4633       1347.939       1815.4023      158.91394      301.67152      0.18463795   
    159000   488.82227      1352.286       1841.1082      117.51833      302.64437      0.17864963   
    160000   491.95624      1348.5412      1840.4975      120.43323      301.80629      0.17068264   
    161000   515.55435      1349.8334      1865.3877      150.87013      302.09549      0.16512668   
    162000   510.33603      1371.0341      1881.3702      173.54599      306.84025      0.16483923   
    163000   510.33153      1338.3193      1848.6509      208.57996      299.51862      0.17389156   
    164000   516.11186      1344.2155      1860.3274      256.06236      300.83819      0.18216684   
    165000   489.18796      1344.3427      1833.5306      216.46984      300.86665      0.18300798   
    166000   477.66051      1339.6493      1817.3098      107.76174      299.81626      0.17902822   
    167000   502.36969      1339.0586      1841.4283      23.017347      299.68406      0.17354635   
    168000   509.20614      1335.5693      1844.7755      5.9481103      298.90315      0.17284844   
    169000   519.22166      1317.8607      1837.0823      37.829757      294.93993      0.17482505   
    170000   477.56526      1299.5675      1777.1328      88.726751      290.84588      0.17649003   
    171000   496.99243      1309.6332      1806.6257      76.242448      293.0986       0.17932599   
    172000   490.54463      1318.2796      1808.8242      100.62214      295.03368      0.18435849   
    173000   482.7743       1335.8216      1818.5959      77.496653      298.95962      0.18579915   
    174000   501.93273      1323.7888      1825.7215      70.746059      296.26665      0.18420578   
    175000   508.87985      1353.1576      1862.0375      90.812118      302.83945      0.1768901    
    176000   481.38837      1365.7405      1847.1289      157.61324      305.65554      0.17049159   
    177000   500.62029      1347.7117      1848.332       246.94034      301.62064      0.17268451   
    178000   466.17538      1358.5754      1824.7508      205.28807      304.05197      0.17723496   
    179000   511.7863       1354.9068      1866.6931      202.47433      303.23092      0.18210677   
    180000   511.62824      1348.0215      1859.6497      113.25999      301.68997      0.18298398   
    181000   515.63535      1333.9542      1849.5895      88.624275      298.54168      0.18512774   
    182000   502.36287      1357.774       1860.1368      164.89537      303.8726       0.18619632   
    183000   483.30602      1396.8799      1880.1859      199.69553      312.62459      0.18598213   
    184000   484.6276       1377.8569      1862.4845      230.49387      308.3672       0.18551617   
    185000   490.73933      1354.127       1844.8664      255.22927      303.05641      0.18213183   
    186000   508.89057      1348.5512      1857.4418      175.2164       301.80853      0.17696404   
    187000   522.49217      1382.7495      1905.2416      155.46449      309.46217      0.17270904   
    188000   525.56746      1338.2631      1863.8306      123.29166      299.50604      0.17089329   
    189000   526.17448      1346.998       1873.1725      121.94719      301.46091      0.17458231   
    190000   500.22765      1393.795       1894.0226      186.19642      311.93418      0.18074263   
    191000   475.10678      1419.9691      1895.0759      247.95819      317.79201      0.18391226   
    192000   489.7979       1370.2805      1860.0784      257.34698      306.67158      0.18308787   
    193000   485.04454      1352.5072      1837.5517      252.70534      302.69388      0.18185979   
    194000   512.84511      1334.3752      1847.2203      228.16812      298.63591      0.18164908   
    195000   499.11739      1333.7822      1832.8996      143.15545      298.50319      0.1803951    
    196000   485.34421      1295.8943      1781.2385      120.66781      290.0238       0.17849505   
    197000   472.30399      1306.5611      1778.8651      119.33103      292.41106      0.17937939   
    198000   499.621        1305.6679      1805.2889      132.26162      292.21116      0.18055577   
    199000   499.70443      1313.5176      1813.2221      180.05094      293.96794      0.18013487   
    200000   505.93717      1306.8811      1812.8183      181.82853      292.48267      0.17832183   
    201000   479.50164      1309.8842      1789.3859      197.67733      293.15478      0.17812117   
    202000   497.06471      1328.3241      1825.3888      207.42763      297.28165      0.17865767   
    203000   484.47905      1308.8145      1793.2936      152.86191      292.91538      0.18306642   
    204000   490.61802      1287.9203      1778.5383      172.98567      288.23921      0.19058418   
    205000   452.79479      1326.5915      1779.3863      120.12284      296.89391      0.19366997   
    206000   468.25862      1294.1373      1762.3959      72.092757      289.63058      0.19131326   
    207000   505.9105       1325.596       1831.5065      93.928333      296.6711       0.18491623   
    208000   485.16825      1371.5685      1856.7368      175.00109      306.95985      0.18109652   
    209000   468.19182      1418.7107      1886.9025      189.34175      317.51037      0.180584     
    210000   499.76529      1379.459       1879.2243      191.30016      308.72576      0.18181686   
    211000   470.89404      1376.2993      1847.1934      213.39101      308.01862      0.18281269   
    212000   485.19682      1344.1449      1829.3418      130.54217      300.8224       0.18404264   
    213000   496.95569      1351.4467      1848.4024      112.27329      302.45655      0.19061453   
    214000   485.3896       1368.6153      1854.0049      142.17274      306.29891      0.19635666   
    215000   481.60287      1377.0322      1858.635       183.7191       308.18262      0.19896978   
    216000   491.45121      1371.2331      1862.6843      214.75681      306.88479      0.19520715   
    217000   490.17512      1364.0172      1854.1923      312.02325      305.26984      0.19134334   
    218000   469.2141       1365.3443      1834.5584      302.84941      305.56685      0.18880939   
    219000   481.6553       1377.7589      1859.4142      235.02121      308.34527      0.18662056   
    220000   489.35755      1349.6222      1838.9797      132.82633      302.04821      0.18312172   
    221000   517.43613      1361.3906      1878.8267      90.279166      304.68202      0.17897884   
    222000   524.73218      1354.0997      1878.8319      32.869164      303.0503       0.17437894   
    223000   498.0884       1316.9672      1815.0556      61.005743      294.73997      0.1711976    
    224000   480.91612      1353.1727      1834.0888      133.19667      302.84282      0.17250509   
    225000   494.54396      1335.3485      1829.8925      209.2964       298.85374      0.17608121   
    226000   465.66564      1340.6076      1806.2733      273.57246      300.03074      0.17910848   
    227000   448.349        1327.9959      1776.3449      259.17328      297.2082       0.1800864    
    228000   511.78793      1310.1515      1821.9394      211.94226      293.21459      0.17892742   
    229000   479.92659      1343.9713      1823.8979      119.63827      300.78353      0.17912391   
    230000   482.37828      1352.9064      1835.2847      112.51331      302.78323      0.18158941   
    231000   481.91727      1342.7066      1824.6238      78.00436       300.50049      0.18247076   
    232000   503.02346      1362.7038      1865.7273      79.669233      304.97591      0.18388866   
    233000   474.0628       1353.6426      1827.7054      98.796158      302.948        0.1857708    
    234000   480.53852      1375.3194      1855.8579      188.44016      307.79931      0.18786176   
    235000   473.85371      1377.4969      1851.3506      242.16962      308.28663      0.18402033   
    236000   515.60414      1364.4605      1880.0646      306.17584      305.36906      0.17926354   
    237000   486.08401      1343.9978      1830.0818      284.04002      300.78947      0.1763041    
    238000   494.31594      1326.4222      1820.7382      238.59905      296.85602      0.17341425   
    239000   530.82903      1310.1174      1840.9464      157.38147      293.20696      0.17308937   
    240000   487.97338      1307.2175      1795.1909      93.550118      292.55796      0.17705121   
    241000   498.85505      1324.2526      1823.1076      133.35763      296.37045      0.18724295   
    242000   475.63315      1338.1192      1813.7523      171.62589      299.47382      0.1911676    
    243000   481.51926      1314.6005      1796.1197      130.91496      294.21029      0.18810308   
    244000   481.2857       1298.5312      1779.8169      105.22093      290.61394      0.18372115   
    245000   496.2801       1313.8026      1810.0827      82.121383      294.03172      0.17799788   
    246000   466.26756      1325.8656      1792.1332      126.91492      296.73145      0.1747985    
    247000   509.51409      1319.4237      1828.9378      187.66398      295.28972      0.17706694   
    248000   471.5056       1316.4888      1787.9944      224.30449      294.63289      0.18431998   
    249000   482.97562      1331.5628      1814.5384      202.40124      298.00648      0.18688031   
    250000   481.48147      1342.8778      1824.3593      161.1866       300.53882      0.18548751   
    251000   491.70515      1327.8392      1819.5444      193.31689      297.17314      0.1827203    
    252000   505.65157      1320.8247      1826.4762      56.428133      295.60327      0.17653442   
    253000   514.81224      1278.3076      1793.1198      10.194942      286.08786      0.17474313   
    254000   504.36448      1322.2224      1826.5869      34.900899      295.91608      0.17633138   
    255000   487.91037      1334.638       1822.5484      124.66126      298.69474      0.17859206   
    256000   472.60845      1329.8959      1802.5044      129.34764      297.63344      0.180634     
    257000   495.25864      1338.0401      1833.2987      191.08274      299.45612      0.1868328    
    258000   478.43823      1347.3434      1825.7817      185.50537      301.53823      0.19606651   
    259000   462.24247      1372.7676      1835.0101      257.37556      307.22821      0.20259801   
    260000   480.35374      1373.3711      1853.7249      309.21319      307.36328      0.20025032   
    261000   497.49436      1343.6696      1841.164       230.27538      300.71602      0.1935452    
    262000   496.86729      1371.6096      1868.4769      169.65299      306.96905      0.18939864   
    263000   483.67494      1352.5554      1836.2303      96.92538       302.70467      0.18360415   
    264000   486.83682      1382.8362      1869.6731      59.187111      309.48159      0.17960316   
    265000   483.81697      1367.4754      1851.2924      53.073482      306.0438       0.1801161    
    266000   516.07177      1367.6816      1883.7534      107.69633      306.08996      0.18248074   
    267000   508.20026      1399.7205      1907.9207      170.31803      313.26032      0.18485798   
    268000   526.55792      1367.8379      1894.3958      259.36732      306.12493      0.18169034   
    269000   499.18909      1368.5018      1867.6909      267.30129      306.27351      0.17491422   
    270000   511.15417      1350.9203      1862.0745      227.72981      302.33873      0.16999624   
    271000   530.09666      1368.7806      1898.8773      121.56561      306.33591      0.16771497   
    272000   509.66188      1345.3603      1855.0222      124.10841      301.09441      0.1717321    
    273000   514.61887      1376.8218      1891.4407      194.22666      308.13555      0.18281795   
    274000   520.56171      1333.3585      1853.9202      253.41435      298.40838      0.18804071   
    275000   488.43901      1383.2686      1871.7077      287.04339      309.57836      0.1863425    
    276000   490.38296      1372.4618      1862.8448      251.90903      307.15978      0.18206843   
    277000   513.70155      1344.8892      1858.5908      161.25118      300.98897      0.17651766   
    278000   507.61767      1380.3168      1887.9344      191.85358      308.91772      0.17549145   
    279000   504.96066      1360.0562      1865.0169      101.71266      304.38337      0.17234489   
    280000   483.60141      1388.7322      1872.3336      51.473777      310.80112      0.17111193   
    281000   507.99966      1351.4853      1859.485       114.46528      302.46519      0.1766946    
    282000   493.4837       1361.9231      1855.4068      227.87057      304.80118      0.18611078   
    283000   481.60915      1417.0057      1898.6149      377.70606      317.12879      0.18873982   
    284000   475.66723      1396.2608      1871.928       368.25403      312.48602      0.18542611   
    285000   505.33957      1361.5437      1866.8833      237.69537      304.71628      0.18149268   
    286000   512.47754      1348.3212      1860.7987      163.50552      301.75705      0.18116074   
    287000   476.63938      1366.5581      1843.1975      61.663842      305.8385       0.18292015   
    288000   494.31766      1369.262       1863.5796      10.623485      306.44364      0.18566115   
    289000   500.28163      1358.9055      1859.1871      56.460121      304.12584      0.19104213   
    290000   501.85349      1358.773       1860.6265      168.83871      304.0962       0.19596175   
    291000   482.88636      1375.0074      1857.8937      224.54001      307.72947      0.19168486   
    292000   492.8011       1360.3798      1853.1809      203.29422      304.45579      0.18018317   
    293000   507.29824      1372.0261      1879.3243      186.74406      307.06226      0.17699486   
    294000   521.8531       1336.3969      1858.25        159.32876      299.08837      0.17848321   
    295000   487.34016      1345.9527      1833.2929      167.40696      301.22698      0.18115732   
    296000   491.66989      1341.4414      1833.1112      184.69503      300.21733      0.18440416   
    297000   496.22645      1327.3622      1823.5887      181.7954       297.06639      0.18615049   
    298000   486.96436      1323.9316      1810.896       133.25493      296.29862      0.1837131    
    299000   474.99871      1299.8214      1774.8201      63.485078      290.90269      0.17761708   
    300000   510.06096      1291.6898      1801.7507      71.748319      289.08282      0.17288335   
    301000   509.28552      1296.7493      1806.0348      102.00062      290.21515      0.17042357   
    302000   508.65588      1314.903       1823.5589      225.27418      294.278        0.16827974   
    303000   512.88585      1324.4775      1837.3634      261.6083       296.42079      0.16625836   
    304000   520.86493      1316.8128      1837.6778      342.93193      294.70541      0.17083691   
    305000   494.49363      1331.6868      1826.1804      297.32482      298.03423      0.17827977   
    306000   493.72881      1342.6912      1836.42        219.38522      300.49704      0.18336487   
    307000   476.9266       1353.0205      1829.9471      117.97061      302.80877      0.18362023   
    308000   480.24735      1386.5529      1866.8002     -51.26912       310.31338      0.183992     
    309000   479.3534       1369.9606      1849.314      -42.822812      306.6          0.18611875   
    310000   490.15911      1358.8446      1849.0037      11.135036      304.11221      0.18579881   
    311000   481.08885      1357.5291      1838.6179      134.49559      303.81779      0.18256366   
    312000   495.1999       1339.636       1834.8359      241.1433       299.81329      0.17719401   
    313000   516.44405      1353.1808      1869.6248      188.11445      302.84463      0.16933769   
    314000   506.7393       1345.6184      1852.3577      176.7784       301.15216      0.16827433   
    315000   493.40378      1345.9998      1839.4035      100.5856       301.23751      0.17379175   
    316000   482.06582      1316.3544      1798.4202      84.879416      294.60282      0.18012173   
    317000   479.67388      1302.9778      1782.6517      88.893859      291.60912      0.18284774   
    318000   468.51803      1353.7075      1822.2256      118.51233      302.96252      0.18566934   
    319000   496.66563      1344.7714      1841.4371      151.26567      300.96261      0.18747755   
    320000   458.30757      1329.0857      1787.3933      226.07745      297.4521       0.18860494   
    321000   471.41555      1338.76        1810.1756      175.48578      299.61724      0.18498195   
    322000   489.97203      1390.0928      1880.0648      196.87524      311.10562      0.18040938   
    323000   507.21107      1389.3906      1896.6017      158.53109      310.94848      0.17538791   
    324000   511.6608       1331.7455      1843.4063      154.20364      298.04737      0.17363784   
    325000   487.19458      1352.9926      1840.1872      174.05213      302.80253      0.17745963   
    326000   475.51123      1344.0772      1819.5885      207.97547      300.80724      0.18823248   
    327000   498.18072      1350.4627      1848.6434      214.92624      302.23633      0.19236625   
    328000   471.076        1341.7712      1812.8472      202.47049      300.29115      0.19001436   
    329000   456.45891      1334.2454      1790.7043      172.98621      298.60686      0.1845457    
    330000   481.42431      1332.8797      1814.304       128.32026      298.30121      0.17953157   
    331000   474.34841      1340.4608      1814.8092      162.42454      299.99787      0.17638215   
    332000   490.13817      1285.699       1775.8371      123.25412      287.74207      0.17476742   
    333000   458.94776      1307.6667      1766.6144      107.53434      292.65849      0.17316626   
    334000   485.03013      1331.6147      1816.6448      156.45875      298.01809      0.17519739   
    335000   481.93072      1329.6352      1811.5659      139.13633      297.57508      0.17789382   
    336000   493.87243      1314.0563      1807.9287      151.685        294.08849      0.18717534   
    337000   489.50865      1340.8779      1830.3866      133.8139       300.09124      0.1945564    
    338000   454.44628      1346.8483      1801.2945      219.61155      301.42741      0.19429048   
    339000   509.1067       1343.4139      1852.5206      178.98107      300.65878      0.18858313   
    340000   511.08545      1381.3488      1892.4343      208.02055      309.1487       0.1821624    
    341000   488.18984      1389.0076      1877.1974      207.41403      310.86275      0.17811389   
    342000   531.25424      1357.2914      1888.5456      139.58442      303.7646       0.17748635   
    343000   510.6523       1342.6939      1853.3462      83.286134      300.49766      0.178938     
    344000   523.19415      1346.3258      1869.52        82.852931      301.31048      0.18393378   
    345000   474.36406      1382.3752      1856.7393      88.674222      309.37842      0.18803741   
    346000   501.68266      1363.9531      1865.6358      107.9279       305.25551      0.1901545    
    347000   471.47949      1344.768       1816.2474      115.16753      300.96183      0.18981567   
    348000   510.6502       1350.979       1861.6292      113.63174      302.35187      0.18642538   
    349000   509.69131      1367.1158      1876.8071      176.41624      305.96333      0.18030563   
    350000   494.13469      1360.2343      1854.369       218.10753      304.42323      0.17331058   
    351000   498.02397      1329.6864      1827.7103      237.27179      297.58654      0.16982939   
    352000   502.99764      1300.3323      1803.3299      209.64181      291.01703      0.17201668   
    353000   479.40173      1291.1824      1770.5841      174.44159      288.96926      0.17897254   
    354000   486.749        1304.5401      1791.2891      111.74569      291.95875      0.18541312   
    355000   456.26575      1332.5597      1788.8255      104.97147      298.2296       0.18961222   
    356000   472.51604      1338.2852      1810.8012      44.89366       299.51096      0.18886215   
    357000   495.50333      1315.6093      1811.1126      115.26032      294.43605      0.18779136   
    358000   495.86209      1324.5113      1820.3734      183.88539      296.42834      0.18487078   
    359000   482.20402      1337.7636      1819.9676      215.51592      299.39424      0.18209475   
    360000   474.84237      1306.9239      1781.7663      195.36597      292.49226      0.18377993   
    361000   491.80783      1287.6461      1779.4539      161.46359      288.17784      0.18866667   
    362000   483.50395      1332.4666      1815.9705      132.21954      298.20875      0.19231354   
    363000   470.85825      1351.6343      1822.4925      59.064085      302.49853      0.1895991    
    364000   503.07622      1337.1681      1840.2443      58.351629      299.26096      0.18348076   
    365000   520.04546      1350.4319      1870.4774      66.727868      302.22944      0.17779007   
    366000   518.50935      1386.9473      1905.4567      124.39226      310.40165      0.17622796   
    367000   486.61678      1387.3674      1873.9842      137.92838      310.49568      0.17809064   
    368000   498.08867      1361.6293      1859.718       155.94732      304.73543      0.1842908    
    369000   530.34411      1352.318       1882.6621      151.00736      302.65155      0.18971514   
    370000   489.32669      1369.1313      1858.4579      83.206314      306.41439      0.18892382   
    371000   511.01122      1355.0301      1866.0413      105.81546      303.25851      0.18530505   
    372000   498.36923      1357.8356      1856.2048      198.89746      303.88639      0.18160601   
    373000   529.35475      1317.8317      1847.1865      251.84959      294.93345      0.17748428   
    374000   491.86599      1333.2038      1825.0698      255.48205      298.37375      0.17362899   
    375000   529.02599      1324.9046      1853.9306      232.68928      296.51637      0.17134514   
    376000   508.80366      1354.6933      1863.497       225.42908      303.18315      0.17343397   
    377000   513.61067      1331.2613      1844.8719      126.1489       297.939        0.17807904   
    378000   501.51227      1355.2649      1856.7772      38.265196      303.31107      0.18528122   
    379000   490.80972      1362.4707      1853.2804      69.027981      304.92375      0.1900341    
    380000   501.99736      1368.279       1870.2763      47.348747      306.22364      0.1883717    
    381000   536.74897      1397.4043      1934.1532      59.672518      312.74194      0.18353471   
    382000   482.59512      1356.0383      1838.6334      159.56287      303.48414      0.1809809    
    383000   507.80471      1339.7304      1847.5352      231.13956      299.83442      0.18263504   
    384000   496.28454      1341.0327      1837.3172      239.34659      300.12587      0.18660738   
    385000   480.94879      1347.6061      1828.5548      268.69728      301.597        0.19325396   
    386000   455.61709      1296.3211      1751.9382      254.98603      290.11933      0.19783617   
    387000   467.61009      1294.8228      1762.4329      177.83555      289.784        0.20028899   
    388000   460.75126      1330.1629      1790.9142      103.84168      297.69319      0.20005689   
    389000   477.48909      1340.334       1817.8231      76.085163      299.9695       0.19676878   
    390000   483.33297      1299.9255      1783.2585      55.320408      290.92599      0.19283931   
    391000   488.6669       1335.7581      1824.425       72.63274       298.9454       0.1893603    
    392000   486.45895      1340.2216      1826.6806      82.552043      299.94435      0.18642459   
    393000   510.37736      1308.2214      1818.5987      121.30215      292.78263      0.18352344   
    394000   514.5752       1388.0395      1902.6147      131.52265      310.6461       0.18030072   
    395000   495.02779      1366.9548      1861.9826      189.45176      305.92729      0.18090254   
    396000   495.27206      1324.7583      1820.0303      242.75213      296.48362      0.18368827   
    397000   473.3482       1351.131       1824.4792      222.25387      302.3859       0.18319514   
    398000   497.92964      1314.3379      1812.2676      227.39407      294.15153      0.18042507   
    399000   497.27558      1337.9835      1835.2591      169.87422      299.44346      0.17480237   
    400000   495.93442      1339.7547      1835.6891      128.4987       299.83984      0.1715712    
    401000   489.15129      1308.5354      1797.6867      73.758452      292.85291      0.17163124   
    402000   515.96611      1318.5367      1834.5028      49.654272      295.09123      0.1755452    
    403000   499.98719      1331.6991      1831.6863      70.063386      298.03699      0.1839554    
    404000   486.98932      1358.7344      1845.7237      118.98106      304.08754      0.18872638   
    405000   492.01918      1336.6871      1828.7062      157.52436      299.15331      0.18735169   
    406000   483.43656      1345.0875      1828.5241      193.09701      301.03334      0.1870518    
    407000   470.45633      1300.9364      1771.3927      193.31521      291.15224      0.18807327   
    408000   462.55817      1326.8408      1789.399       190.90399      296.9497       0.18969456   
    409000   489.65607      1342.8916      1832.5477      131.92656      300.5419       0.18883566   
    410000   499.97056      1346.4608      1846.4313      140.22275      301.34069      0.18445337   
    411000   494.35571      1336.6766      1831.0323      167.52407      299.15097      0.18153589   
    412000   497.9863       1368.9404      1866.9267      235.23722      306.37167      0.1829753    
    413000   497.12663      1399.2928      1896.4194      342.94643      313.1646       0.18492827   
    414000   498.17202      1335.8955      1834.0675      347.35512      298.97615      0.18517951   
    415000   510.0603       1333.0513      1843.1116      297.72412      298.33962      0.18590185   
    416000   496.47449      1350.1446      1846.6191      222.62105      302.16513      0.18621766   
    417000   494.76699      1343.4408      1838.2078      136.24656      300.66482      0.18625807   
    418000   498.4044       1367.2481      1865.6525      66.257298      305.99294      0.18692127   
    419000   497.4071       1345.7134      1843.1205      56.907551      301.17342      0.18261263   
    420000   508.36323      1279.9757      1788.3389      69.727771      286.46118      0.17511446   
    421000   487.44336      1307.0003      1794.4436      131.66087      292.50934      0.17393453   
    422000   499.16282      1318.4995      1817.6623      180.56746      295.08289      0.17921193   
    423000   480.83387      1340.2296      1821.0634      217.17681      299.94613      0.1838658    
    424000   487.18489      1297.4027      1784.5875      181.99878      290.36138      0.18543459   
    425000   501.06985      1306.4726      1807.5425      176.12584      292.39126      0.18914619   
    426000   491.1834       1305.4953      1796.6787      163.39318      292.17252      0.19412571   
    427000   464.21602      1348.5206      1812.7367      82.630244      301.80169      0.19329557   
    428000   461.98531      1338.6443      1800.6296      127.09148      299.59134      0.19056886   
    429000   455.13979      1326.0305      1781.1703      166.34111      296.76835      0.18810209   
    430000   492.81896      1325.004       1817.8229      118.7168       296.53861      0.18645944   
    431000   489.85557      1307.2584      1797.1139      118.17074      292.56711      0.18526844   
    432000   473.95255      1304.1901      1778.1427      69.800022      291.88043      0.18432877   
    433000   479.12491      1319.3843      1798.5092      99.207029      295.2809       0.18781077   
    434000   492.51934      1299.52        1792.0394      183.89492      290.83525      0.19258165   
    435000   481.56131      1356.7302      1838.2915      268.46908      303.63899      0.19262034   
    436000   476.15541      1362.7667      1838.9222      262.42508      304.98999      0.18851832   
    437000   511.92707      1374.0405      1885.9675      217.68818      307.51307      0.18321453   
    438000   509.45717      1366.2941      1875.7512      145.82618      305.77941      0.17902333   
    439000   538.52581      1375.5045      1914.0303      70.074027      307.84073      0.17953265   
    440000   508.84371      1370.5548      1879.3985      71.558749      306.73298      0.18214103   
    441000   491.83295      1349.0553      1840.8883      151.64394      301.92135      0.18625908   
    442000   524.07157      1383.705       1907.7766      188.16629      309.67603      0.19187805   
    443000   462.50774      1387.4831      1849.9908      191.95295      310.52155      0.19795981   
    444000   446.16658      1339.3141      1785.4807      193.5506       299.74125      0.20536555   
    445000   473.34375      1319.9853      1793.329       204.2927       295.41541      0.20844677   
    446000   445.11826      1347.3772      1792.4955      231.99996      301.54579      0.20466136   
    447000   474.06414      1321.8376      1795.9018      154.13784      295.82997      0.19481528   
    448000   490.52337      1315.2104      1805.7337      162.06566      294.34678      0.19019891   
    449000   482.87345      1332.9385      1815.8119      156.41755      298.31437      0.18823773   
    450000   496.18049      1324.2654      1820.4459      160.30418      296.37331      0.18742721   
    451000   459.04544      1338.6244      1797.6698      159.88627      299.58688      0.18636857   
    452000   485.49927      1336.338       1821.8373      145.01478      299.07519      0.19120429   
    453000   478.22489      1350.2135      1828.4384      166.76218      302.18055      0.19699438   
    454000   481.88748      1351.4021      1833.2896      203.47513      302.44656      0.2017528    
    455000   485.8666       1382.7638      1868.6304      241.70718      309.46538      0.202838     
    456000   461.7723       1357.4294      1819.2017      260.28315      303.79549      0.19818526   
    457000   477.83781      1353.9297      1831.7676      239.04565      303.01225      0.19083418   
    458000   475.9573       1324.4448      1800.4021      210.5131       296.41347      0.18599441   
    459000   497.68112      1346.2126      1843.8937      120.34622      301.28514      0.18672158   
    460000   515.62726      1338.3772      1854.0045      87.5068        299.53156      0.19002612   
    461000   498.31949      1373.5763      1871.8958      61.623608      307.4092       0.18967161   
    462000   483.59489      1361.6497      1845.2446      78.874926      304.73999      0.1863528    
    463000   481.26338      1338.5677      1819.8311      136.89605      299.57421      0.1854815    
    464000   493.86286      1317.9763      1811.8392      272.01016      294.9658       0.18816778   
    465000   480.40823      1312.5893      1792.9976      187.70473      293.76019      0.19070696   
    466000   480.86555      1346.7973      1827.6629      184.41385      301.41601      0.19914669   
    467000   491.72127      1391.3027      1883.024       124.5544       311.3764       0.20167851   
    468000   483.14788      1404.134       1887.2819      86.92582       314.24807      0.19709812   
    469000   473.55823      1363.2837      1836.8419      81.15288       305.10568      0.18827784   
    470000   515.0022       1340.9997      1856.0019      75.688158      300.11849      0.18510714   
    471000   496.46995      1372.0269      1868.4968      160.70821      307.06243      0.18795654   
    472000   478.60022      1345.2928      1823.893       188.65768      301.07929      0.19266069   
    473000   460.78303      1342.7032      1803.4863      229.75793      300.49974      0.19453912   
    474000   497.46647      1343.274       1840.7405      192.48572      300.62748      0.19394441   
    475000   499.94267      1325.0576      1825.0002      182.69667      296.55061      0.18973933   
    476000   504.36677      1327.4323      1831.799       216.13952      297.08206      0.18261733   
    477000   472.52733      1316.0697      1788.597       263.17569      294.53909      0.1779622    
    478000   503.13217      1328.8689      1832.0011      219.79658      297.40359      0.17603538   
    479000   507.98122      1330.0079      1837.9891      136.01878      297.6585       0.17748999   
    480000   498.76183      1305.3969      1804.1588      31.459944      292.15051      0.1802838    
    481000   475.5395       1317.8747      1793.4142      63.099182      294.94307      0.18630498   
    482000   483.33919      1311.0019      1794.341       120.87749      293.40491      0.19302263   
    483000   467.15511      1270.1141      1737.2693      147.58261      284.25415      0.1987555    
    484000   454.44204      1322.2329      1776.6749      240.62062      295.91844      0.19875968   
    485000   447.00976      1355.9435      1802.9533      243.4751       303.46294      0.19267237   
    486000   468.03525      1339.9812      1808.0164      274.76692      299.89054      0.18551582   
    487000   456.16934      1351.3982      1807.5675      235.07314      302.44568      0.18227442   
    488000   482.0787       1326.6971      1808.7758      237.09048      296.91753      0.18590454   
    489000   452.94095      1355.5908      1808.5318      251.13043      303.38401      0.1889943    
    490000   459.05271      1321.592       1780.6447      164.57848      295.775        0.18852786   
    491000   487.6474       1310.5333      1798.1807      134.61266      293.30004      0.18695263   
    492000   492.77289      1287.3638      1780.1367      3.9187894      288.11466      0.18365596   
    493000   495.54497      1317.9063      1813.4513     -48.427842      294.95014      0.17995048   
    494000   509.34979      1314.5482      1823.898      -36.187736      294.19858      0.17056095   
    495000   535.58825      1351.3486      1886.9369      10.274216      302.4346       0.16446304   
    496000   540.89248      1329.4508      1870.3433      150.54474      297.53383      0.16466878   
    497000   493.27435      1386.0555      1879.3298      158.58959      310.20206      0.16677211   
    498000   501.97204      1367.639       1869.611       214.57438      306.08041      0.17288638   
    499000   555.88047      1354.5415      1910.422       202.72953      303.14917      0.17612697   
    500000   484.88222      1350.4519      1835.3341      251.61414      302.2339       0.17826596   
    501000   490.77881      1355.0137      1845.7925      288.98928      303.25484      0.18043518   
    502000   509.11765      1323.62        1832.7377      310.97049      296.22888      0.18389189   
    503000   483.52258      1346.2769      1829.7995      197.74422      301.29954      0.18265328   
    504000   523.04623      1375.9338      1898.98        101.49275      307.9368       0.17991456   
    505000   537.09215      1345.4471      1882.5392      66.443354      301.11382      0.17501978   
    506000   516.23882      1349.6589      1865.8977      93.784476      302.05643      0.17339336   
    507000   480.77359      1385.1045      1865.8781      198.45785      309.98924      0.18021086   
    508000   518.20438      1409.0063      1927.2107      233.72438      315.33851      0.1898344    
    509000   512.14529      1380.9964      1893.1417      195.56714      309.06983      0.19197573   
    510000   512.49284      1351.8486      1864.3415      154.48713      302.5465       0.19130581   
    511000   504.43791      1329.0527      1833.4906      122.60347      297.44472      0.18945088   
    512000   521.34304      1319.2329      1840.576       130.81511      295.24704      0.18438376   
    513000   470.85996      1339.804       1810.6639      103.05728      299.85088      0.17819167   
    514000   500.51663      1334.0331      1834.5497      89.033169      298.55934      0.17628717   
    515000   505.88165      1315.829       1821.7106      93.161861      294.48523      0.17899021   
    516000   473.59861      1320.9788      1794.5774      132.37299      295.63776      0.18355539   
    517000   481.00158      1321.253       1802.2546      150.79202      295.69913      0.18676152   
    518000   479.49981      1327.096       1806.5959      125.66997      297.00682      0.18675222   
    519000   482.18775      1335.85        1818.0377      100.16532      298.96597      0.18479205   
    520000   491.95322      1323.372       1815.3253      103.20641      296.17338      0.18225321   
    521000   515.32997      1335.6078      1850.9378      106.675        298.91177      0.17991055   
    522000   509.11978      1374.222       1883.3418      143.15926      307.55371      0.17948947   
    523000   548.82122      1366.0647      1914.886       122.76426      305.72809      0.17931919   
    524000   494.50931      1355.6419      1850.1512      72.703207      303.39544      0.17796416   
    525000   517.76245      1342.1444      1859.9069      22.127776      300.37468      0.17320239   
    526000   542.03302      1374.6244      1916.6575      63.676159      307.64377      0.1702453    
    527000   526.61736      1363.3383      1889.9557      157.02467      305.11792      0.17097175   
    528000   516.30305      1368.6032      1884.9062      330.37983      306.2962       0.17892944   
    529000   511.11946      1345.66        1856.7794      377.27113      301.16147      0.18651841   
    530000   511.41786      1376.6874      1888.1052      290.90936      308.10546      0.18769471   
    531000   481.57189      1364.0098      1845.5817      169.38466      305.26818      0.18596162   
    532000   491.93067      1349.9454      1841.8761      71.011515      302.12056      0.18216969   
    533000   473.06308      1369.2428      1842.3059      52.552415      306.43935      0.18025134   
    534000   508.22894      1308.3386      1816.5675      76.945054      292.80886      0.17743594   
    535000   506.17403      1287.9832      1794.1572      176.01593      288.25328      0.17460805   
    536000   500.21753      1327.8643      1828.0819      257.24811      297.17876      0.17105339   
    537000   522.48441      1292.4439      1814.9283      160.62835      289.25159      0.16220492   
    538000   534.51516      1341.6884      1876.2035      129.07326      300.27261      0.16193533   
    539000   533.54608      1354.5729      1888.119       144.15291      303.1562       0.16765598   
    540000   517.04065      1357.0187      1874.0594      133.28578      303.70357      0.17418635   
    541000   542.75143      1328.3507      1871.1021      64.078367      297.28761      0.17942926   
    542000   510.36255      1384.2525      1894.6151      132.76763      309.79855      0.18462189   
    543000   504.44919      1402.6158      1907.065       126.52482      313.9083       0.18651141   
    544000   494.83456      1378.1515      1872.9861      114.35795      308.43313      0.18605824   
    545000   488.14591      1355.9636      1844.1095      199.72022      303.46743      0.18415293   
    546000   498.5184       1368.6844      1867.2028      254.04912      306.31438      0.18082688   
    547000   510.10567      1341.6458      1851.7515      263.23335      300.26309      0.17752654   
    548000   499.14058      1349.3441      1848.4846      178.70409      301.98597      0.17507243   
    549000   469.86997      1370.122       1839.992       130.50109      306.63612      0.17591413   
    550000   527.00216      1338.5308      1865.533       49.709312      299.56594      0.18097118   
    551000   533.1756       1356.8324      1890.008       25.518832      303.66187      0.18582089   
    552000   472.52354      1365.6461      1838.1697      34.453343      305.6344       0.18801447   
    553000   466.01194      1313.937       1779.9489      85.60228       294.06179      0.19179099   
    554000   477.45647      1328.4963      1805.9527      253.92321      297.32019      0.19829738   
    555000   465.41123      1296.9717      1762.3829      314.84506      290.26492      0.2012652    
    556000   464.88567      1321.8954      1786.7811      282.0304       295.8429       0.19763236   
    557000   493.48305      1393.2191      1886.7021      216.39678      311.80528      0.19142636   
    558000   530.48711      1375.2937      1905.7808      139.26298      307.79355      0.18757814   
    559000   503.32502      1351.9502      1855.2753      63.044827      302.56924      0.18719203   
    560000   473.63475      1354.521       1828.1557      74.697454      303.14457      0.188381     
    561000   475.68539      1368.1635      1843.8488      79.295642      306.19779      0.19036193   
    562000   503.1675       1327.2212      1830.3887      113.71641      297.03484      0.19494918   
    563000   488.80054      1350.1832      1838.9837      211.46557      302.17377      0.1976474    
    564000   507.8121       1349.6444      1857.4565      233.64926      302.05319      0.19435415   
    565000   495.3497       1346.381       1841.7307      272.17086      301.32282      0.19373226   
    566000   485.64589      1385.4729      1871.1188      314.14334      310.07169      0.19402765   
    567000   486.01727      1346.6889      1832.7062      252.46818      301.39175      0.19122142   
    568000   475.73958      1334.7805      1810.52        92.509694      298.72661      0.18714547   
    569000   473.87649      1324.9201      1798.7966      101.78821      296.51984      0.18433649   
    570000   474.09911      1276.6405      1750.7396      106.12768      285.71477      0.18388588   
    571000   493.89448      1321.7832      1815.6776      119.40156      295.81779      0.18553372   
    572000   483.74052      1337.0965      1820.8371      163.81925      299.24495      0.18817134   
    573000   466.25308      1316.4688      1782.7219      174.20542      294.62842      0.19169184   
    574000   486.573        1334.7401      1821.3131      116.98945      298.71757      0.19379832   
    575000   490.6485       1306.3957      1797.0442      79.456805      292.37405      0.19445289   
    576000   471.59312      1303.3126      1774.9057      78.210711      291.68403      0.19300922   
    577000   478.44263      1302.2007      1780.6434      78.27295       291.4352       0.18854043   
    578000   487.38246      1361.1028      1848.4853      153.60108      304.61761      0.18289372   
    579000   524.1349       1359.7678      1883.9027      206.64894      304.31881      0.17619001   
    580000   494.50307      1339.0551      1833.5582      246.57127      299.68328      0.17136485   
    581000   522.43958      1335.3299      1857.7694      228.26214      298.84957      0.17158861   
    582000   476.92774      1298.1663      1775.0941      189.80432      290.53229      0.17649569   
    583000   512.22389      1320.9224      1833.1463      143.23582      295.62514      0.18221047   
    584000   492.95684      1331.3164      1824.2732      77.909709      297.95133      0.18500208   
    585000   492.93409      1330.8406      1823.7747      83.610277      297.84486      0.18563417   
    586000   488.29961      1338.3098      1826.6094      90.901309      299.51647      0.1851234    
    587000   499.14228      1330.4721      1829.6144      86.106892      297.76239      0.18548415   
    588000   468.89158      1326.7499      1795.6415      114.36983      296.92936      0.18984119   
    589000   481.28604      1342.2633      1823.5494      81.087247      300.40129      0.19768418   
    590000   479.64889      1347.7468      1827.3957      102.62043      301.62849      0.20165523   
    591000   472.43723      1352.572       1825.0092      151.2285       302.70839      0.19993328   
    592000   482.52627      1334.9132      1817.4395      130.27456      298.75632      0.19290241   
    593000   482.92636      1342.6557      1825.582       187.79634      300.48909      0.18885702   
    594000   473.29989      1325.5962      1798.8961      215.45864      296.67115      0.18497389   
    595000   481.22525      1349.9409      1831.1662      206.84876      302.11955      0.18176743   
    596000   496.54786      1311.7936      1808.3414      203.17375      293.5821       0.18076794   
    597000   484.7719       1304.9996      1789.7715      227.29601      292.06158      0.18015673   
    598000   488.59864      1310.4327      1799.0314      167.65133      293.27753      0.18035694   
    599000   491.85904      1322.6328      1814.4919      163.3751       296.00794      0.18663663   
    600000   500.38881      1339.4493      1839.8381      135.16321      299.7715       0.19415861   
    601000   487.26546      1352.1963      1839.4617      137.36426      302.6243       0.19553224   
    602000   480.91616      1361.4261      1842.3423      128.32111      304.68996      0.19217362   
    603000   508.5704       1363.0465      1871.6169      87.055637      305.05259      0.18639919   
    604000   506.32683      1386.6749      1893.0017      103.67863      310.34068      0.18115761   
    605000   496.87162      1404.2477      1901.1193      166.73339      314.27351      0.18049519   
    606000   516.57289      1367.4418      1884.0147      114.18429      306.03628      0.17958634   
    607000   532.41345      1339.633       1872.0464      159.1291       299.81261      0.18069886   
    608000   541.72789      1357.0954      1898.8233      164.84865      303.72073      0.18187541   
    609000   512.67221      1395.2919      1907.9641      185.41944      312.26919      0.18313131   
    610000   485.49947      1318.6629      1804.1623      188.22035      295.11946      0.1810431    
    611000   515.06419      1297.2197      1812.2839      118.00805      290.32043      0.17436665   
    612000   504.47783      1337.2817      1841.7595      122.40854      299.28639      0.16901767   
    613000   501.76516      1339.9494      1841.7145      150.61182      299.88342      0.16866908   
    614000   527.64183      1291.7529      1819.3947      116.57579      289.09694      0.17071082   
    615000   501.63738      1309.3509      1810.9883      161.76901      293.03541      0.17737591   
    616000   453.91642      1304.4726      1758.389       214.50629      291.94365      0.18086748   
    617000   491.0709       1332.1288      1823.1997      212.23303      298.13316      0.17922335   
    618000   513.96535      1331.387       1845.3524      197.22712      297.96715      0.17651545   
    619000   509.65672      1349.4791      1859.1358      187.80029      302.0162       0.17679823   
    620000   496.4353       1372.6239      1869.0592      162.88988      307.19605      0.18131741   
    621000   496.29735      1337.463       1833.7603      95.359921      299.32696      0.18976002   
    622000   508.30124      1335.3498      1843.651       79.130931      298.85403      0.19520523   
    623000   472.7718       1337.9451      1810.7169      114.68281      299.43486      0.19170136   
    624000   475.98908      1332.1332      1808.1222      182.02811      298.13414      0.18317592   
    625000   500.92789      1294.5951      1795.523       183.52416      289.73304      0.17898379   
    626000   472.76518      1301.4467      1774.2119      203.77494      291.26645      0.17917813   
    627000   493.2217       1322.4874      1815.7091      254.56208      295.97538      0.18235125   
    628000   534.17789      1304.3622      1838.5401      124.63419      291.91894      0.18641912   
    629000   494.649        1330.0303      1824.6793      146.07677      297.66352      0.19114332   
    630000   462.15657      1342.7432      1804.8998      112.30711      300.50868      0.1911317    
    631000   494.19719      1319.031       1813.2282      74.879537      295.20186      0.18816166   
    632000   481.25105      1343.4664      1824.7175      183.24931      300.67054      0.18440749   
    633000   506.93937      1310.146       1817.0854      261.96259      293.21337      0.18160491   
    634000   512.73404      1319.9984      1832.7324      286.21497      295.41835      0.17870152   
    635000   505.36148      1328.2915      1833.653       275.39853      297.27437      0.17705361   
    636000   513.85091      1338.2296      1852.0805      263.54429      299.49854      0.17653709   
    637000   490.71418      1328.2732      1818.9874      210.53534      297.27027      0.17527842   
    638000   523.49351      1318.2845      1841.778       97.477056      295.03478      0.17561728   
    639000   492.60255      1350.8601      1843.4626      48.804356      302.32526      0.17924002   
    640000   490.43289      1360.4089      1850.8418     -2.0312609      304.4623       0.18896611   
    641000   486.453        1352.2289      1838.6819      69.196222      302.6316       0.19615082   
    642000   484.14281      1354.3191      1838.4619      158.59406      303.09939      0.19723705   
    643000   470.66354      1395.5515      1866.2151      239.81546      312.3273       0.19550246   
    644000   474.74022      1373.0649      1847.8051      304.95346      307.29474      0.19454283   
    645000   481.90647      1371.7617      1853.6682      269.3189       307.00309      0.19131883   
    646000   489.65699      1354.5484      1844.2053      189.87893      303.1507       0.18665986   
    647000   525.38073      1354.9772      1880.3579      138.67273      303.24667      0.18295844   
    648000   539.75989      1330.2769      1870.0368      88.633428      297.7187       0.17954448   
    649000   515.14067      1341.7398      1856.8805      97.176576      300.28412      0.17750036   
    650000   514.43346      1321.6707      1836.1041      127.35824      295.79261      0.17645767   
    651000   509.74662      1337.503       1847.2496      107.5894       299.33592      0.17608242   
    652000   525.48642      1356.5531      1882.0395      153.08664      303.59936      0.17858316   
    653000   530.92327      1344.9397      1875.863       117.75627      301.00027      0.18319649   
    654000   507.79396      1354.1089      1861.9029      103.66283      303.05236      0.1892485    
    655000   493.52813      1386.7731      1880.3012      110.169        310.36267      0.19177137   
    656000   497.09326      1345.5072      1842.6004      101.85076      301.12727      0.18983425   
    657000   499.37822      1336.0944      1835.4726      147.85302      299.02067      0.18470122   
    658000   495.72962      1381.3391      1877.0687      182.47538      309.14653      0.17759565   
    659000   509.67408      1330.7582      1840.4323      238.72443      297.82643      0.17299548   
    660000   516.57258      1323.4329      1840.0055      282.58718      296.187        0.17391474   
    661000   513.1012       1324.0813      1837.1825      254.35135      296.33212      0.1792883    
    662000   518.85677      1338.6739      1857.5307      256.17676      299.59796      0.18402642   
    663000   522.3347       1364.6972      1887.0319      255.61636      305.42204      0.18515553   
    664000   501.56998      1344.6868      1846.2568      194.95672      300.94368      0.18323181   
    665000   497.80144      1351.0804      1848.8818      122.71636      302.37456      0.17903861   
    666000   507.07554      1360.6279      1867.7034      145.34168      304.51132      0.17624336   
    667000   497.35392      1346.986       1844.3399      133.1937       301.45822      0.17314439   
    668000   523.82629      1326.9084      1850.7347      221.26333      296.96482      0.17600668   
    669000   510.01717      1343.7083      1853.7254      192.57508      300.72467      0.17994485   
    670000   492.39936      1331.5729      1823.9723      212.81562      298.00875      0.18451372   
    671000   484.81784      1335.9991      1820.817       192.01142      298.99935      0.18392395   
    672000   486.29061      1319.8522      1806.1428      170.6724       295.38563      0.18440707   
    673000   488.57388      1339.7804      1828.3543      132.75201      299.84561      0.18790031   
    674000   485.74975      1330.3574      1816.1071      45.719554      297.73671      0.18883116   
    675000   492.89779      1301.4692      1794.3669      54.19507       291.27147      0.18978123   
    676000   463.83611      1285.2602      1749.0963      65.416806      287.64387      0.18861111   
    677000   470.02697      1307.7644      1777.7914      123.67915      292.68037      0.18287368   
    678000   511.85307      1334.9797      1846.8328      217.00462      298.77121      0.17517034   
    679000   500.36211      1305.6072      1805.9694      193.06677      292.19758      0.16974298   
    680000   494.85809      1315.0695      1809.9276      170.24934      294.31526      0.17084876   
    681000   507.93686      1314.6159      1822.5528      161.94476      294.21375      0.17713223   
    682000   493.77389      1333.0964      1826.8702      115.34473      298.3497       0.18126391   
    683000   476.54522      1315.9473      1792.4925      164.69131      294.5117       0.18395245   
    684000   492.29004      1358.146       1850.436       162.80057      303.95586      0.18169012   
    685000   531.66528      1366.2784      1897.9437      199.31885      305.77591      0.17565871   
    686000   504.7178       1366.1454      1870.8632      284.11368      305.74614      0.17298858   
    687000   499.85154      1377.7992      1877.6508      213.70067      308.35429      0.17220979   
    688000   554.61997      1331.5165      1886.1365      142.01829      297.99612      0.17702285   
    689000   543.95592      1319.3311      1863.2871      109.73886      295.26902      0.18369635   
    690000   512.41062      1372.2267      1884.6373      60.524643      307.10715      0.18506022   
    691000   506.64292      1414.1225      1920.7655      92.348587      316.48353      0.18460862   
    692000   492.58567      1377.1412      1869.7269      95.986524      308.20703      0.18166713   
    693000   510.21674      1337.6949      1847.9116      147.36582      299.37886      0.18009325   
    694000   516.22686      1338.196       1854.4229      196.03598      299.49102      0.1775121    
    695000   524.98734      1327.9475      1852.9348      180.19434      297.19737      0.17301078   
    696000   521.2991       1366.2652      1887.5643      126.23193      305.77296      0.17250473   
    697000   513.07334      1340.381       1853.4543      93.981525      299.98002      0.17520157   
    698000   498.2595       1358.1339      1856.3934      50.24662       303.95315      0.17908402   
    699000   492.97347      1346.5608      1839.5343      78.569258      301.36308      0.18337747   
    700000   483.29806      1359.01        1842.308       83.185561      304.14922      0.18300513   
    701000   499.20324      1389.0111      1888.2144      139.1989       310.86354      0.18177828   
    702000   501.76382      1397.398       1899.1618      201.86764      312.74053      0.18336134   
    703000   482.89133      1353.9353      1836.8266      276.8722       303.01349      0.19168734   
    704000   513.31144      1324.3872      1837.6986      317.24403      296.40056      0.19491984   
    705000   499.01486      1326.6048      1825.6196      262.91663      296.89687      0.19039242   
    706000   494.74321      1330.1167      1824.8599      205.19935      297.68286      0.18657458   
    707000   513.57468      1333.0337      1846.6084      141.50424      298.33568      0.18585202   
    708000   507.71206      1340.5095      1848.2216      124.85215      300.00879      0.18727291   
    709000   503.05165      1362.4021      1865.4537      181.58909      304.90838      0.18978563   
    710000   521.84579      1328.54        1850.3858      215.80914      297.32999      0.19337355   
    711000   484.41276      1388.3535      1872.7662      249.45867      310.71635      0.19548152   
    712000   468.40462      1351.8022      1820.2068      274.27295      302.53611      0.19686139   
    713000   469.38688      1355.8461      1825.233       176.95697      303.44113      0.19678708   
    714000   492.95587      1347.0028      1839.9587      142.63165      301.46199      0.19906461   
    715000   498.25903      1331.6201      1829.8791      99.639473      298.0193       0.19937865   
    716000   485.22767      1377.0034      1862.231       165.19594      308.17618      0.19562353   
    717000   514.86957      1318.7         1833.5696      204.38322      295.12778      0.18751667   
    718000   518.78946      1324.6114      1843.4008      188.47492      296.45074      0.18330479   
    719000   472.8835       1327.3395      1800.2231      173.83972      297.06132      0.18323116   
    720000   473.84118      1340.792       1814.6332      174.5157       300.07201      0.18625614   
    721000   508.61822      1297.8131      1806.4313      191.92225      290.45323      0.18880841   
    722000   456.0882       1338.2382      1794.3264      241.30451      299.50045      0.18950627   
    723000   499.17563      1317.8248      1817.0004      208.03398      294.93189      0.18543631   
    724000   494.01689      1310.8689      1804.8858      134.78357      293.37516      0.1773349    
    725000   454.69003      1340.537       1795.227       123.55984      300.01493      0.17579082   
    726000   500.54047      1338.9271      1839.4675      91.696736      299.65462      0.17881171   
    727000   497.39463      1317.5506      1814.9453      112.51787      294.87054      0.18225754   
    728000   488.40864      1313.4667      1801.8753      158.56702      293.95655      0.18854325   
    729000   472.32419      1302.6505      1774.9747      182.54594      291.53586      0.19414297   
    730000   468.04805      1275.6066      1743.6547      209.38454      285.48338      0.19486117   
    731000   462.05952      1325.4334      1787.4929      210.11795      296.63471      0.19268723   
    732000   449.3216       1338.5496      1787.8712      181.29511      299.57015      0.18981891   
    733000   474.91217      1372.3986      1847.3108      109.65446      307.14562      0.18593733   
    734000   515.49643      1369.2807      1884.7771      91.320281      306.44782      0.18412337   
    735000   518.68924      1339.9255      1858.6148      88.673719      299.87808      0.18522291   
    736000   447.71126      1377.3648      1825.0761      132.08421      308.25707      0.19066591   
    737000   485.86187      1360.2219      1846.0838      173.82701      304.42045      0.19535805   
    738000   495.64248      1366.861       1862.5035      205.90305      305.9063       0.19472634   
    739000   470.16741      1355.0779      1825.2454      199.40606      303.26923      0.19285516   
    740000   491.75286      1356.0943      1847.8472      190.59256      303.49669      0.1900012    
    741000   492.43523      1337.2286      1829.6639      166.48232      299.27451      0.1814489    
    742000   507.5653       1334.1249      1841.6902      140.95789      298.57989      0.17384841   
    743000   506.15112      1318.5197      1824.6708      126.58739      295.08742      0.17166227   
    744000   498.69261      1334.0595      1832.7521      149.07735      298.56526      0.17303234   
    745000   502.85723      1337.5303      1840.3876      192.40184      299.34204      0.17760573   
    746000   489.5755       1299.8688      1789.4443      201.93187      290.91331      0.18197573   
    747000   474.76088      1344.7808      1819.5417      199.28835      300.9647       0.18436186   
    748000   475.57207      1331.9741      1807.5461      167.84631      298.09853      0.1850139    
    749000   478.38159      1322.8074      1801.189       105.5512       296.04701      0.18534034   
    750000   505.01844      1285.3255      1790.3439      68.704896      287.65847      0.18728395   
    751000   490.88626      1328.296       1819.1823      80.982229      297.27538      0.18711172   
    752000   510.24172      1287.9204      1798.1621      112.43203      288.23923      0.18695907   
    753000   468.24204      1335.8603      1804.1024      196.70394      298.96829      0.18856318   
    754000   480.69605      1324.0892      1804.7852      252.45131      296.33388      0.18867831   
    755000   499.29859      1277.7679      1777.0665      345.87769      285.96709      0.18865577   
    756000   480.93476      1343.6689      1824.6037      300.1945       300.71586      0.18568421   
    757000   496.90349      1347.5095      1844.413       214.64276      301.57538      0.18218784   
    758000   521.31019      1301.4211      1822.7313      139.19733      291.26072      0.18105023   
    759000   474.50034      1336.6562      1811.1565      109.89981      299.14639      0.18182569   
    760000   485.69237      1291.1605      1776.8529      45.913274      288.96437      0.18356917   
    761000   516.95618      1304.9515      1821.9077      34.198659      292.05082      0.18565999   
    762000   494.53414      1334.3923      1828.9265      84.61076       298.63974      0.18605153   
    763000   509.34516      1342.9063      1852.2515      115.67624      300.54519      0.1847669    
    764000   512.75682      1342.9548      1855.7116      223.95098      300.55605      0.18171681   
    765000   516.32455      1369.1866      1885.5112      237.09934      306.42678      0.17654354   
    766000   511.97991      1384.0093      1895.9892      194.56732      309.74412      0.174325     
    767000   496.77866      1350.0765      1846.8551      193.30144      302.14989      0.17763386   
    768000   498.38604      1308.7428      1807.1289      119.68834      292.89933      0.18121532   
    769000   510.28715      1285.3325      1795.6197      89.973999      287.66006      0.18498093   
    770000   527.97726      1299.143       1827.1203      159.96526      290.75087      0.19082299   
    771000   473.06063      1328.7757      1801.8364      163.3961       297.38274      0.19063754   
    772000   495.86739      1307.1593      1803.0267      159.85803      292.54493      0.18467709   
    773000   518.93402      1348.6308      1867.5648      131.49035      301.82635      0.1774801    
    774000   482.89758      1370.3608      1853.2584      90.650837      306.68957      0.17695651   
    775000   508.18692      1270.9149      1779.1019      114.08035      284.43337      0.18181866   
    776000   528.16382      1296.8515      1825.0154      176.86643      290.23804      0.1871659    
    777000   516.92213      1320.8294      1837.7515      197.36553      295.60432      0.18812246   
    778000   485.32475      1327.7754      1813.1001      205.48873      297.15885      0.18613502   
    779000   490.12826      1325.6822      1815.8104      127.48415      296.69039      0.1851722    
    780000   479.56573      1305.9156      1785.4813      39.780813      292.26658      0.18675151   
    781000   500.05542      1334.797       1834.8525      28.406135      298.73031      0.19275617   
    782000   460.85548      1368.2612      1829.1167      116.5938       306.21967      0.19970726   
    783000   490.11179      1366.8014      1856.9132      187.33191      305.89296      0.20087797   
    784000   496.41455      1347.4845      1843.899       200.08469      301.56979      0.1943983    
    785000   469.73679      1367.8175      1837.5543      342.88042      306.12037      0.19188932   
    786000   491.97345      1371.7563      1863.7298      271.464        307.00188      0.19008563   
    787000   491.14398      1361.8235      1852.9675      170.29074      304.77889      0.18750364   
    788000   524.60728      1335.8541      1860.4614      94.757321      298.96688      0.18461873   
    789000   517.48331      1316.8742      1834.3575      60.334783      294.71915      0.18408404   
    790000   502.91854      1318.4791      1821.3977      9.1210133      295.07834      0.18389185   
    791000   516.77545      1313.8487      1830.6241      74.080102      294.04203      0.18353324   
    792000   518.08506      1297.672       1815.7571      93.091283      290.42166      0.17771709   
    793000   530.39008      1306.7711      1837.1611      146.58061      292.45805      0.17263937   
    794000   514.79133      1283.8266      1798.6179      140.96961      287.32302      0.17166847   
    795000   495.29196      1326.3621      1821.6541      130.9604       296.84257      0.17537126   
    796000   487.39686      1342.1952      1829.5921      146.47944      300.38604      0.18286617   
    797000   494.27147      1310.8783      1805.1498      175.427        293.37725      0.18748616   
    798000   495.43909      1333.7002      1829.1393      220.99192      298.48485      0.18727077   
    799000   482.03892      1320.0929      1802.1318      266.34386      295.4395       0.18438468   
    800000   506.9825       1291.2851      1798.2676      260.91195      288.99226      0.18008317   
    801000   452.60638      1333.8644      1786.4708      266.85223      298.52159      0.17652646   
    802000   480.89168      1332.5291      1813.4208      175.65844      298.22274      0.17444859   
    803000   496.64233      1317.6995      1814.3418      116.99626      294.90386      0.17532531   
    804000   523.9998       1313.0582      1837.058       66.644037      293.86513      0.17913364   
    805000   494.85986      1306.0996      1800.9595      54.092153      292.30778      0.18217385   
    806000   484.71583      1347.898       1832.6138      120.16814      301.66233      0.18431509   
    807000   494.29779      1292.4563      1786.7541      153.39979      289.25437      0.18681628   
    808000   495.489        1323.1129      1818.6019      242.51415      296.11537      0.19154926   
    809000   466.60329      1349.7556      1816.3589      255.45686      302.07808      0.19561381   
    810000   492.14334      1366.8954      1859.0387      206.20554      305.91399      0.19562697   
    811000   503.53175      1336.1869      1839.7187      77.695863      299.04137      0.18696765   
    812000   495.38767      1357.8724      1853.2601      23.671664      303.89464      0.1810381    
    813000   506.95328      1355.4911      1862.4444      13.860955      303.36169      0.17958944   
    814000   508.95967      1379.785       1888.7447      65.207174      308.79871      0.18195284   
    815000   499.88571      1342.4936      1842.3793      91.549479      300.45283      0.18780435   
    816000   481.00584      1338.1158      1819.1216      174.54249      299.47306      0.19261848   
    817000   464.74377      1318.9323      1783.6761      203.57788      295.17976      0.19271198   
    818000   508.03928      1341.7376      1849.7769      167.28622      300.28364      0.18922617   
    819000   514.83816      1334.4186      1849.2567      179.01369      298.64561      0.18493707   
    820000   491.52771      1333.7614      1825.2891      154.18619      298.49853      0.18270802   
    821000   505.99877      1285.4723      1791.471       122.01103      287.69133      0.18222489   
    822000   474.93455      1279.7456      1754.6802      168.82638      286.40969      0.18317354   
    823000   500.00607      1320.9027      1820.9088      168.05487      295.62074      0.1856277    
    824000   494.23296      1324.0255      1818.2584      177.6519       296.31962      0.18863491   
    825000   500.91293      1310.5819      1811.4948      208.34322      293.31092      0.18819456   
    826000   464.55015      1325.212       1789.7621      167.99089      296.58516      0.18464505   
    827000   488.43553      1291.8631      1780.2987      126.40968      289.12162      0.18261129   
    828000   506.60195      1307.594       1814.196       149.19507      292.64223      0.18128708   
    829000   491.65884      1354.0112      1845.67        207.41069      303.03048      0.18279975   
    830000   509.1639       1334.3212      1843.4851      156.27785      298.62383      0.18291724   
    831000   523.37255      1348.3671      1871.7396      148.28928      301.76732      0.17900657   
    832000   535.49076      1342.6891      1878.1799      88.825244      300.49658      0.17192912   
    833000   543.34416      1382.3015      1925.6457      129.47743      309.36192      0.16909821   
    834000   501.70187      1386.765       1888.4669      126.66145      310.36085      0.169006     
    835000   521.63122      1381.1639      1902.7951      113.12523      309.10731      0.17683881   
    836000   511.62096      1332.0218      1843.6428      79.820393      298.10921      0.18510901   
    837000   477.08323      1353.1247      1830.2079      118.8724       302.83209      0.18916917   
    838000   487.08543      1355.1575      1842.243       129.57009      303.28704      0.18969424   
    839000   491.45647      1347.1213      1838.5777      185.54913      301.4885       0.19004807   
    840000   465.23107      1312.8937      1778.1247      181.70488      293.8283       0.1885511    
    841000   495.61223      1289.3581      1784.9704      185.43476      288.561        0.18591794   
    842000   507.65834      1358.191       1865.8494      174.39426      303.96594      0.18413923   
    843000   504.53356      1357.3054      1861.839       221.89791      303.76774      0.18472719   
    844000   497.44226      1351.2299      1848.6722      204.88599      302.40803      0.18645835   
    845000   519.39602      1340.3602      1859.7563      189.49495      299.97537      0.18918235   
    846000   506.08603      1327.6091      1833.6951      199.88842      297.12164      0.1945794    
    847000   492.04876      1337.4445      1829.4932      147.62525      299.32282      0.19668786   
    848000   512.73338      1338.4056      1851.1389      116.69125      299.53791      0.19204504   
    849000   498.70917      1382.0676      1880.7767      163.64597      309.30956      0.18733688   
    850000   504.54761      1409.2604      1913.808       230.97316      315.39537      0.18502296   
    851000   499.65249      1358.269       1857.9215      177.66039      303.9834       0.18081902   
    852000   514.48604      1355.9401      1870.4261      171.51973      303.46217      0.18116006   
    853000   510.32635      1349.8128      1860.1392      179.84664      302.09088      0.18841699   
    854000   467.55822      1391.5875      1859.1457      140.77098      311.44015      0.19811411   
    855000   493.13372      1349.0103      1842.144       112.43009      301.91128      0.20188603   
    856000   512.19019      1340.3741      1852.5643      167.13652      299.97847      0.20135513   
    857000   501.16344      1356.7096      1857.873       124.59832      303.63439      0.19676332   
    858000   498.91318      1340.7937      1839.7069      116.28367      300.07238      0.19164702   
    859000   490.55629      1347.6564      1838.2127      106.29296      301.60828      0.18786753   
    860000   477.99007      1309.6667      1787.6568      49.22481       293.10609      0.18621105   
    861000   503.21899      1319.9379      1823.1568      59.066669      295.4048       0.18738186   
    862000   494.17036      1326.9676      1821.138       132.31712      296.97808      0.18835169   
    863000   505.71613      1330.6016      1836.3177      211.06603      297.79136      0.18709595   
    864000   491.99371      1326.267       1818.2607      235.60057      296.82129      0.18417904   
    865000   493.63308      1352.5215      1846.1546      216.35545      302.69709      0.18189833   
    866000   527.07917      1303.99        1831.0692      196.51636      291.83564      0.18178307   
    867000   481.95025      1341.6789      1823.6292      175.18034      300.27049      0.18358183   
    868000   493.98666      1309.1941      1803.1808      123.66829      293.00034      0.18668397   
    869000   470.90474      1305.4013      1776.306       110.15939      292.15149      0.19168212   
    870000   461.74613      1353.8309      1815.577       123.13178      302.99013      0.19499992   
    871000   488.31696      1316.5313      1804.8482      117.73242      294.6424       0.19339934   
    872000   499.27282      1329.5705      1828.8433      154.33326      297.56061      0.19107927   
    873000   489.46692      1338.2842      1827.7511      225.06938      299.51074      0.19177422   
    874000   502.30137      1363.9922      1866.2935      286.79118      305.26424      0.19402527   
    875000   473.56802      1371.7325      1845.3006      300.20116      306.99656      0.1946449    
    876000   503.13215      1369.7307      1872.8629      269.722        306.54855      0.19533337   
    877000   490.48336      1362.2521      1852.7355      210.8537       304.87481      0.19483955   
    878000   473.52308      1306.418       1779.941       177.62488      292.37902      0.19215486   
    879000   491.36467      1329.1537      1820.5184      142.29497      297.46733      0.18824723   
    880000   495.511        1322.9893      1818.5003      199.47058      296.08772      0.18546842   
    881000   496.94937      1320.7764      1817.7257      216.36443      295.59246      0.18260503   
    882000   475.73841      1335.0145      1810.7529      197.75404      298.77899      0.18128717   
    883000   512.82876      1335.6324      1848.4611      230.22978      298.91726      0.18701063   
    884000   488.14622      1329.2975      1817.4437      192.51828      297.49951      0.19449133   
    885000   467.35543      1301.189       1768.5444      69.507037      291.20876      0.19987429   
    886000   482.7724       1316.3021      1799.0745      30.118652      294.5911       0.20311198   
    887000   492.36475      1319.189       1811.5538      7.3629074      295.23721      0.20173299   
    888000   490.75668      1321.1495      1811.9062      68.262724      295.67598      0.19667465   
    889000   481.9972       1330.2866      1812.2838      151.00784      297.72087      0.19203539   
    890000   499.52242      1391.7632      1891.2856      298.64411      311.47946      0.18991993   
    891000   504.11424      1367.7898      1871.9041      298.00353      306.11417      0.18688048   
    892000   507.91603      1358.6484      1866.5644      260.44212      304.0683       0.18537551   
    893000   472.44689      1342.2773      1814.7241      157.66857      300.40441      0.18481316   
    894000   493.19014      1361.9291      1855.1192      102.04519      304.80252      0.18494505   
    895000   528.53421      1331.3582      1859.8924      131.08812      297.96071      0.18534856   
    896000   500.46997      1333.1481      1833.6181      163.69172      298.36129      0.18002125   
    897000   510.46646      1328.3362      1838.8026      181.30507      297.28436      0.1751591    
    898000   520.32947      1286.7503      1807.0798      198.64112      287.97737      0.17682005   
    899000   508.92295      1341.4589      1850.3818      190.68235      300.22125      0.18127842   
    900000   508.96013      1348.5415      1857.5017      200.958        301.80636      0.18686242   
    901000   466.64609      1366.1085      1832.7546      238.4485       305.73789      0.19131734   
    902000   500.24893      1344.1407      1844.3897      246.46486      300.82146      0.18779186   
    903000   527.65336      1367.0323      1894.6857      216.12063      305.94464      0.1786244    
    904000   513.35672      1371.9755      1885.3322      221.76419      307.05093      0.17514643   
    905000   498.08805      1402.4922      1900.5803      216.2968       313.88064      0.17507006   
    906000   480.6245       1358.7898      1839.4143      202.3106       304.09995      0.17847128   
    907000   507.56612      1328.9416      1836.5077      205.59085      297.41985      0.18501077   
    908000   502.17828      1337.7905      1839.9688      196.38315      299.40026      0.18835885   
    909000   499.11694      1336.5097      1835.6267      127.08215      299.11362      0.18549275   
    910000   510.55294      1303.2452      1813.7981      57.134379      291.66894      0.17958314   
    911000   506.34412      1319.3667      1825.7108      61.46204       295.27698      0.17834826   
    912000   532.30859      1325.4434      1857.752       38.678224      296.63696      0.18047837   
    913000   497.59678      1323.909       1821.5057      140.76981      296.29354      0.18764742   
    914000   497.84735      1323.6552      1821.5025      212.09821      296.23675      0.18959259   
    915000   470.84676      1350.2329      1821.0797      284.93772      302.18491      0.18812807   
    916000   475.54675      1366.6151      1842.1618      313.12388      305.85126      0.18990557   
    917000   497.03841      1379.5491      1876.5875      259.94357      308.74591      0.19271639   
    918000   508.27748      1341.7959      1850.0734      189.81244      300.29668      0.19936272   
    919000   493.8643       1388.6152      1882.4795      234.06308      310.77493      0.21120983   
    920000   490.67073      1349.1365      1839.8072      203.90717      301.93952      0.21165636   
    921000   487.80939      1342.6323      1830.4417      168.57208      300.48387      0.20467538   
    922000   516.25088      1352.8497      1869.1006      131.07178      302.77054      0.197857     
    923000   502.56932      1335.9037      1838.473       151.45075      298.97798      0.19262338   
    924000   508.26081      1336.9524      1845.2133      133.32148      299.2127       0.19176601   
    925000   490.92709      1293.1008      1784.0279      89.148283      289.39862      0.19451146   
    926000   479.99368      1342.4383      1822.4319      67.090775      300.44044      0.19922556   
    927000   501.72955      1351.1886      1852.9182      97.699743      302.39878      0.20150601   
    928000   493.95728      1352.8723      1846.8296      81.194795      302.7756       0.20019767   
    929000   520.34296      1368.1819      1888.5248      69.907701      306.20191      0.19461925   
    930000   502.19962      1328.3214      1830.521       63.03994       297.28105      0.18682255   
    931000   499.80084      1342.7079      1842.5088      34.233332      300.50079      0.18341892   
    932000   488.4412       1361.2929      1849.7341      40.629584      304.66014      0.18768364   
    933000   491.81059      1348.524       1840.3346      58.528111      301.80243      0.19369217   
    934000   483.5048       1375.6681      1859.1729      137.98595      307.87735      0.19823606   
    935000   493.31628      1359.1134      1852.4297      195.92937      304.17237      0.19952697   
    936000   496.09258      1311.6384      1807.731       250.89092      293.54738      0.19867477   
    937000   452.7843       1324.7469      1777.5312      242.38561      296.48108      0.1967656    
    938000   456.26071      1335.8171      1792.0778      181.89535      298.9586       0.19455016   
    939000   512.74983      1302.5916      1815.3414      119.57168      291.52267      0.19210102   
    940000   488.52182      1315.1194      1803.6413      48.301705      294.32643      0.18971848   
    941000   477.03408      1299.8489      1776.883       5.556354       290.90885      0.18926899   
    942000   488.63321      1327.266       1815.8992      45.866831      297.04486      0.18822658   
    943000   469.01792      1354.4703      1823.4882      133.29445      303.13323      0.18484989   
    944000   530.34289      1316.988       1847.3309      267.24069      294.74462      0.18431638   
    945000   496.03698      1395.3223      1891.3593      263.25455      312.276        0.18555722   
    946000   489.2797       1367.9141      1857.1938      213.96179      306.14198      0.18995523   
    947000   499.05865      1351.9763      1851.0349      101.28442      302.57507      0.19620886   
    948000   485.45147      1344.8711      1830.3226      32.015313      300.98492      0.20056395   
    949000   487.55685      1372.4668      1860.0237     -39.598835      307.16089      0.19751917   
    950000   487.3968       1384.1355      1871.5323     -16.078766      309.77236      0.19021395   
    951000   507.91584      1419.46        1927.3758      141.84669      317.67805      0.1870507    
    952000   502.50793      1366.7929      1869.3009      183.7459       305.89107      0.18604851   
    953000   476.30796      1362.558       1838.866       255.33135      304.94328      0.18934042   
    954000   490.27533      1347.2303      1837.5056      247.54505      301.51291      0.19365299   
    955000   483.89534      1336.2995      1820.1948      255.00564      299.06656      0.19771634   
    956000   480.22195      1364.735       1844.957       186.73548      305.4305       0.19656843   
    957000   495.58852      1361.031       1856.6195      130.41472      304.60152      0.19243221   
    958000   498.74909      1313.0478      1811.7968      108.58019      293.86278      0.18907744   
    959000   492.80498      1332.0007      1824.8057      112.83424      298.1045       0.1871334    
    960000   495.07026      1322.984       1818.0542      106.68926      296.08653      0.18705081   
    961000   471.56469      1387.9522      1859.5169      150.36257      310.62656      0.18726554   
    962000   494.35293      1386.0003      1880.3532      143.61101      310.1897       0.18292034   
    963000   568.56342      1399.7319      1968.2953      164.45003      313.26288      0.17857197   
    964000   496.04461      1384.0755      1880.1201      249.27569      309.75894      0.1794681    
    965000   492.03309      1367.9501      1859.9832      257.69977      306.15004      0.18798648   
    966000   491.12834      1321.3522      1812.4805      198.16546      295.72133      0.19341289   
    967000   458.3575       1350.4531      1808.8106      202.31745      302.23417      0.1939717    
    968000   460.76155      1310.3288      1771.0903      145.41412      293.25427      0.19078329   
    969000   506.17153      1291.7049      1797.8764      69.329982      289.0862       0.18949206   
    970000   492.11411      1311.1091      1803.2232      60.564211      293.42891      0.18869308   
    971000   504.49288      1330.5543      1835.0471      133.74322      297.78077      0.18958602   
    972000   509.20574      1346.0307      1855.2365      167.37019      301.24444      0.19496965   
    973000   498.06092      1333.2822      1831.3431      209.26703      298.39129      0.20598111   
    974000   478.81256      1384.5894      1863.402       202.31942      309.87395      0.20598816   
    975000   495.00312      1354.8156      1849.8188      100.44507      303.21052      0.1977568    
    976000   505.04388      1340.9736      1846.0175      154.38431      300.11265      0.19181363   
    977000   498.51755      1389.5875      1888.1051      168.80301      310.99254      0.18891173   
    978000   508.92763      1344.3458      1853.2734      250.97097      300.86735      0.18655416   
    979000   494.99719      1337.9253      1832.9225      286.25937      299.43043      0.18594813   
    980000   489.28991      1342.2877      1831.5776      292.54824      300.40674      0.18743578   
    981000   492.94559      1337.4714      1830.417       268.43354      299.32884      0.18684099   
    982000   517.123        1311.5628      1828.6858      114.45677      293.53044      0.182272     
    983000   533.1528       1264.3431      1797.4959      4.8472047      282.96258      0.17733014   
    984000   517.69289      1317.6699      1835.3628      11.569936      294.89722      0.17708532   
    985000   503.15323      1336.5253      1839.6785      127.04665      299.11711      0.18279488   
    986000   514.22932      1313.9062      1828.1356      92.289742      294.05491      0.18663463   
    987000   511.21308      1329.9077      1841.1208      90.439124      297.63608      0.18984315   
    988000   475.80371      1339.6847      1815.4884      140.14805      299.82419      0.19206835   
    989000   493.12832      1338.0594      1831.1877      199.09856      299.46044      0.19126797   
    990000   523.2608       1306.8727      1830.1335      174.90406      292.48079      0.18744585   
    991000   511.50669      1332.945       1844.4517      208.9126       298.31582      0.1829508    
    992000   484.30936      1327.9371      1812.2465      190.31011      297.19506      0.17827597   
    993000   490.35884      1318.6397      1808.9986      156.92675      295.11428      0.17813434   
    994000   488.25778      1289.2918      1777.5496      150.14628      288.54615      0.18470586   
    995000   478.61382      1304.6655      1783.2793      94.018682      291.98682      0.19646323   
    996000   484.32876      1329.3255      1813.6543      148.88598      297.50578      0.20219372   
    997000   458.81495      1337.7639      1796.5788      164.49298      299.3943       0.19839083   
    998000   472.14598      1310.4551      1782.6011      154.47059      293.28255      0.18995962   
    999000   480.75714      1299.8602      1780.6174      144.61317      290.91138      0.18473207   
   1000000   484.385        1323.7331      1808.1181      195.76685      296.25419      0.18417478   
   1001000   521.77909      1321.5953      1843.3744      234.85095      295.77573      0.18599421   
   1002000   502.66605      1323.8732      1826.5393      173.85379      296.28555      0.18735927   
   1003000   506.65209      1337.7137      1844.3658      188.05433      299.38307      0.19131596   
   1004000   488.32562      1343.7925      1832.1181      174.93208      300.74353      0.19404391   
   1005000   482.27371      1359.4116      1841.6853      177.33292      304.2391       0.19564628   
   1006000   537.80803      1349.1215      1886.9295      168.59151      301.93616      0.19371436   
   1007000   479.89452      1355.9107      1835.8052      86.817983      303.4556       0.18479521   
   1008000   517.47825      1317.9989      1835.4772      15.60193       294.97087      0.18000019   
   1009000   528.14533      1340.3679      1868.5132     -10.60096       299.97709      0.17784855   
   1010000   504.77558      1360.65        1865.4255      71.464383      304.51625      0.18019617   
   1011000   490.66544      1309.6084      1800.2739      160.18127      293.09305      0.1853856    
   1012000   498.05103      1334.8662      1832.9173      217.09307      298.7458       0.19033856   
   1013000   499.50371      1305.7981      1805.3018      201.98024      292.24029      0.18987557   
   1014000   506.65861      1295.4978      1802.1564      200.01436      289.93507      0.18810494   
   1015000   461.37533      1298.5281      1759.9034      162.70301      290.61325      0.18678564   
   1016000   498.1537       1342.7263      1840.88        102.52073      300.5049       0.1874041    
   1017000   519.88084      1344.8809      1864.7618      77.56557       300.98712      0.18988598   
   1018000   485.80668      1352.4288      1838.2355      80.173346      302.67634      0.19666187   
   1019000   501.40769      1319.7033      1821.1109      67.467782      295.3523       0.19999216   
   1020000   481.75707      1336.0887      1817.8458      115.64583      299.0194       0.199564     
   1021000   498.61744      1322.8799      1821.4973      149.61882      296.06323      0.19357825   
   1022000   464.95557      1307.0353      1771.9908      119.48732      292.51718      0.18718805   
   1023000   520.22159      1293.3279      1813.5495      141.66534      289.44943      0.18735145   
   1024000   512.25141      1320.5292      1832.7807      217.94659      295.53716      0.19002274   
   1025000   486.83599      1338.115       1824.9509      190.64736      299.47287      0.19309623   
   1026000   477.74288      1333.1972      1810.9401      216.40232      298.37228      0.19666653   
   1027000   498.14429      1313.8855      1812.0298      170.59965      294.05028      0.19652877   
   1028000   490.68779      1317.2091      1807.8969      153.0208       294.7941       0.19200222   
   1029000   496.77693      1298.5312      1795.3081      128.79207      290.61394      0.18166154   
   1030000   481.86657      1288.4789      1770.3454      150.07582      288.36421      0.17836505   
   1031000   529.44346      1308.1961      1837.6396      149.75494      292.77698      0.17816679   
   1032000   526.80878      1336.5573      1863.3661      128.22826      299.12428      0.17813159   
   1033000   512.01271      1353.3651      1865.3778      127.4858       302.88588      0.17790085   
   1034000   508.99064      1375.1751      1884.1658      201.5037       307.76702      0.18033893   
   1035000   528.99856      1316.5098      1845.5083      287.88759      294.63759      0.18637285   
   1036000   507.49878      1331.0315      1838.5303      283.18885      297.88758      0.19049702   
   1037000   503.90825      1329.8288      1833.737       255.78566      297.61841      0.19094062   
   1038000   506.38857      1408.1054      1914.4939      126.14406      315.13687      0.18664573   
   1039000   504.64775      1387.783       1892.4308      50.069481      310.58869      0.18132809   
   1040000   533.42111      1353.1467      1886.5678     -12.008235      302.837        0.17897822   
   1041000   498.97735      1354.4586      1853.436       56.343063      303.13062      0.18244464   
   1042000   502.86426      1393.6224      1896.4866      145.32613      311.89555      0.18702658   
   1043000   492.97777      1375.5365      1868.5142      220.46072      307.84788      0.18964721   
   1044000   525.87926      1367.5993      1893.4786      249.73435      306.07154      0.19029687   
   1045000   529.60167      1335.0659      1864.6675      200.54216      298.79048      0.1851999    
   1046000   517.26644      1331.5418      1848.8082      150.2556       298.00179      0.17668236   
   1047000   504.40647      1336.1101      1840.5165      145.35684      299.02418      0.17485599   
   1048000   521.14819      1336.656       1857.8042      111.39197      299.14636      0.1768271    
   1049000   531.83033      1330.4331      1862.2634      110.8919       297.75365      0.18148159   
   1050000   528.94484      1369.2507      1898.1956      128.95446      306.44112      0.18533047   
   1051000   514.23886      1388.5671      1902.8059      184.43132      310.76416      0.18800858   
   1052000   530.77639      1357.1463      1887.9227      249.08374      303.73213      0.18841777   
   1053000   500.18324      1345.1718      1845.355       242.0676       301.0522       0.1863434    
   1054000   534.17189      1345.2265      1879.3984      235.85113      301.06445      0.18683543   
   1055000   508.69184      1341.4232      1850.1151      189.18659      300.21327      0.18629142   
   1056000   514.31851      1368.1714      1882.4899      94.539003      306.19956      0.18450239   
   1057000   503.01003      1381.6387      1884.6488      103.0225       309.21358      0.18547878   
   1058000   526.14508      1408.8106      1934.9557      106.57118      315.29471      0.18696438   
   1059000   522.43133      1352.7825      1875.2139      69.23224       302.75551      0.183451     
   1060000   503.85668      1379.7318      1883.5884      138.73328      308.7868       0.17959394   
   1061000   526.7061       1340.898       1867.6041      186.1835       300.09572      0.17610027   
   1062000   505.78202      1386.5675      1892.3495      234.45525      310.31665      0.17428192   
   1063000   524.31474      1381.14        1905.4548      260.3556       309.10198      0.17607433   
   1064000   506.19422      1414.3235      1920.5177      216.53131      316.52851      0.18244719   
   1065000   506.71365      1342.4105      1849.1241      219.24259      300.43422      0.18919121   
   1066000   484.83718      1357.6979      1842.5351      155.9984       303.85558      0.19118094   
   1067000   498.105        1344.683       1842.788       116.90463      300.94282      0.19116644   
   1068000   472.33323      1299.4206      1771.7538      138.21943      290.81299      0.18786043   
   1069000   510.58836      1352.1335      1862.7219      91.482276      302.61025      0.18057483   
   1070000   520.35007      1346.4823      1866.8323      115.99741      301.34549      0.17684778   
   1071000   556.1612       1379.1736      1935.3348      194.97368      308.66189      0.17645822   
   1072000   515.68748      1386.4034      1902.0909      239.9785       310.27992      0.17876398   
   1073000   485.98777      1369.3543      1855.3421      220.32185      306.4643       0.18209697   
   1074000   534.30467      1341.6748      1875.9795      166.73826      300.26958      0.18785289   
   1075000   500.43751      1381.3537      1881.7912      128.51075      309.14979      0.19278712   
   1076000   477.1137       1348.9002      1826.0139      99.597586      301.88664      0.19299968   
   1077000   512.3611       1315.4202      1827.7813      100.16844      294.39375      0.19155787   
   1078000   528.17819      1306.1896      1834.3678      201.01663      292.32792      0.18960171   
   1079000   513.70438      1359.9061      1873.6105      282.38972      304.34977      0.1860958    
   1080000   502.36128      1344.3538      1846.7151      323.68871      300.86914      0.1809308    
   1081000   511.92307      1332.9494      1844.8724      246.65996      298.31681      0.17527777   
   1082000   491.6024       1332.1396      1823.742       194.3583       298.13557      0.17643366   
   1083000   480.48185      1335.3763      1815.8582      129.23746      298.85996      0.1856484    
   1084000   477.96404      1346.6283      1824.5923      50.672949      301.37818      0.19514562   
   1085000   499.80784      1359.8996      1859.7074     -10.817881      304.34832      0.19627693   
   1086000   513.44278      1370.8014      1884.2441      23.715558      306.78816      0.19257901   
   1087000   532.16446      1406.7898      1938.9543      32.112647      314.84245      0.18676178   
   1088000   534.0363       1362.0623      1896.0986      151.42657      304.83233      0.18496325   
   1089000   502.45749      1373.4777      1875.9352      171.20147      307.38713      0.18211967   
   1090000   514.75207      1348.5443      1863.2964      237.37784      301.80698      0.18246539   
   1091000   501.0371       1367.5319      1868.569       198.59884      306.05645      0.18356157   
   1092000   517.4846       1293.2424      1810.727       143.98262      289.43031      0.18753658   
   1093000   480.09764      1314.635       1794.7327      176.52512      294.21802      0.19794954   
   1094000   484.76491      1325.5391      1810.304       268.65852      296.65836      0.2034804    
   1095000   479.84592      1346.3122      1826.1582      278.38001      301.30744      0.19910653   
   1096000   504.04764      1315.2931      1819.3407      284.74708      294.36529      0.19290409   
   1097000   509.1347       1342.5596      1851.6943      290.9009       300.4676       0.18918211   
   1098000   499.63309      1384.1377      1883.7707      281.98111      309.77285      0.18654658   
   1099000   508.83893      1362.5107      1871.3497      210.06568      304.9327       0.18209862   
   1100000   527.56849      1360.9333      1888.5018      176.11106      304.57966      0.17638639   
   1101000   529.45605      1372.8761      1902.3322      166.05674      307.25249      0.17381762   
   1102000   526.84821      1352.2904      1879.1386      148.95247      302.64537      0.17707301   
   1103000   520.62328      1365.3982      1886.0215      149.77479      305.57892      0.18330988   
   1104000   507.82366      1359.5691      1867.3927      139.53733      304.27435      0.18746736   
   1105000   510.84339      1365.8991      1876.7425      150.10154      305.69103      0.18871489   
   1106000   520.67867      1355.6181      1876.2967      112.88457      303.39011      0.18741035   
   1107000   480.03046      1373.4682      1853.4987      180.80808      307.38501      0.18401883   
   1108000   513.8101       1357.06        1870.8701      132.61831      303.71282      0.1783633    
   1109000   526.05175      1356.331       1882.3827      132.89927      303.54966      0.17961131   
   1110000   527.86637      1391.1749      1919.0413      116.76898      311.3478       0.18207419   
   1111000   499.55846      1399.7719      1899.3304      102.83597      313.27183      0.18693291   
   1112000   511.88668      1395.0558      1906.9425      148.90126      312.21635      0.19406841   
   1113000   497.49634      1354.2829      1851.7792      250.67389      303.09129      0.19826396   
   1114000   495.42674      1340.2938      1835.7205      256.65129      299.9605       0.19927672   
   1115000   497.18171      1356.6739      1853.8556      316.94715      303.62639      0.20047134   
   1116000   460.95407      1384.0636      1845.0176      300.57494      309.75627      0.19889205   
   1117000   480.26636      1344.2568      1824.5231      220.55312      300.84743      0.19263105   
   1118000   484.22711      1343.6771      1827.9042      166.92473      300.71769      0.18802328   
   1119000   485.57996      1329.832       1815.4119      143.32256      297.61912      0.18554561   
   1120000   504.40235      1324.64        1829.0424      80.041772      296.45715      0.1841689    
   1121000   513.06919      1318.0721      1831.1413      98.709769      294.98724      0.18620284   
   1122000   521.67187      1316.7892      1838.461       121.1214       294.70012      0.19108347   
   1123000   491.14857      1328.5315      1819.6801      176.69929      297.32808      0.19309884   
   1124000   506.51066      1334.4014      1840.912       176.44154      298.64176      0.19241014   
   1125000   482.69702      1351.5352      1834.2322      200.57744      302.47635      0.19113171   
   1126000   484.5155       1373.3401      1857.8556      233.64368      307.35634      0.19175296   
   1127000   528.87289      1360.964       1889.8369      193.6811       304.58654      0.18965651   
   1128000   517.93208      1362.2055      1880.1376      208.09891      304.86439      0.18531596   
   1129000   505.158        1384.283       1889.441       129.01659      309.80538      0.18077883   
   1130000   514.09116      1356.411       1870.5021      104.04855      303.56756      0.17944313   
   1131000   557.62943      1339.5448      1897.1742      84.877115      299.79288      0.17989906   
   1132000   502.78694      1362.2848      1865.0717      177.41775      304.88213      0.18553784   
   1133000   495.92321      1345.5982      1841.5214      222.62397      301.14763      0.19353828   
   1134000   496.33561      1323.3793      1819.7149      245.99005      296.17501      0.19558761   
   1135000   479.89391      1333.9161      1813.81        249.4634       298.53315      0.19360818   
   1136000   486.81068      1376.3253      1863.136       246.39564      308.02443      0.19090693   
   1137000   539.9347       1298.8456      1838.7803      145.54318      290.68431      0.18501542   
   1138000   529.29328      1317.6536      1846.9469      128.61917      294.89359      0.18149336   
   1139000   503.56629      1361.4124      1864.9787      88.588877      304.6869       0.18262058   
   1140000   529.91392      1376.0335      1905.9474      64.391988      307.95911      0.18742353   
   1141000   515.87832      1359.2876      1875.166       58.272784      304.21137      0.19171753   
   1142000   518.09219      1366.7501      1884.8423      117.8731       305.88148      0.19502413   
   1143000   501.75378      1365.5265      1867.2803      127.66415      305.60764      0.19303625   
   1144000   510.02257      1335.3312      1845.3538      121.94097      298.84987      0.18827056   
   1145000   501.66526      1353.6622      1855.3275      156.04177      302.95239      0.18435728   
   1146000   507.05989      1344.1853      1851.2452      139.22264      300.83143      0.18089098   
   1147000   510.74816      1346.0149      1856.763       102.462        301.24089      0.17971758   
   1148000   508.17285      1294.4311      1802.6039      147.30434      289.69634      0.18089781   
   1149000   485.76935      1347.4816      1833.251       304.18609      301.56915      0.18898654   
   1150000   493.20898      1343.5921      1836.801       239.62348      300.69866      0.19321109   
   1151000   476.57587      1404.2689      1880.8448      238.09128      314.27826      0.19611313   
   1152000   494.10187      1375.704       1869.8058      160.19705      307.88537      0.19864833   
   1153000   494.39884      1363.4443      1857.8431      83.659481      305.14162      0.19933453   
   1154000   477.59184      1359.1433      1836.7352      83.413359      304.17907      0.19682446   
   1155000   511.09233      1342.658       1853.7503      121.30415      300.48962      0.18848731   
   1156000   529.03885      1396.9153      1925.9542      110.19083      312.63251      0.18130291   
   1157000   525.76976      1361.7473      1887.5171      138.27413      304.76185      0.18200418   
   1158000   519.63792      1355.4072      1875.0451      21.677992      303.34291      0.1845221    
   1159000   503.72372      1390.0447      1893.7684     -11.386981      311.09485      0.18978921   
   1160000   518.9863       1386.8878      1905.8741      25.5594        310.38833      0.19412308   
   1161000   500.01233      1333.2466      1833.259       67.543384      298.38333      0.19443353   
   1162000   524.0158       1314.6287      1838.6445      198.81475      294.21659      0.19194658   
   1163000   495.64975      1338.0382      1833.688       251.478        299.4557       0.18701779   
   1164000   495.69313      1317.3027      1812.9959      301.06042      294.81505      0.18322739   
   1165000   502.82742      1338.3792      1841.2066      258.15971      299.53201      0.18097769   
   1166000   497.97372      1312.4312      1810.4049      219.83061      293.72479      0.18335376   
   1167000   496.80951      1279.8303      1776.6398      140.30692      286.42865      0.18847432   
   1168000   480.7468       1308.088       1788.8348      101.77339      292.75277      0.19682479   
   1169000   466.94538      1323.1638      1790.1092      75.034994      296.12678      0.19856322   
   1170000   505.90909      1323.8409      1829.75        52.621191      296.27832      0.1955964    
   1171000   502.93946      1298.2807      1801.2202      116.60103      290.5579       0.18999724   
   1172000   514.52686      1331.5021      1846.0289      178.72124      297.9929       0.18428729   
   1173000   494.0712       1307.8645      1801.9357      257.33863      292.70275      0.18368334   
   1174000   503.45787      1320.3288      1823.7867      247.06477      295.4923       0.18572864   
   1175000   503.14514      1335.1524      1838.2975      184.11175      298.80984      0.18773751   
   1176000   489.63274      1316.4031      1806.0359      72.410104      294.61372      0.19015979   
   1177000   478.95368      1349.9209      1828.8746      41.718728      302.11506      0.19403971   
   1178000   493.40063      1348.5689      1841.9695      20.896358      301.81248      0.19781523   
   1179000   509.77716      1375.236       1885.0132      108.23463      307.78064      0.19850194   
   1180000   487.37994      1349.8431      1837.2231      166.23574      302.09767      0.19313475   
   1181000   500.78276      1341.8593      1842.6421      228.96863      300.31087      0.18764264   
   1182000   518.62339      1343.3676      1861.991       203.76807      300.64842      0.18375033   
   1183000   508.40589      1350.167       1858.5729      208.67033      302.17014      0.18348247   
   1184000   504.01417      1343.8189      1847.833       115.98304      300.74942      0.18375677   
   1185000   508.54955      1352.2849      1860.8344      77.304508      302.64413      0.18578798   
   1186000   515.61819      1335.8659      1851.4841      96.836457      298.96953      0.18609167   
   1187000   541.35641      1397.304       1938.6605      195.91831      312.71951      0.18381618   
   1188000   521.56481      1380.4117      1901.9765      298.1217       308.93896      0.17811821   
   1189000   531.28442      1343.6253      1874.9097      289.25057      300.70611      0.17103625   
   1190000   546.49922      1352.0998      1898.599       298.67599      302.60271      0.17171866   
   1191000   514.95786      1365.6696      1880.6274      181.15705      305.63965      0.17800207   
   1192000   506.97388      1293.6663      1800.6402      46.349545      289.52517      0.18758767   
   1193000   508.89768      1323.9701      1832.8678     -64.853258      296.30723      0.19141988   
   1194000   522.93318      1294.7089      1817.6421     -95.342375      289.75851      0.1921288    
   1195000   480.30851      1322.8309      1803.1394      22.772268      296.05228      0.1920916    
   1196000   490.78109      1313.1946      1803.9757      132.20399      293.89564      0.19151964   
   1197000   504.80382      1285.365       1790.1689      221.83941      287.66733      0.19060864   
   1198000   511.19611      1330.6809      1841.877       303.41913      297.80911      0.18799602   
   1199000   509.80256      1344.5117      1854.3142      326.40224      300.90447      0.18299042   
   1200000   488.15019      1353.1683      1841.3185      303.48806      302.84185      0.1781178    
   1201000   491.56056      1342.9415      1834.502       233.8997       300.55306      0.18006567   
   1202000   493.81749      1349.8737      1843.6912      170.26338      302.1045       0.18876103   
   1203000   490.96383      1380.395       1871.3588      146.53786      308.93524      0.19556709   
   1204000   490.22374      1363.6402      1853.864       41.998033      305.18548      0.19681802   
   1205000   503.71653      1351.9348      1855.6514      43.94999       302.56579      0.19888221   
   1206000   503.93777      1352.7955      1856.7333      190.68265      302.75841      0.19854006   
   1207000   514.76377      1368.3228      1883.0866      251.66825      306.23345      0.19257024   
   1208000   523.19668      1365.2686      1888.4653      239.59576      305.54991      0.18551957   
   1209000   486.40429      1364.2927      1850.697       255.20192      305.3315       0.18249994   
   1210000   510.97355      1313.1104      1824.084       243.1797       293.87681      0.18393103   
   1211000   488.57585      1331.3655      1819.9414      237.29464      297.96234      0.18559659   
   1212000   497.87739      1334.4337      1832.3111      197.12783      298.649        0.1853295    
   1213000   513.98166      1332.8684      1846.85        149.00675      298.29868      0.1849858    
   1214000   473.93396      1325.0603      1798.9943      133.74279      296.55121      0.18669093   
   1215000   481.15077      1304.3362      1785.487       108.59178      291.91312      0.19070364   
   1216000   471.95926      1274.3457      1746.305       173.49561      285.20118      0.19576414   
   1217000   494.48391      1315.5697      1810.0536      234.13842      294.4272       0.20145917   
   1218000   506.40084      1313.0934      1819.4943      225.17152      293.87301      0.20254507   
   1219000   491.7217       1321.3908      1813.1125      251.26995      295.72997      0.19820863   
   1220000   496.81204      1295.1122      1791.9242      147.43811      289.84876      0.18668419   
   1221000   512.00421      1326.0084      1838.0126      153.63095      296.76339      0.18331308   
   1222000   517.14307      1334.0849      1851.228       142.71409      298.57095      0.18356229   
   1223000   505.83399      1344.1358      1849.9698      154.51964      300.82035      0.18799498   
   1224000   481.16769      1313.3989      1794.5666      139.66639      293.94136      0.19383712   
   1225000   464.03384      1338.3866      1802.4204      157.7873       299.53366      0.19672356   
   1226000   500.74766      1338.9739      1839.7215      189.23135      299.6651       0.19617896   
   1227000   520.05044      1349.1257      1869.1762      206.7198       301.9371       0.19083107   
   1228000   520.72254      1360.8182      1881.5407      217.738        304.5539       0.18454483   
   1229000   514.62589      1333.2913      1847.9172      208.65156      298.39333      0.18233821   
   1230000   498.46589      1322.9075      1821.3734      160.74051      296.06941      0.18401043   
   1231000   507.83731      1341.7288      1849.5661      113.69081      300.28165      0.18703175   
   1232000   503.32725      1350.7356      1854.0629      11.388503      302.29741      0.18760615   
   1233000   505.8179       1344.4278      1850.2457     -36.791666      300.88571      0.19110318   
   1234000   534.10694      1356.1436      1890.2506      87.098188      303.50773      0.1979669    
   1235000   494.54417      1344.8634      1839.4076      122.40157      300.98319      0.20097725   
   1236000   473.45497      1351.5153      1824.9703      224.57494      302.4719       0.20359752   
   1237000   508.23769      1303.8329      1812.0706      215.368        291.80049      0.20166984   
   1238000   517.22918      1316.184       1833.4131      186.83295      294.56467      0.19786292   
   1239000   514.05434      1318.5993      1832.6537      131.63042      295.10524      0.19179568   
   1240000   508.06408      1367.7799      1875.8439      154.18808      306.11194      0.18811241   
   1241000   505.80482      1352.2482      1858.0531      140.11685      302.63593      0.18853736   
   1242000   530.01608      1346.9914      1877.0075      183.38015      301.45944      0.1928121    
   1243000   500.86668      1361.9012      1862.7679      195.32851      304.79629      0.19698559   
   1244000   460.92338      1377.9991      1838.9225      204.5305       308.39904      0.19898231   
   1245000   501.69725      1353.6076      1855.3049      153.37559      302.94017      0.19948249   
   1246000   498.67419      1355.686       1854.3602      104.45585      303.40532      0.19706816   
   1247000   493.18805      1347.8371      1841.0251      116.74475      301.6487       0.19422389   
   1248000   475.23454      1317.2596      1792.4941      165.58224      294.8054       0.19432689   
   1249000   503.608        1312.4784      1816.0864      275.50239      293.73537      0.19639245   
   1250000   501.78103      1312.5853      1814.3663      238.47158      293.75929      0.19687143   
   1251000   467.33358      1345.6354      1812.969       235.12275      301.15597      0.19424377   
   1252000   498.47761      1329.2376      1827.7152      152.96843      297.48609      0.18902939   
   1253000   507.40279      1302.3182      1809.721       82.707476      291.4615       0.18719354   
   1254000   521.62613      1341.8954      1863.5216      112.81793      300.31895      0.19212389   
   1255000   504.06918      1331.9841      1836.0533      163.18737      298.10078      0.19643683   
   1256000   483.97042      1338.8217      1822.7922      181.08124      299.63105      0.19716952   
   1257000   503.31833      1290.3654      1793.6837      176.50534      288.78642      0.19543541   
   1258000   516.57503      1302.0842      1818.6592      167.94751      291.40911      0.19458887   
   1259000   528.16826      1328.2265      1856.3948      189.74018      297.25982      0.1963043    
   1260000   471.31872      1340.1199      1811.4386      208.87093      299.92158      0.19422185   
   1261000   494.55961      1329.8452      1824.4048      151.38611      297.62208      0.18849678   
   1262000   506.36907      1346.7415      1853.1106      115.34451      301.40352      0.18477361   
   1263000   539.7816       1315.5227      1855.3043      175.15868      294.41668      0.18458549   
   1264000   495.91193      1349.8438      1845.7557      151.9136       302.09781      0.18490142   
   1265000   508.10747      1326.374       1834.4815      181.06984      296.84522      0.18780761   
   1266000   510.557        1287.489       1798.046       122.73996      288.14269      0.19483701   
   1267000   480.26959      1331.4547      1811.7243      155.82613      297.98229      0.20365534   
   1268000   452.28138      1341.8928      1794.1742      253.1684       300.31836      0.20788603   
   1269000   460.88966      1322.7995      1783.6891      300.43289      296.04523      0.20516181   
   1270000   488.75242      1298.4938      1787.2462      275.54462      290.60558      0.19895781   
   1271000   492.25068      1305.4878      1797.7385      247.33394      292.17084      0.19397703   
   1272000   474.99804      1301.7416      1776.7397      171.38247      291.33245      0.19071063   
   1273000   500.23648      1311.4471      1811.6836      163.33728      293.50455      0.19218604   
   1274000   486.48805      1337.7443      1824.2324      140.22432      299.38993      0.19459231   
   1275000   514.45009      1329.7449      1844.195       145.00901      297.59964      0.19608272   
   1276000   516.05661      1297.7468      1813.8034      124.08074      290.4384       0.19612172   
   1277000   501.84878      1340.8807      1842.7295      76.085842      300.09185      0.1951254    
   1278000   514.45842      1361.2424      1875.7008      117.02135      304.64884      0.19473846   
   1279000   494.70761      1364.53        1859.2376      55.619748      305.38462      0.19466021   
   1280000   498.83053      1381.5475      1880.378       112.11624      309.19316      0.19839077   
   1281000   493.8889       1346.3276      1840.2165      170.31697      301.31088      0.20472749   
   1282000   490.08746      1324.5183      1814.6057      193.64685      296.42991      0.20664785   
   1283000   485.00997      1315.4204      1800.4304      257.92159      294.39379      0.20577105   
   1284000   504.85141      1301.47        1806.3214      237.48157      291.27166      0.19914081   
   1285000   493.57245      1309.271       1802.8435      287.58361      293.01754      0.19429727   
   1286000   502.62292      1372.1217      1874.7446      262.90484      307.08366      0.19130502   
   1287000   479.12454      1356.0202      1835.1448      171.33364      303.48011      0.18804577   
   1288000   503.79891      1353.126       1856.9249      118.07752      302.83237      0.18786109   
   1289000   504.96959      1358.1737      1863.1433      131.93827      303.96205      0.19123229   
   1290000   501.36358      1372.6681      1874.0317      189.79974      307.20594      0.19649769   
   1291000   506.24381      1381.3751      1887.6189      188.24413      309.15457      0.20085529   
   1292000   493.12688      1336.6872      1829.8141      246.23775      299.15334      0.20061399   
   1293000   477.14114      1348.566       1825.7071      257.7499       301.81183      0.19637373   
   1294000   522.81645      1341.1514      1863.9679      234.32151      300.15244      0.19013609   
   1295000   538.22654      1364.4721      1902.6987      216.21744      305.37166      0.18330381   
   1296000   536.23429      1395.6028      1931.837       110.94124      312.33876      0.18042266   
   1297000   548.08283      1398.9094      1946.9923      9.926562       313.0788       0.18032303   
   1298000   505.51148      1368.379       1873.8905     -57.71918       306.24603      0.18223257   
   1299000   509.83278      1343.0061      1852.8388      19.050928      300.56751      0.18639658   
   1300000   538.78617      1341.3576      1880.1438      182.69761      300.19858      0.19175564   
   1301000   502.50637      1368.8239      1871.3302      306.76032      306.34559      0.19328207   
   1302000   501.98827      1391.2608      1893.2491      319.55805      311.36702      0.18930211   
   1303000   512.09867      1370.8581      1882.9567      302.72921      306.80085      0.18099767   
   1304000   538.96236      1332.7554      1871.7178      163.63326      298.2734       0.17406643   
   1305000   528.11251      1342.3468      1870.4593      81.154997      300.41997      0.17615116   
   1306000   524.81216      1300.7866      1825.5988      28.523632      291.11872      0.18274936   
   1307000   519.50862      1302.1343      1821.6429      98.767466      291.42033      0.18768201   
   1308000   491.34139      1288.24        1779.5814      116.35569      288.31076      0.19087542   
   1309000   525.42437      1304.0011      1829.4255      155.38442      291.83812      0.19220871   
   1310000   517.82632      1326.9372      1844.7635      171.50008      296.97126      0.18759639   
   1311000   511.95901      1402.8964      1914.8554      176.76732      313.97109      0.18254456   
   1312000   529.12205      1366.3166      1895.4386      141.0727       305.78446      0.17971956   
   1313000   530.04099      1346.1041      1876.1451      42.288354      301.26087      0.18117096   
   1314000   505.51769      1335.7314      1841.2491      10.784121      298.93942      0.1865903    
   1315000   527.29688      1345.4737      1872.7706      17.063754      301.11978      0.19055328   
   1316000   522.91402      1376.6927      1899.6067      82.366543      308.10665      0.19225678   
   1317000   497.88957      1344.9336      1842.8231      199.91853      300.99889      0.19144285   
   1318000   508.01716      1366.5112      1874.5284      262.90128      305.82802      0.18967289   
   1319000   505.68361      1348.5123      1854.1959      304.39358      301.79981      0.18893651   
   1320000   500.00303      1307.0268      1807.0298      277.46153      292.51528      0.18748125   
   1321000   516.20627      1294.2715      1810.4778      234.89449      289.66062      0.18404299   
   1322000   534.24363      1331.0701      1865.3137      160.6643       297.89622      0.17680306   
   1323000   517.68797      1348.6893      1866.3773      105.04161      301.83944      0.16916105   
   1324000   535.26681      1301.8414      1837.1082      66.821044      291.35477      0.16809035   
   1325000   534.53438      1330.615       1865.1493      111.19802      297.79436      0.17589017   
   1326000   526.11253      1334.1651      1860.2776      148.32192      298.58888      0.18165679   
   1327000   528.10926      1344.0677      1872.177       176.05525      300.80512      0.18495384   
   1328000   552.00773      1321.4395      1873.4473      176.64409      295.74088      0.18559169   
   1329000   506.20471      1353.1882      1859.3929      132.1843       302.8463       0.18515172   
   1330000   506.51797      1362.5374      1869.0554      91.850566      304.93867      0.18727792   
   1331000   498.96291      1348.587       1847.5499      31.118088      301.81655      0.19505898   
   1332000   516.17096      1357.5697      1873.7407      54.886874      303.8269       0.19938318   
   1333000   502.78215      1337.2894      1840.0716      39.899647      299.28811      0.19797981   
   1334000   492.97548      1315.1341      1808.1096      87.214338      294.32972      0.19506935   
   1335000   486.48553      1325.3791      1811.8646      160.4687       296.62255      0.19343534   
   1336000   488.81611      1284.2364      1773.0525      212.25414      287.41475      0.19167574   
   1337000   493.50675      1289.6043      1783.1111      210.0553       288.6161       0.19040344   
   1338000   502.32255      1330.0801      1832.4026      215.82825      297.67465      0.19050979   
   1339000   497.9644       1365.1631      1863.1275      230.37922      305.52631      0.19133064   
   1340000   516.01659      1395.2217      1911.2383      196.51645      312.25347      0.19449225   
   1341000   511.64566      1374.785       1886.4307      157.46197      307.67971      0.19844141   
   1342000   489.69786      1380.4111      1870.1089      111.85932      308.93883      0.20041025   
   1343000   496.54535      1355.4663      1852.0116      106.32052      303.35614      0.19542575   
   1344000   546.12852      1349.1975      1895.326       102.50397      301.95317      0.187014     
   1345000   532.45314      1368.4321      1900.8852      148.3579       306.25791      0.18217879   
   1346000   529.82192      1379.2627      1909.0846      156.94232      308.68183      0.18180015   
   1347000   518.54378      1343.2104      1861.7541      165.11109      300.61323      0.1839794    
   1348000   487.91038      1350.1415      1838.0519      167.94319      302.16445      0.18480864   
   1349000   531.68876      1318.4975      1850.1863      118.03844      295.08245      0.18646433   
   1350000   506.19162      1334.0412      1840.2328      84.38069       298.56116      0.19064266   
   1351000   478.2969       1319.9894      1798.2863      97.720442      295.41634      0.19872291   
   1352000   481.33344      1322.3128      1803.6462      105.51786      295.93631      0.20427686   
   1353000   504.30871      1299.1546      1803.4633      124.12397      290.75347      0.20226889   
   1354000   501.94396      1300.2309      1802.1748      152.52426      290.99434      0.19524158   
   1355000   496.77957      1328.7164      1825.4959      149.15303      297.36945      0.18901027   
   1356000   512.62297      1314.3463      1826.9693      142.55773      294.1534       0.18396556   
   1357000   526.56561      1341.5903      1868.1559      136.86683      300.25065      0.18287852   
   1358000   545.73776      1385.0178      1930.7555      62.113581      309.96982      0.18162678   
   1359000   553.93523      1386.2193      1940.1546      50.763086      310.23873      0.18440849   
   1360000   495.36086      1379.5157      1874.8766      131.97006      308.73845      0.18961539   
   1361000   537.83897      1364.0998      1901.9388      207.10809      305.28834      0.19237058   
   1362000   538.47527      1373.2163      1911.6916      206.11312      307.32863      0.19245947   
   1363000   517.26959      1356.6013      1873.8708      177.80073      303.61014      0.19069661   
   1364000   528.34737      1343.6064      1871.9538      176.79255      300.70188      0.18845879   
   1365000   519.2057       1358.4758      1877.6815      143.47762      304.02968      0.18324346   
   1366000   518.9789       1401.3069      1920.2858      135.25815      313.61536      0.17962493   
   1367000   533.30666      1373.3393      1906.646       123.54385      307.35616      0.17830647   
   1368000   524.87254      1373.4654      1898.3379      86.21586       307.38437      0.17830572   
   1369000   528.5944       1355.5151      1884.1095      86.497245      303.36707      0.18657507   
   1370000   498.87163      1339.6969      1838.5685      163.67915      299.82691      0.19607022   
   1371000   517.69773      1296.0574      1813.7552      172.64432      290.06031      0.19565732   
   1372000   513.75687      1308.2475      1822.0043      191.9687       292.78847      0.19178817   
   1373000   543.38872      1318.1125      1861.5012      178.73286      294.99628      0.18597291   
   1374000   525.34015      1351.5931      1876.9333      89.34696       302.48931      0.18210016   
   1375000   516.04935      1351.9967      1868.0461      69.293572      302.57965      0.18099301   
   1376000   519.45017      1371.0705      1890.5206      86.423621      306.84839      0.18118529   
   1377000   553.6752       1329.9089      1883.5841      108.49676      297.63635      0.1819078    
   1378000   524.25044      1364.6824      1888.9328      169.57989      305.41872      0.18213664   
   1379000   518.58593      1367.8243      1886.4102      128.63831      306.12188      0.18500195   
   1380000   530.86024      1359.4665      1890.3267      161.22102      304.25139      0.19269667   
   1381000   482.50209      1398.048       1880.5501      191.13253      312.88601      0.19991038   
   1382000   484.3462       1335.6827      1820.0289      183.62941      298.92854      0.20234109   
   1383000   519.08877      1323.17        1842.2588      86.740166      296.12817      0.19930156   
   1384000   531.5783       1349.5587      1881.137       63.735043      302.03402      0.19695984   
   1385000   511.54959      1342.0283      1853.5779      75.304513      300.34869      0.19285847   
   1386000   526.23217      1339.0364      1865.2686      120.9552       299.6791       0.19036092   
   1387000   521.03132      1338.2122      1859.2435      184.37456      299.49464      0.18956101   
   1388000   517.62566      1354.816       1872.4416      185.73539      303.2106       0.19014588   
   1389000   511.81329      1370.006       1881.8193      203.51391      306.61016      0.197916     
   1390000   543.07474      1375.3593      1918.4341      197.14014      307.80824      0.2033646    
   1391000   477.74467      1365.6295      1843.3742      186.81307      305.63068      0.2030904    
   1392000   513.8674       1360.3353      1874.2027      117.82653      304.44583      0.19324704   
   1393000   539.99217      1329.478       1869.4702      55.338858      297.53992      0.18590437   
   1394000   521.26706      1391.6805      1912.9476      83.622236      311.46095      0.18444994   
   1395000   492.81126      1387.5895      1880.4008      123.8529       310.54538      0.1860699    
   1396000   548.77964      1339.3677      1888.1473      208.53063      299.75324      0.18939427   
   1397000   505.45792      1365.9754      1871.4333      248.69842      305.7081       0.19116469   
   1398000   477.28677      1383.5143      1860.801       271.86021      309.63333      0.18973089   
   1399000   516.49665      1363.0221      1879.5187      211.74178      305.04714      0.18494294   
   1400000   527.27333      1335.5311      1862.8045      152.67425      298.89461      0.17899358   
   1401000   517.17483      1318.3132      1835.488       92.728584      295.0412       0.17377202   
   1402000   515.87094      1283.5192      1799.3902      70.897327      287.25423      0.17238179   
   1403000   518.08915      1286.3794      1804.4686      82.895448      287.89435      0.17456815   
   1404000   497.39525      1333.2611      1830.6564      169.85935      298.38658      0.18443869   
   1405000   513.02953      1329.9598      1842.9894      225.54415      297.64774      0.19031789   
   1406000   508.67493      1311.3819      1820.0568      210.82234      293.48995      0.1891117    
   1407000   496.33089      1310.1545      1806.4854      173.27819      293.21527      0.18728203   
   1408000   511.64552      1319.6022      1831.2477      136.34508      295.32968      0.18578841   
   1409000   508.3876       1306.5815      1814.9691      105.089        292.41563      0.18632816   
   1410000   520.09565      1284.1249      1804.2206      153.51616      287.3898       0.19129171   
   1411000   469.92858      1329.0225      1798.951       218.71948      297.43796      0.19898746   
   1412000   500.33695      1317.0783      1817.4153      253.633        294.76483      0.20319186   
   1413000   479.4467       1311.1741      1790.6208      193.31005      293.44345      0.19698217   
   1414000   519.1426       1323.3709      1842.5135      137.15281      296.17311      0.18808331   
   1415000   499.34982      1310.4637      1809.8135      106.71701      293.28446      0.18532605   
   1416000   508.54845      1330.4979      1839.0463      90.537136      297.76816      0.18409902   
   1417000   496.96253      1312.7936      1809.7561      122.46641      293.8059       0.1838538    
   1418000   521.04939      1322.3327      1843.3821      164.13328      295.94077      0.18520627   
   1419000   505.27386      1327.5639      1832.8377      199.34238      297.11152      0.18997584   
   1420000   490.75254      1314.8352      1805.5878      204.28414      294.26282      0.1947746    
   1421000   482.18539      1306.6691      1788.8545      185.32203      292.43523      0.19748557   
   1422000   458.24375      1318.2915      1776.5352      176.09091      295.03634      0.19924056   
   1423000   485.98495      1314.1062      1800.0912      84.160477      294.09968      0.20227021   
   1424000   505.18177      1310.0444      1815.2262     -7.0002504      293.19063      0.20226295   
   1425000   496.30249      1334.1604      1830.4629     -0.56784008     298.58783      0.19434498   
   1426000   473.7193       1322.5113      1796.2306      46.424643      295.98075      0.18694843   
   1427000   491.61388      1330.453       1822.0669      179.24492      297.75812      0.1860146    
   1428000   488.14148      1327.93        1816.0714      248.66516      297.19345      0.18926867   
   1429000   504.93733      1334.6541      1839.5914      257.17638      298.69832      0.1930492    
   1430000   487.66158      1323.7951      1811.4567      200.60321      296.26807      0.19499855   
   1431000   454.02305      1363.361       1817.3841      158.6784       305.123        0.1960838    
   1432000   507.71754      1309.6187      1817.3363      144.88027      293.09536      0.19532511   
   1433000   485.75112      1348.9828      1834.7339      180.97654      301.90512      0.19281215   
   1434000   498.6807       1307.8997      1806.5804      134.70444      292.71064      0.18995916   
   1435000   520.40846      1308.607       1829.0154      55.000224      292.86893      0.18609723   
   1436000   508.32755      1332.3631      1840.6906      64.290563      298.18559      0.18725408   
   1437000   506.10483      1339.3128      1845.4177      70.468391      299.74096      0.19402471   
   1438000   489.62562      1375.1369      1864.7625      137.92671      307.75846      0.20023279   
   1439000   513.86124      1365.1444      1879.0056      253.55961      305.52212      0.20173462   
   1440000   511.19026      1365.8868      1877.0771      280.16498      305.68827      0.19993988   
   1441000   487.2594       1349.5071      1836.7665      226.90364      302.02247      0.19529668   
   1442000   536.66895      1321.0841      1857.753       188.12074      295.66132      0.19220487   
   1443000   487.58883      1350.8577      1838.4466      189.21364      302.32474      0.18693757   
   1444000   522.3716       1320.7572      1843.1288      185.69031      295.58816      0.17900471   
   1445000   542.09257      1348.1839      1890.2765      191.12872      301.72633      0.17782467   
   1446000   507.21503      1364.6557      1871.8707      195.69411      305.41274      0.18417111   
   1447000   507.99505      1385.9759      1893.9709      187.8522       310.18425      0.19324949   
   1448000   508.73903      1370.6846      1879.4237      129.93542      306.76204      0.19685766   
   1449000   493.29837      1343.0477      1836.3461      58.491394      300.57684      0.19732962   
   1450000   476.84685      1326.2067      1803.0536      31.667074      296.80779      0.19558183   
   1451000   523.53838      1315.0383      1838.5766      60.843775      294.30826      0.19330285   
   1452000   512.43087      1333.9988      1846.4297      127.4011       298.55167      0.18712855   
   1453000   489.81981      1296.9917      1786.8115      203.33975      290.2694       0.18216414   
   1454000   532.80753      1325.45        1858.2575      247.44296      296.63843      0.18375977   
   1455000   532.38245      1316.0434      1848.4259      246.07841      294.53322      0.18700239   
   1456000   522.01537      1338.722       1860.7374      126.93218      299.60874      0.18756519   
   1457000   496.79227      1328.2014      1824.9937      36.521164      297.2542       0.18737901   
   1458000   496.48031      1275.4611      1771.9414     -15.616738      285.4508       0.18571953   
   1459000   531.64336      1300.2596      1831.9029      32.798276      291.00076      0.18470462   
   1460000   522.85172      1325.6057      1848.4574      124.34423      296.67327      0.18280314   
   1461000   539.32564      1334.5327      1873.8583      219.64715      298.67116      0.18235728   
   1462000   520.54474      1353.262       1873.8067      212.22052      302.8628       0.18548189   
   1463000   491.49704      1345.3971      1836.8942      245.56764      301.10264      0.19479427   
   1464000   511.44635      1328.7137      1840.16        100.45236      297.36885      0.20127191   
   1465000   479.19323      1340.6895      1819.8827      29.042966      300.04906      0.2024415    
   1466000   495.9047       1334.3574      1830.2621     -52.663542      298.63192      0.19937105   
   1467000   514.52634      1295.983       1810.5093     -11.829714      290.04365      0.19307636   
   1468000   539.66008      1301.7544      1841.4144      46.988574      291.3353       0.18770592   
   1469000   522.94153      1317.0034      1839.945       64.546872      294.74807      0.18564264   
   1470000   531.53003      1304.4646      1835.9946      114.12891      291.94185      0.18834816   
   1471000   497.14063      1337.4854      1834.626       222.92802      299.33197      0.1940725    
   1472000   501.38988      1337.7293      1839.1192      240.71488      299.38657      0.19736147   
   1473000   519.09687      1359.6294      1878.7263      300.14816      304.28785      0.19762914   
   1474000   501.61718      1350.6171      1852.2343      226.79356      302.27088      0.1928334    
   1475000   515.46035      1325.5106      1840.9709      157.70346      296.65199      0.19220893   
   1476000   526.37015      1341.4503      1867.8204      166.81274      300.21933      0.19752459   
   1477000   502.92899      1363.7097      1866.6387      184.95409      305.20102      0.20137051   
   1478000   531.32653      1376.745       1908.0715      164.21704      308.11835      0.20453473   
   1479000   484.02273      1369.6941      1853.7168      200.57516      306.54035      0.20691892   
   1480000   472.5587       1375.5355      1848.0942      162.46725      307.84767      0.20762299   
   1481000   518.65218      1408.0359      1926.6881      178.70654      315.12133      0.2035829    
   1482000   495.92763      1375.4364      1871.364       220.8627       307.82549      0.1966718    
   1483000   492.51986      1357.107       1849.6269      207.99201      303.72333      0.19146529   
   1484000   521.04015      1327.7376      1848.7777      183.80843      297.1504       0.1868336    
   1485000   515.87794      1388.2755      1904.1534      191.85458      310.6989       0.18510871   
   1486000   548.84267      1338.5431      1887.3858      128.56171      299.5687       0.18733646   
   1487000   521.24872      1359.4615      1880.7102      143.61201      304.25026      0.19141925   
   1488000   509.83988      1377.92        1887.7599      66.902636      308.38132      0.19551276   
   1489000   498.91592      1402.5678      1901.4837      190.59636      313.89755      0.19882211   
   1490000   524.66521      1370.127       1894.7922      215.28011      306.63723      0.19498231   
   1491000   524.23145      1355.9297      1880.1612      278.97592      303.45985      0.19133688   
   1492000   512.33042      1362.255       1874.5854      273.91788      304.87547      0.18793294   
   1493000   553.35883      1372.0929      1925.4517      222.22304      307.0772       0.18623601   
   1494000   533.91351      1401.2535      1935.167       138.31484      313.60342      0.18500521   
   1495000   527.24075      1360.864       1888.1047      120.07066      304.56415      0.1860388    
   1496000   531.65436      1343.0307      1874.6851      124.00587      300.57304      0.18909934   
   1497000   536.59445      1366.9616      1903.556       176.37853      305.9288       0.19998562   
   1498000   518.182        1369.5693      1887.7513      292.6072       306.51242      0.21041452   
   1499000   501.69073      1377.7082      1879.3989      291.49349      308.33392      0.20833407   
   1500000   513.61856      1357.1457      1870.7643      323.60113      303.732        0.20208581   
   1501000   524.91228      1359.4443      1884.3565      256.37668      304.24642      0.19543161   
   1502000   543.70588      1372.8249      1916.5308      217.21444      307.24103      0.19242598   
   1503000   526.20897      1368.3165      1894.5254      122.07313      306.23203      0.19029572   
   1504000   498.91296      1358.3114      1857.2244      71.279394      303.99288      0.19068089   
   1505000   522.54619      1355.8961      1878.4423      96.067562      303.45234      0.19323447   
   1506000   503.91821      1346.3758      1850.294       91.621314      301.32166      0.19377657   
   1507000   501.71369      1351.988       1853.7017      84.61524       302.57769      0.19079111   
   1508000   505.10581      1336.9654      1842.0712      124.13468      299.2156       0.18417511   
   1509000   536.93402      1304.9619      1841.8959      122.59941      292.05315      0.17808602   
   1510000   562.88234      1315.3934      1878.2757      136.51968      294.38774      0.17798773   
   1511000   522.72143      1325.2011      1847.9225      104.2991       296.58272      0.1821015    
   1512000   514.84272      1345.9462      1860.7889      54.670896      301.22552      0.18798311   
   1513000   528.24286      1339.6021      1867.845       24.578885      299.8057       0.19374307   
   1514000   493.88746      1356.0077      1849.8952      99.190321      303.47731      0.19536242   
   1515000   523.06051      1379.1242      1902.1847      174.33225      308.65082      0.19084049   
   1516000   532.7907       1361.7508      1894.5415      254.79381      304.76263      0.18469329   
   1517000   509.7793       1326.0832      1835.8625      266.94805      296.78015      0.18094735   
   1518000   517.0239       1331.5444      1848.5683      236.53493      298.00236      0.18167835   
   1519000   499.96156      1338.6963      1838.6579      214.96146      299.60299      0.18790504   
   1520000   507.98334      1299.8065      1807.7898      160.44493      290.89936      0.19535027   
   1521000   492.60932      1326.9559      1819.5653      119.97319      296.97546      0.19997681   
   1522000   494.22524      1334.3465      1828.5717      66.869462      298.62949      0.20271201   
   1523000   502.20314      1361.0728      1863.276       69.705704      304.61089      0.20412466   
   1524000   508.35334      1359.7602      1868.1135      76.397266      304.31712      0.20151285   
   1525000   509.22902      1335.3875      1844.6166      35.464198      298.86247      0.19595393   
   1526000   516.32028      1325.1226      1841.4429      63.101879      296.56517      0.19273561   
   1527000   512.39377      1343.6349      1856.0287      85.100667      300.70825      0.19294996   
   1528000   512.3806       1353.9074      1866.288       130.09641      303.00725      0.20075477   
   1529000   484.28139      1348.3856      1832.667       243.20494      301.77148      0.20975874   
   1530000   511.34984      1358.552       1869.9019      312.8809       304.04673      0.21178757   
   1531000   466.82179      1352.5962      1819.418       308.55214      302.71381      0.20668263   
   1532000   487.37467      1354.3858      1841.7605      226.10551      303.11433      0.20002211   
   1533000   515.06748      1339.946       1855.0135      208.97489      299.88267      0.1942345    
   1534000   502.06879      1358.0835      1860.1523      154.44659      303.94187      0.19178096   
   1535000   517.22682      1340.7804      1858.0072      66.713448      300.06941      0.19513894   
   1536000   497.23773      1364.2262      1861.464      -4.2036377      305.31663      0.20017291   
   1537000   504.46661      1349.0734      1853.54        19.002628      301.9254       0.20084115   
   1538000   505.95467      1341.3303      1847.285       39.342996      300.19248      0.19473234   
   1539000   526.98247      1336.8264      1863.8088      107.09841      299.18449      0.19160035   
   1540000   535.64064      1358.4431      1894.0837      230.00162      304.02234      0.1929365    
   1541000   541.33994      1340.755       1882.095       245.89155      300.06373      0.19429577   
   1542000   535.61529      1336.5418      1872.1571      253.84832      299.1208       0.19605823   
   1543000   484.53212      1328.6651      1813.1972      110.49667      297.35797      0.1932432    
   1544000   506.68525      1360.1071      1866.7923      45.695869      304.39476      0.19206772   
   1545000   516.27651      1366.6984      1882.9749      77.387569      305.86991      0.1936831    
   1546000   499.73594      1356.1971      1855.933       123.43643      303.51968      0.19612206   
   1547000   506.67234      1355.0187      1861.691       285.717        303.25596      0.19794465   
   1548000   513.96336      1362.4341      1876.3974      369.88504      304.91554      0.19329584   
   1549000   533.18878      1354.8942      1888.083       324.40164      303.22811      0.18627688   
   1550000   528.62642      1351.7368      1880.3633      248.01952      302.52148      0.1827557    
   1551000   531.23477      1347.0457      1878.2804      129.17381      301.47159      0.18428986   
   1552000   538.65725      1337.6756      1876.3329      38.03008       299.37456      0.19187052   
   1553000   488.66317      1316.8163      1805.4795      58.063293      294.70619      0.20076125   
   1554000   515.51505      1280.2703      1795.7853      57.337304      286.52712      0.2012649    
   1555000   482.78841      1334.0375      1816.8259      84.625788      298.56033      0.19848992   
   1556000   488.1889       1323.0509      1811.2398      169.7271       296.10151      0.19334599   
   1557000   530.82573      1273.4902      1804.316       202.62349      285.00973      0.18864375   
   1558000   526.82174      1284.4365      1811.2583      300.28091      287.45953      0.18871799   
   1559000   528.84696      1325.9083      1854.7553      279.61415      296.74101      0.1902543    
   1560000   493.26032      1342.0795      1835.3399      292.84197      300.36015      0.19423794   
   1561000   492.08742      1325.9857      1818.0731      263.92435      296.75832      0.19754563   
   1562000   483.85577      1301.5625      1785.4183      214.48443      291.29236      0.1968172    
   1563000   484.37819      1314.8726      1799.2508      178.74959      294.27118      0.1991607    
   1564000   506.15694      1343.5967      1849.7536      195.71702      300.6997       0.20310188   
   1565000   490.68604      1335.8712      1826.5573      170.55223      298.97072      0.20684656   
   1566000   485.76918      1338.5293      1824.2985      147.22364      299.56561      0.20656744   
   1567000   507.82242      1314.2032      1822.0257      117.90122      294.12138      0.20272879   
   1568000   539.28386      1294.8938      1834.1776      104.21915      289.79988      0.19387625   
   1569000   497.25876      1301.9061      1799.1648      151.10416      291.36925      0.18767939   
   1570000   525.13691      1356.4826      1881.6195      107.98208      303.58358      0.18653582   
   1571000   491.35016      1347.1901      1838.5403      144.13924      301.50392      0.19140705   
   1572000   497.72178      1350.7895      1848.5113      149.56889      302.30946      0.19786209   
   1573000   499.33795      1332.0132      1831.3512      164.8155       298.10729      0.2013301    
   1574000   493.59081      1336.7997      1830.3905      177.81186      299.17851      0.20076916   
   1575000   486.90496      1338.2913      1825.1962      107.13711      299.51233      0.19632551   
   1576000   494.75992      1344.0199      1838.7798      88.357391      300.79442      0.19430046   
   1577000   515.34435      1293.7382      1809.0826      56.502939      289.54127      0.19036654   
   1578000   522.79563      1306.4603      1829.256       95.717061      292.3885       0.18526824   
   1579000   502.27706      1351.948       1854.225       103.84209      302.56873      0.18220219   
   1580000   519.78592      1333.2863      1853.0722      149.71553      298.3922       0.18359161   
   1581000   528.57231      1345.4978      1874.0701      157.82297      301.12517      0.19179711   
   1582000   523.04577      1334.0407      1857.0865      112.17622      298.56106      0.19741679   
   1583000   477.2769       1323.4926      1800.7695      98.155331      296.20037      0.19593602   
   1584000   510.04431      1332.7053      1842.7496      72.412785      298.26218      0.19247852   
   1585000   496.68591      1316.946       1813.6319      155.22496      294.73522      0.18945827   
   1586000   509.79347      1312.1403      1821.9338      153.72413      293.65969      0.18777205   
   1587000   507.09137      1295.0775      1802.1688      191.80161      289.841        0.18935556   
   1588000   531.64855      1312.5437      1844.1923      211.36916      293.74998      0.19378804   
   1589000   498.80089      1333.463       1832.2639      257.71811      298.43176      0.19558373   
   1590000   524.99722      1292.5591      1817.5564      273.03728      289.27739      0.19277887   
   1591000   522.29354      1357.6353      1879.9289      185.77361      303.84158      0.17972803   
   1592000   531.97144      1370.1015      1902.0729      128.3522       306.63152      0.17402901   
   1593000   537.19129      1355.9402      1893.1315      129.20084      303.46221      0.17596941   
   1594000   544.96705      1360.398       1905.3651      102.85731      304.45987      0.1800864    
   1595000   529.55943      1368.6884      1898.2478      144.96563      306.31527      0.18373013   
   1596000   539.37187      1335.862       1875.2338      132.58668      298.96865      0.186983     
   1597000   510.11872      1386.2687      1896.3874      228.7306       310.24979      0.19048888   
   1598000   498.60124      1410.6781      1909.2794      271.88443      315.71266      0.19529336   
   1599000   493.81747      1363.7633      1857.5808      299.86508      305.21303      0.19860176   
   1600000   517.05965      1346.6414      1863.701       263.72408      301.38111      0.19591888   
   1601000   510.97417      1352.7626      1863.7368      166.39197      302.75105      0.1903794    
   1602000   518.94307      1332.9274      1851.8705      126.42875      298.31189      0.18458142   
   1603000   540.635        1326.4329      1867.0679      79.265404      296.8584       0.180767     
   1604000   516.93169      1351.5257      1868.4574      105.86876      302.47423      0.18358532   
   1605000   492.48244      1366.5484      1859.0308      131.93918      305.83634      0.19233398   
   1606000   485.91706      1343.4105      1829.3275      196.14231      300.65802      0.1998315    
   1607000   509.5893       1324.7153      1834.3046      194.90028      296.47401      0.19964873   
   1608000   513.29031      1306.8521      1820.1425      155.38102      292.47619      0.19738429   
   1609000   521.86487      1322.8636      1844.7284      154.75025      296.05958      0.19378759   
   1610000   505.67576      1320.3034      1825.9791      158.56462      295.48661      0.19075852   
   1611000   488.50942      1306.5158      1795.0252      215.06109      292.40092      0.18973829   
   1612000   494.28209      1299.5362      1793.8183      226.76009      290.83887      0.18933122   
   1613000   518.06564      1339.1751      1857.2407      205.11296      299.71013      0.1884247    
   1614000   513.5229       1336.6064      1850.1293      146.04566      299.13527      0.18547969   
   1615000   526.33168      1344.702       1871.0337      101.67394      300.94707      0.18159244   
   1616000   537.62835      1339.695       1877.3233     -15.507309      299.82649      0.18001234   
   1617000   561.86754      1313.6351      1875.5026     -2.4351065      293.99423      0.18317921   
   1618000   524.58543      1378.5492      1903.1347      14.452984      308.52215      0.18766066   
   1619000   525.0766       1356.3172      1881.3938      127.27449      303.54657      0.19208591   
   1620000   518.97925      1360.0437      1879.023       176.63041      304.38057      0.19680349   
   1621000   518.31564      1350.7798      1869.0954      290.67337      302.30729      0.19984506   
   1622000   498.11024      1355.1754      1853.2857      345.89817      303.29105      0.20013464   
   1623000   473.28955      1340.7994      1814.089       299.67317      300.07366      0.19715472   
   1624000   549.32595      1372.9048      1922.2308      212.8045       307.25892      0.18891994   
   1625000   536.86865      1379.5802      1916.4489      179.78467      308.75289      0.17999995   
   1626000   505.89428      1362.1728      1868.0671      151.03086      304.85708      0.17730001   
   1627000   531.49844      1354.1478      1885.6462      193.01111      303.06106      0.18053452   
   1628000   519.11251      1343.6148      1862.7273      158.61164      300.70375      0.18513716   
   1629000   506.20114      1377.7166      1883.9177      140.56552      308.3358       0.1889598    
   1630000   516.34756      1367.0124      1883.36        173.50293      305.94018      0.19165547   
   1631000   531.20052      1337.1059      1868.3064      118.66406      299.24704      0.19058131   
   1632000   539.93781      1329.1457      1869.0835      100.43428      297.46554      0.18839256   
   1633000   511.07692      1347.3018      1858.3787      90.488322      301.52891      0.18702391   
   1634000   491.35054      1292.5382      1783.8888      37.222904      289.27271      0.18583874   
   1635000   517.01816      1304.4701      1821.4883      12.16852       291.94309      0.19023557   
   1636000   498.99091      1332.3227      1831.3136      28.132588      298.17656      0.19543142   
   1637000   508.08231      1329.1816      1837.2639      54.369582      297.47357      0.19664447   
   1638000   519.373        1293.9118      1813.2848      16.77813       289.58012      0.19508059   
   1639000   525.60383      1334.6093      1860.2131      100.07332      298.68829      0.19260408   
   1640000   523.19348      1355.6602      1878.8537      191.57589      303.39954      0.18871485   
   1641000   540.46322      1353.235       1893.6982      205.66155      302.85676      0.18476106   
   1642000   534.99856      1337.9337      1872.9322      187.09186      299.43231      0.17934764   
   1643000   551.7679       1349.729       1901.4969      109.33867      302.07212      0.17395496   
   1644000   519.4814       1392.3428      1911.8242      157.93087      311.60919      0.17946683   
   1645000   502.37585      1331.7754      1834.1513      152.35365      298.05408      0.18833549   
   1646000   517.63383      1334.3099      1851.9437      176.62317      298.6213       0.19237593   
   1647000   500.84954      1332.7869      1833.6364      205.40881      298.28044      0.19453837   
   1648000   491.6791       1346.3521      1838.0312      181.49095      301.31636      0.19720351   
   1649000   510.8291       1348.9791      1859.8083      194.59683      301.9043       0.19951089   
   1650000   531.04905      1345.3312      1876.3802      139.33747      301.08788      0.19835824   
   1651000   504.19882      1362.492       1866.6908      116.03602      304.92851      0.19276651   
   1652000   524.89978      1365.8864      1890.7862      74.410136      305.68818      0.18480443   
   1653000   498.64968      1380.2905      1878.9402      88.156625      308.91184      0.18292352   
   1654000   516.97434      1347.8886      1864.863       145.03834      301.66024      0.18638577   
   1655000   522.36768      1369.3109      1891.6786      249.3969       306.45459      0.19169182   
   1656000   504.0529       1344.375       1848.428       214.92387      300.87389      0.19448633   
   1657000   501.68911      1359.5977      1861.2868      150.16145      304.28076      0.19642843   
   1658000   489.23792      1359.3443      1848.5822      94.778449      304.22404      0.19594107   
   1659000   503.81264      1369.8073      1873.6199      65.077903      306.56568      0.19716902   
   1660000   511.22186      1404.2433      1915.4651      125.22273      314.27253      0.2002581    
   1661000   513.83518      1377.6157      1891.4509      124.75398      308.31323      0.19853615   
   1662000   514.97699      1346.5185      1861.4955      163.29487      301.35361      0.19092198   
   1663000   524.01705      1356.6583      1880.6754      184.97891      303.62292      0.18359829   
   1664000   537.39605      1402.4684      1939.8644      229.031        313.8753       0.18173158   
   1665000   545.10576      1371.8855      1916.9912      157.69399      307.03079      0.18622429   
   1666000   492.56629      1321.109       1813.6753      88.653355      295.66691      0.19143006   
   1667000   499.48383      1331.3017      1830.7855      90.905367      297.94805      0.19525084   
   1668000   515.52841      1339.3606      1854.889       92.430519      299.75164      0.19437551   
   1669000   522.11767      1315.308       1837.4256      104.68774      294.36862      0.18968886   
   1670000   532.85166      1324.4092      1857.2609      135.63458      296.4055       0.18344313   
   1671000   508.72492      1350.6296      1859.3546      160.43133      302.27369      0.18084753   
   1672000   541.43854      1313.4177      1854.8562      157.59681      293.94558      0.18283046   
   1673000   494.33807      1300.6124      1794.9505      157.55673      291.07972      0.18681898   
   1674000   524.84992      1330.6199      1855.4698      194.81621      297.79546      0.19057858   
   1675000   506.02269      1361.909       1867.9317      220.21268      304.79803      0.19232553   
   1676000   523.8942       1352.7285      1876.6227      218.82285      302.74341      0.19407145   
   1677000   532.72515      1340.6855      1873.4106      216.31732      300.04816      0.19348293   
   1678000   510.11495      1395.0837      1905.1986      256.91477      312.22259      0.19205389   
   1679000   545.40378      1381.1763      1926.5801      236.46363      309.11009      0.18712833   
   1680000   563.50575      1375.1263      1938.632       235.75912      307.75609      0.17862184   
   1681000   549.14384      1360.7512      1909.895       230.11047      304.53891      0.1731921    
   1682000   550.44091      1344.0456      1894.4865      201.0594       300.80016      0.17148594   
   1683000   557.04125      1372.384       1929.4252      190.9483       307.14235      0.17592642   
   1684000   557.29086      1337.4422      1894.7331      122.7934       299.32231      0.18210231   
   1685000   550.2843       1317.3996      1867.6839      72.692268      294.83673      0.18499463   
   1686000   535.1891       1326.2513      1861.4404      30.757538      296.81775      0.18668527   
   1687000   510.37008      1355.5785      1865.9486      76.858732      303.38126      0.18941789   
   1688000   531.73277      1297.9018      1829.6345      175.62209      290.47308      0.1882073    
   1689000   535.47228      1262.6675      1798.1398      187.76507      282.58758      0.18353864   
   1690000   530.22102      1341.3928      1871.6138      216.61292      300.20646      0.17974331   
   1691000   552.16213      1347.5258      1899.6879      208.92345      301.57904      0.18025093   
   1692000   498.31826      1362.0425      1860.3607      244.57977      304.8279       0.18353317   
   1693000   507.74038      1340.8624      1848.6028      261.37725      300.08775      0.19123739   
   1694000   510.67946      1307.9165      1818.596       241.60047      292.7144       0.19934891   
   1695000   473.23807      1287.8457      1761.0838      208.01731      288.22251      0.20185115   
   1696000   498.52467      1331.145       1829.6697      162.1233       297.91299      0.20147842   
   1697000   522.4269       1324.4989      1846.9258      98.425353      296.42557      0.19668874   
   1698000   509.8498       1323.011       1832.8608      76.978567      296.09258      0.1900758    
   1699000   519.69069      1287.3877      1807.0784      88.116712      288.12001      0.18642517   
   1700000   493.77804      1293.22        1786.998       131.45301      289.42529      0.18703387   
   1701000   533.27367      1318.2508      1851.5245      189.6134       295.02725      0.19202164   
   1702000   484.31149      1344.7869      1829.0983      183.2232       300.96606      0.19513043   
   1703000   472.98855      1321.8706      1794.8591      168.03089      295.83735      0.19748138   
   1704000   503.46286      1322.5693      1826.0322      196.43914      295.99373      0.19986285   
   1705000   508.84055      1307.2087      1816.0492      217.05507      292.55598      0.20020382   
   1706000   491.32105      1308.9663      1800.2874      172.02981      292.94936      0.19361786   
   1707000   501.48441      1291.2294      1792.7138      175.76767      288.9798       0.18498185   
   1708000   528.50455      1306.6599      1835.1644      172.74027      292.43316      0.18218976   
   1709000   519.09075      1335.2099      1854.3006      148.71974      298.82271      0.18379261   
   1710000   499.25834      1314.8993      1814.1576      112.56441      294.27716      0.18930106   
   1711000   506.38446      1328.6989      1835.0834      66.274459      297.36554      0.19302788   
   1712000   547.2766       1363.4104      1910.687       81.40284       305.13404      0.19452901   
   1713000   503.23761      1331.8712      1835.1088      96.994327      298.07551      0.19262536   
   1714000   502.00505      1332.5613      1834.5663      125.25289      298.22995      0.19227109   
   1715000   514.47076      1291.0621      1805.5329      172.09656      288.94235      0.19276014   
   1716000   497.38993      1304.1849      1801.5748      240.34331      291.87926      0.19474322   
   1717000   505.13481      1355.6646      1860.7994      332.71766      303.40052      0.19812096   
   1718000   515.41805      1323.3239      1838.7419      335.54685      296.1626       0.19685459   
   1719000   523.26567      1311.6279      1834.8936      300.36089      293.54502      0.19080435   
   1720000   516.76577      1287.5945      1804.3603      192.44623      288.16629      0.18292557   
   1721000   524.89998      1304.4794      1829.3794      96.615352      291.94517      0.18088502   
   1722000   507.90852      1344.548       1852.4565      87.380539      300.91259      0.18442796   
   1723000   506.63297      1306.5783      1813.2113      74.266318      292.4149       0.1908784    
   1724000   488.91846      1295.7817      1784.7001      127.88793      289.99859      0.19740409   
   1725000   496.65601      1326.4931      1823.1491      188.00195      296.87187      0.20101496   
   1726000   508.24883      1344.7298      1852.9786      132.24534      300.95329      0.20207865   
   1727000   511.37467      1370.4236      1881.7982      128.35806      306.7036       0.20283486   
   1728000   498.74598      1369.2425      1867.9885      116.31878      306.43929      0.20116712   
   1729000   518.36397      1340.4423      1858.8063      78.207019      299.99374      0.19426675   
   1730000   519.48908      1354.8155      1874.3046      81.992157      303.2105       0.1880355    
   1731000   492.51061      1359.6545      1852.1652      124.17291      304.29348      0.18801094   
   1732000   541.95547      1328.4817      1870.4372      118.81687      297.31693      0.19182278   
   1733000   528.24143      1357.3004      1885.5418      101.96453      303.76661      0.19503416   
   1734000   509.56261      1346.0146      1855.5772      58.691892      301.24083      0.19492177   
   1735000   500.32061      1356.8367      1857.1573      88.65407       303.66284      0.19483462   
   1736000   559.21399      1339.7154      1898.9294      127.59207      299.83106      0.1948842    
   1737000   517.7924       1340.7846      1858.577       153.59214      300.07035      0.19285455   
   1738000   510.51519      1373.3062      1883.8214      198.74509      307.34875      0.19191109   
   1739000   537.32473      1379.3889      1916.7136      198.82365      308.71007      0.18613378   
   1740000   547.3219       1330.1126      1877.4345      125.61849      297.68193      0.17895811   
   1741000   529.39718      1304.323       1833.7202      57.783048      291.91016      0.17811801   
   1742000   519.40571      1338.3407      1857.7464      8.2804989      299.52339      0.17991271   
   1743000   527.51933      1314.8948      1842.4141      39.246207      294.27614      0.18235947   
   1744000   533.0747       1307.5684      1840.6431      118.26498      292.63648      0.18759885   
   1745000   506.86053      1326.0716      1832.9322      207.95858      296.77755      0.19443706   
   1746000   486.79646      1326.2857      1813.0822      232.30624      296.82547      0.19744643   
   1747000   534.28104      1355.8752      1890.1562      241.77502      303.44765      0.19876331   
   1748000   544.38501      1329.4601      1873.8451      254.92026      297.53591      0.19511163   
   1749000   531.65375      1340.5495      1872.2033      203.32374      300.01774      0.18629838   
   1750000   533.90472      1349.3342      1883.239       177.03319      301.98377      0.18275456   
   1751000   533.61885      1359.1823      1892.8012      62.404926      304.18779      0.18377298   
   1752000   532.79841      1340.8965      1873.6949     -26.53082       300.0954       0.18851129   
   1753000   528.17235      1363.5081      1891.6804     -12.560912      305.1559       0.19503532   
   1754000   517.00731      1411.9761      1928.9835      78.087853      316.00316      0.19793111   
   1755000   528.75484      1351.8873      1880.6421      121.52407      302.55515      0.19908047   
   1756000   494.62116      1357.9188      1852.54        202.61678      303.90502      0.20172175   
   1757000   500.02697      1348.2797      1848.3067      236.96635      301.74777      0.20073051   
   1758000   497.74802      1325.6974      1823.4454      266.32262      296.6938       0.19414033   
   1759000   523.52587      1318.901       1842.4269      182.46136      295.17275      0.1821497    
   1760000   515.68321      1353.0117      1868.6949      180.50773      302.80679      0.17992783   
   1761000   502.61506      1339.7918      1842.4069      233.21226      299.84816      0.18319217   
   1762000   518.59696      1343.3301      1861.9271      269.83787      300.64003      0.18813924   
   1763000   506.52791      1358.4612      1864.9891      266.62         304.02641      0.19289943   
   1764000   498.83179      1332.7652      1831.5969      250.31447      298.27558      0.19698904   
   1765000   502.86257      1324.9008      1827.7633      189.30774      296.51551      0.19823566   
   1766000   514.39823      1393.4321      1907.8303      130.13884      311.85296      0.19524276   
   1767000   536.49905      1339.3527      1875.8518      80.214665      299.74989      0.19020336   
   1768000   512.11329      1341.984       1854.0973      41.694341      300.33878      0.18704713   
   1769000   524.10528      1326.1127      1850.218       18.748141      296.78675      0.18722384   
   1770000   497.77991      1321.8029      1819.5828      109.52671      295.82219      0.19078647   
   1771000   504.13768      1332.4078      1836.5455      147.33784      298.19561      0.19254149   
   1772000   529.29373      1316.7577      1846.0514      169.32608      294.69308      0.19233547   
   1773000   504.59448      1318.9263      1823.5207      180.0776       295.1784       0.19176379   
   1774000   475.33136      1325.2218      1800.5531      135.35395      296.58735      0.19212845   
   1775000   492.46116      1301.185       1793.6462      115.53756      291.20787      0.19837996   
   1776000   507.69326      1287.0335      1794.7268      57.179862      288.04074      0.20958184   
   1777000   511.72642      1294.9458      1806.6722      31.510874      289.81152      0.21304596   
   1778000   499.34077      1312.3897      1811.7304      33.960016      293.7155       0.21071603   
   1779000   512.91574      1316.6584      1829.5741      95.049382      294.67085      0.20306411   
   1780000   500.52376      1343.7195      1844.2433      118.75155      300.72719      0.19641357   
   1781000   544.99595      1292.9114      1837.9074      112.45802      289.35623      0.19241912   
   1782000   533.90131      1300.8929      1834.7943      131.22976      291.14251      0.19073483   
   1783000   510.38323      1280.7087      1791.092       136.80959      286.62524      0.19077535   
   1784000   527.91558      1332.63        1860.5456      7.5257505      298.24533      0.18988925   
   1785000   546.96719      1329.4535      1876.4206      36.401997      297.53441      0.19190865   
   1786000   500.27842      1356.7835      1857.0619      135.54361      303.65093      0.19833568   
   1787000   514.34601      1359.3625      1873.7085      202.33592      304.22811      0.20883106   
   1788000   463.1651       1358.3552      1821.5203      267.66001      304.00269      0.21199954   
   1789000   501.52892      1365.7799      1867.3088      270.90137      305.66434      0.20946664   
   1790000   497.25756      1381.4197      1878.6773      246.96448      309.16456      0.20430321   
   1791000   544.3434       1353.3891      1897.7325      171.07666      302.89125      0.19899911   
   1792000   541.8811       1393.8651      1935.7462      73.376411      311.94988      0.19232768   
   1793000   526.00951      1376.9047      1902.9142      43.559693      308.1541       0.18726666   
   1794000   517.35853      1357.9044      1875.263       94.742813      303.9018       0.1864353    
   1795000   533.30156      1347.7792      1881.0807      139.88203      301.63575      0.18909282   
   1796000   519.32226      1359.3677      1878.6899      248.27997      304.22927      0.19504911   
   1797000   504.09787      1396.5263      1900.6241      271.99597      312.54545      0.19888479   
   1798000   526.75739      1362.6083      1889.3657      272.30977      304.95454      0.19864119   
   1799000   511.63488      1357.8327      1869.4676      299.99332      303.88575      0.19646822   
   1800000   503.20493      1377.2994      1880.5043      232.2392       308.24242      0.19163386   
   1801000   527.77596      1357.6342      1885.4102      95.582196      303.84133      0.18427131   
   1802000   544.53353      1374.5145      1919.0481      52.918926      307.61917      0.17967865   
   1803000   547.2546       1347.3904      1894.645       39.927048      301.54874      0.1826992    
   1804000   529.60342      1363.392       1892.9954      37.528435      305.12993      0.1902578    
   1805000   528.42778      1341.6187      1870.0465      40.955902      300.25702      0.19485566   
   1806000   513.46587      1346.7039      1860.1698      151.23686      301.3951       0.19789977   
   1807000   530.01297      1337.6752      1867.6882      211.19413      299.37446      0.19692731   
   1808000   522.23352      1312.2532      1834.4867      175.28538      293.68496      0.19655428   
   1809000   484.57874      1330.0485      1814.6273      226.69432      297.66759      0.19744081   
   1810000   503.81982      1322.8936      1826.7134      197.04034      296.0663       0.1986054    
   1811000   486.56444      1349.1064      1835.6708      139.22625      301.93278      0.19773954   
   1812000   515.61914      1294.4893      1810.1084      144.14758      289.70936      0.19064479   
   1813000   532.40668      1317.1837      1849.5904      161.49301      294.78842      0.18326363   
   1814000   548.3951       1319.1331      1867.5282      217.78837      295.2247       0.18176253   
   1815000   501.63906      1338.2258      1839.8649      189.9511       299.49768      0.18540077   
   1816000   527.25925      1300.4869      1827.7461      207.00912      291.05163      0.19084523   
   1817000   509.67899      1290.7838      1800.4628      194.01593      288.88007      0.19327613   
   1818000   494.4083       1336.2892      1830.6975      161.00296      299.06426      0.19636527   
   1819000   495.73642      1340.1023      1835.8387      216.36807      299.91764      0.20325199   
   1820000   509.73606      1343.718       1853.454       236.16727      300.72684      0.20206906   
   1821000   502.51176      1354.9671      1857.4789      236.79849      303.24442      0.19634173   
   1822000   538.49425      1326.2896      1864.7839      205.63418      296.82634      0.19416812   
   1823000   513.90666      1308.9215      1822.8282      130.32857      292.93933      0.19236776   
   1824000   517.03063      1332.6217      1849.6523      65.517935      298.24347      0.19129688   
   1825000   501.74008      1304.2345      1805.9746     -89.75102       291.89036      0.18932285   
   1826000   506.86371      1326.6753      1833.539      -78.242652      296.91266      0.18999728   
   1827000   493.03969      1323.9834      1817.0231      7.5342757      296.31021      0.19702262   
   1828000   490.55804      1329.6595      1820.2176      120.15677      297.58053      0.20719255   
   1829000   477.63353      1303.6977      1781.3313      202.01516      291.77023      0.20928885   
   1830000   494.58331      1333.45        1828.0333      289.73525      298.42885      0.2097927    
   1831000   482.03893      1332.1838      1814.2227      342.01788      298.14547      0.20859512   
   1832000   501.72857      1313.3009      1815.0294      202.03674      293.91943      0.20006395   
   1833000   532.86634      1330.5715      1863.4378      128.07751      297.78463      0.19536645   
   1834000   513.41676      1361.4865      1874.9033      118.41436      304.70348      0.19316937   
   1835000   522.73576      1345.4135      1868.1492      120.21344      301.1063       0.1901212    
   1836000   542.22971      1332.5552      1874.7849      160.11335      298.2286       0.18839903   
   1837000   530.11057      1374.4092      1904.5198      182.56608      307.59561      0.18919056   
   1838000   536.48016      1346.5794      1883.0595      122.44931      301.36723      0.18841346   
   1839000   558.84957      1333.1461      1891.9957      139.01569      298.36083      0.1900445    
   1840000   481.99717      1328.6009      1810.5981      188.90287      297.34361      0.19474394   
   1841000   480.47751      1358.3515      1838.829       194.07158      304.00186      0.20062314   
   1842000   489.87822      1321.5955      1811.4737      189.34589      295.77578      0.20232372   
   1843000   520.75296      1317.3199      1838.0728      219.61257      294.81889      0.19951068   
   1844000   507.50147      1327.9133      1835.4148      155.60144      297.18973      0.19069135   
   1845000   528.38515      1310.85        1839.2351      156.70266      293.37091      0.18583398   
   1846000   508.29789      1298.4441      1806.742       180.54035      290.59445      0.18614319   
   1847000   539.40178      1369.5953      1908.9971      189.44322      306.51824      0.18947169   
   1848000   518.41474      1345.6097      1864.0244      164.3141       301.15021      0.19115375   
   1849000   490.89983      1363.675       1854.5748      161.52651      305.19326      0.19168139   
   1850000   507.87435      1359.9286      1867.803       145.55717      304.35481      0.19001888   
   1851000   498.21463      1349.894       1848.1086      75.035265      302.10905      0.18406617   
   1852000   520.89011      1307.0808      1827.9709      51.008594      292.52737      0.17986949   
   1853000   501.97135      1292.542       1794.5133      75.494802      289.27355      0.1804912    
   1854000   513.15014      1309.49        1822.6402      227.4004       293.06656      0.18581547   
   1855000   534.89037      1313.02        1847.9104      317.96474      293.85657      0.19161614   
   1856000   514.2276       1309.5234      1823.7511      336.3354       293.07404      0.19476712   
   1857000   478.32859      1328.5373      1806.8659      283.08385      297.32938      0.19453703   
   1858000   478.46034      1315.6958      1794.1562      169.20239      294.45542      0.193609     
   1859000   516.89176      1351.5407      1868.4325      107.34444      302.47759      0.19384101   
   1860000   511.82834      1343.7513      1855.5797      96.836198      300.7343       0.19255657   
   1861000   527.29418      1308.7619      1836.0561      86.5972        292.9036       0.18866918   
   1862000   534.4556       1314.991       1849.4466      136.74732      294.29769      0.18419585   
   1863000   514.1936       1334.0028      1848.1964      199.80926      298.55257      0.18319081   
   1864000   527.16452      1347.482       1874.6465      280.36757      301.56924      0.19178909   
   1865000   515.8356       1327.323       1843.1586      255.78705      297.0576       0.19977924   
   1866000   512.84094      1340.0997      1852.9407      208.60284      299.91707      0.20272864   
   1867000   502.31863      1383.8588      1886.1774      129.75924      309.71044      0.19884415   
   1868000   558.21149      1332.0069      1890.2183      86.975694      298.10587      0.19146302   
   1869000   530.62995      1361.1158      1891.7457      32.009539      304.62051      0.1867457    
   1870000   520.66914      1352.2472      1872.9163      116.39075      302.6357       0.18672616   
   1871000   514.83638      1343.0372      1857.8736      213.90997      300.57449      0.18771112   
   1872000   512.42833      1335.4852      1847.9135      267.88658      298.88433      0.18874036   
   1873000   534.88563      1389.0941      1923.9797      302.04822      310.88211      0.18965879   
   1874000   555.40652      1365.4689      1920.8755      287.45636      305.59475      0.18996715   
   1875000   555.31879      1357.4408      1912.7596      181.83017      303.79804      0.18882696   
   1876000   547.16253      1340.0021      1887.1646      107.29594      299.89522      0.18723029   
   1877000   531.7701       1359.0206      1890.7907      36.024467      304.1516       0.18997988   
   1878000   537.90351      1384.8404      1922.7439      10.386046      309.93012      0.19469102   
   1879000   533.37255      1390.8742      1924.2467      50.100033      311.2805       0.19574345   
   1880000   507.32944      1360.0104      1867.3398      146.72558      304.37311      0.19145557   
   1881000   536.7638       1312.4144      1849.1782      204.48072      293.72103      0.18367219   
   1882000   525.78495      1275.978       1801.763       242.76717      285.5665       0.17752329   
   1883000   511.6074       1301.9064      1813.5138      218.31238      291.36931      0.17780382   
   1884000   532.78386      1315.1799      1847.9637      213.27297      294.33996      0.18173134   
   1885000   542.69526      1324.3862      1867.0814      156.76369      296.40034      0.18530068   
   1886000   528.04471      1371.0387      1899.0834      63.542987      306.84128      0.18856717   
   1887000   519.82928      1343.2532      1863.0825      4.5102243      300.62283      0.19352719   
   1888000   542.52336      1360.3797      1902.9031     -50.846861      304.45577      0.19814828   
   1889000   513.05376      1360.204       1873.2577     -62.552943      304.41644      0.20018986   
   1890000   491.91056      1375.6407      1867.5512      20.420358      307.87121      0.19914524   
   1891000   538.4873       1356.5846      1895.0719      134.25051      303.60641      0.19649639   
   1892000   543.53477      1355.3639      1898.8987      250.70279      303.33323      0.18636145   
   1893000   517.67768      1384.2599      1901.9376      289.24739      309.80021      0.1808371    
   1894000   516.61797      1366.8437      1883.4617      332.02228      305.90242      0.18215919   
   1895000   543.72709      1387.9307      1931.6578      280.63199      310.62175      0.18685264   
   1896000   535.90551      1355.8919      1891.7974      227.97419      303.4514       0.1907089    
   1897000   526.72695      1348.0743      1874.8012      185.19679      301.70179      0.19308002   
   1898000   536.48176      1396.6235      1933.1053      133.58509      312.56721      0.19121153   
   1899000   535.7876       1384.5292      1920.3168      141.20663      309.86048      0.18817069   
   1900000   561.30761      1350.191       1911.4986      139.13334      302.17552      0.18560231   
   1901000   515.09085      1346.2461      1861.337       197.27494      301.29264      0.18567572   
   1902000   524.0364       1374.2717      1898.3081      227.62305      307.56483      0.19203441   
   1903000   491.17323      1365.7911      1856.9644      200.60554      305.66686      0.20030796   
   1904000   516.26742      1351.6476      1867.915       241.91522      302.5015       0.20537023   
   1905000   505.63081      1398.957       1904.5878      218.75029      313.08944      0.20120463   
   1906000   517.38148      1347.5559      1864.9374      166.99931      301.58578      0.19551173   
   1907000   506.18377      1349.435       1855.6188      81.303094      302.00632      0.19217101   
   1908000   547.62256      1333.2142      1880.8368      117.74927      298.37609      0.19258689   
   1909000   540.91327      1319.8458      1860.7591      136.20337      295.3842       0.19393539   
   1910000   485.39929      1323.129       1808.5283      201.76093      296.11898      0.19726289   
   1911000   472.22349      1299.5251      1771.7486      216.5455       290.83638      0.1972081    
   1912000   492.20796      1324.6825      1816.8904      171.88414      296.46665      0.19436398   
   1913000   536.88045      1302.8521      1839.7326      123.34447      291.58098      0.19012626   
   1914000   553.56828      1288.3145      1841.8828      92.254694      288.32743      0.18470719   
   1915000   510.24564      1282.9838      1793.2294      51.967014      287.1344       0.17844121   
   1916000   550.53685      1300.0378      1850.5746      6.8634133      290.95112      0.17795819   
   1917000   507.02308      1339.0938      1846.1169      116.60658      299.69194      0.18340924   
   1918000   494.61553      1326.7755      1821.391       202.20931      296.93508      0.18841702   
   1919000   513.06187      1334.6837      1847.7455      243.31107      298.70494      0.19141104   
   1920000   492.0465       1353.7685      1845.815       248.44129      302.97617      0.194533     
   1921000   506.83024      1360.7004      1867.5307      243.74327      304.52755      0.19612326   
   1922000   542.55044      1325.328       1867.8784      116.6827       296.61112      0.19420994   
   1923000   508.29851      1335.2111      1843.5096      83.959111      298.82298      0.18935283   
   1924000   536.47487      1361.9706      1898.4455      92.636056      304.81183      0.18573961   
   1925000   512.87954      1385.3284      1898.208       158.07265      310.03934      0.18558579   
   1926000   518.12933      1331.2847      1849.414       185.78634      297.94424      0.1869334    
   1927000   524.78882      1323.1883      1847.9771      186.54519      296.13226      0.19300138   
   1928000   508.58083      1328.3871      1836.9679      108.78194      297.29576      0.19911408   
   1929000   509.81058      1302.3334      1812.144       38.82047       291.46489      0.20054131   
   1930000   517.24244      1323.7962      1841.0387      74.288054      296.26831      0.19724855   
   1931000   509.55602      1351.6934      1861.2494      86.701772      302.51176      0.18673003   
   1932000   544.54687      1351.5678      1896.1146      172.03381      302.48364      0.18300388   
   1933000   546.70459      1391.3965      1938.1011      245.16172      311.39739      0.1840401    
   1934000   525.87239      1371.3757      1897.2481      289.16686      306.91671      0.18532934   
   1935000   519.57644      1386.4234      1905.9998      245.78554      310.2844       0.18664368   
   1936000   511.73322      1361.6978      1873.431       218.50358      304.75076      0.19193168   
   1937000   506.70884      1323.4474      1830.1563      224.97666      296.19025      0.19920734   
   1938000   504.33816      1296.8438      1801.1819      146.06458      290.2363       0.20137384   
   1939000   461.78868      1292.1364      1753.9251      145.17057      289.18279      0.20029128   
   1940000   491.20689      1321.9785      1813.1853      90.206239      295.86149      0.19625308   
   1941000   500.62493      1321.9553      1822.5803      79.952928      295.85632      0.19572743   
   1942000   527.40185      1318.7476      1846.1495      104.73912      295.13843      0.19768854   
   1943000   486.15858      1316.9044      1803.063       155.13205      294.72591      0.20149765   
   1944000   492.24193      1341.7875      1834.0294      174.05414      300.29479      0.2037158    
   1945000   518.58124      1294.1047      1812.6859      134.78021      289.62328      0.20213585   
   1946000   524.73478      1335.8736      1860.6084      158.46177      298.97125      0.19419637   
   1947000   532.30751      1331.8823      1864.1898      125.251        298.07799      0.18713732   
   1948000   541.34686      1345.7932      1887.1401      108.29157      301.19128      0.18740088   
   1949000   529.22239      1321.4442      1850.6666      105.20489      295.74192      0.19109425   
   1950000   511.89494      1362.3564      1874.2513      166.52523      304.89816      0.19583943   
   1951000   525.79232      1342.7155      1868.5078      99.500573      300.50248      0.19356292   
   1952000   534.90361      1334.1219      1869.0255      101.51077      298.57921      0.18806177   
   1953000   498.65         1373.9644      1872.6144      145.77143      307.49605      0.18493596   
   1954000   494.46177      1340.5077      1834.9695      201.51646      300.00838      0.18547181   
   1955000   504.12769      1309.951       1814.0787      280.01308      293.16972      0.18772107   
   1956000   539.21595      1319.6502      1858.8662      297.77019      295.34043      0.18901299   
   1957000   500.39749      1356.2627      1856.6602      278.79023      303.53438      0.18911684   
   1958000   517.07357      1332.6833      1849.7569      206.1267       298.25725      0.19081288   
   1959000   539.8724       1318.9874      1858.8598      131.55298      295.19209      0.1949834    
   1960000   503.40429      1307.062       1810.4663      113.48633      292.52316      0.19890446   
   1961000   497.56758      1332.6606      1830.2282      63.27725       298.25218      0.19862458   
   1962000   519.16466      1317.8237      1836.9883      47.889895      294.93164      0.1968742    
   1963000   497.01145      1309.9505      1806.9619      95.701491      293.1696       0.1940015    
   1964000   519.34475      1327.6245      1846.9692      137.83878      297.12509      0.19263491   
   1965000   508.69097      1306.7263      1815.4173      195.39306      292.44804      0.19115971   
   1966000   530.12625      1331.1946      1861.3208      140.52766      297.92408      0.18652414   
   1967000   535.35756      1364.6455      1900.0031      146.88316      305.41047      0.18372925   
   1968000   551.53684      1363.8419      1915.3788      187.53066      305.23062      0.18125657   
   1969000   550.31698      1391.5582      1941.8752      135.63893      311.43359      0.17693589   
   1970000   560.65669      1356.6448      1917.3015      108.86565      303.6199       0.17527253   
   1971000   520.49915      1383.5823      1904.0815      124.62393      309.64856      0.18222174   
   1972000   546.11011      1355.9741      1902.0842      146.65906      303.46978      0.19119377   
   1973000   511.82114      1320.8191      1832.6403      191.91677      295.60203      0.19626029   
   1974000   519.55543      1291.213       1810.7684      171.09881      288.97611      0.19719683   
   1975000   526.25057      1314.567       1840.8176      197.85527      294.2028       0.19477428   
   1976000   518.8113       1342.6859      1861.4972      215.10624      300.49586      0.19233691   
   1977000   548.48061      1298.4702      1846.9508      191.19377      290.6003       0.19265339   
   1978000   519.90207      1283.568       1803.4701      81.638111      287.26516      0.19282843   
   1979000   515.12791      1352.4438      1867.5717      139.94274      302.67969      0.19713996   
   1980000   526.01929      1333.1756      1859.1949      124.25394      298.36744      0.20157112   
   1981000   514.26411      1356.8494      1871.1135      51.187382      303.66568      0.2040513    
   1982000   496.16971      1327.844       1824.0137      39.923686      297.17421      0.20428369   
   1983000   479.0626       1341.67        1820.7326      96.901378      300.26851      0.20143022   
   1984000   542.93424      1353.3864      1896.3206      178.49379      302.89065      0.19496954   
   1985000   526.0178       1345.2547      1871.2725      215.24903      301.07076      0.18631831   
   1986000   492.67844      1364.8457      1857.5241      282.62815      305.45526      0.18339932   
   1987000   554.37672      1356.1242      1910.5009      262.03614      303.50338      0.18521264   
   1988000   540.64248      1346.1967      1886.8391      205.33298      301.28158      0.19008617   
   1989000   515.57043      1343.6647      1859.2352      187.95277      300.71493      0.19488195   
   1990000   527.10877      1361.0407      1888.1495      110.66467      304.6037       0.19731546   
   1991000   503.44224      1345.9145      1849.3567      72.128531      301.21842      0.19475886   
   1992000   533.58514      1378.1141      1911.6993      83.531123      308.42477      0.19136967   
   1993000   534.61802      1401.229       1935.847       64.470173      313.59792      0.18507609   
   1994000   554.04787      1358.2922      1912.3401      137.26001      303.98859      0.18095841   
   1995000   556.64371      1346.4426      1903.0863      161.95584      301.33662      0.17766151   
   1996000   522.96044      1377.659       1900.6195      220.23679      308.32291      0.18138222   
   1997000   523.1669       1393.923       1917.0899      248.84331      311.96284      0.18667267   
   1998000   559.81462      1396.9375      1956.7521      317.68058      312.63747      0.1910063    
   1999000   532.41245      1371.4028      1903.8152      262.88933      306.92276      0.19294262   
   2000000   513.80066      1357.3506      1871.1513      204.30059      303.77786      0.19382951   
Loop time of 8818.96 on 8 procs for 2000000 steps with 1500 atoms

Performance: 9.797 ns/day, 2.450 hours/ns, 226.784 timesteps/s, 340.176 katom-step/s
99.4% CPU use with 8 MPI tasks x 1 OpenMP threads

MPI task timing breakdown:
Section |  min time  |  avg time  |  max time  |%varavg| %total
---------------------------------------------------------------
Pair    | 385.83     | 403.79     | 423.93     |  76.1 |  4.58
Bond    | 19.314     | 20.868     | 21.87      |  17.3 |  0.24
Kspace  | 3640.3     | 3652.2     | 3666.8     |  16.8 | 41.41
Neigh   | 6.7847     | 6.9985     | 7.0908     |   4.7 |  0.08
Comm    | 153.31     | 169.12     | 186.96     |  96.5 |  1.92
Output  | 0.12972    | 0.19276    | 0.6257     |  37.3 |  0.00
Modify  | 4231.3     | 4415.9     | 4526.4     | 170.1 | 50.07
Other   |            | 150        |            |       |  1.70

Nlocal:          187.5 ave         210 max         157 min
Histogram: 1 0 0 2 0 0 3 0 1 1
Nghost:        1828.25 ave        1894 max        1774 min
Histogram: 1 0 1 1 1 2 1 0 0 1
Neighs:        16819.6 ave       19073 max       14291 min
Histogram: 2 0 0 1 2 0 0 0 0 3

Total # of neighbors = 134557
Ave neighs/atom = 89.704667
Ave special neighs/atom = 2
Neighbor list builds = 12279
Dangerous builds = 0
System init for write_data ...
PPPM initialization ...
  using 12-bit tables for long-range coulomb (src/kspace.cpp:342)
  G vector (1/distance) = 0.27164864
  grid = 48 48 48
  stencil order = 5
  estimated absolute RMS force accuracy = 0.00034251372
  estimated relative force accuracy = 1.0314699e-06
  using single precision FFTW3
  3d grid and FFT values/proc = 29791 13824
Generated 1 of 1 mixed pair_coeff terms from arithmetic mixing rule
Last active /omp style is kspace_style pppm/omp
