LAMMPS (19 Nov 2024)
OMP_NUM_THREADS environment is not set. Defaulting to 1 thread. (src/comm.cpp:99)
  using 1 OpenMP thread(s) per MPI task
using multi-threaded neighbor list subroutines
Reading data file ...
  orthogonal box = (0 0 0) to (59.209276 59.209276 59.209276)
  2 by 2 by 2 MPI processor grid
  reading atoms ...
  1500 atoms
  scanning bonds ...
  1 = max bonds/atom
  scanning angles ...
  1 = max angles/atom
  orthogonal box = (0 0 0) to (59.209276 59.209276 59.209276)
  2 by 2 by 2 MPI processor grid
  reading bonds ...
  1000 bonds
  reading angles ...
  500 angles
Finding 1-2 1-3 1-4 neighbors ...
  special bond factors lj:    0        0        0       
  special bond factors coul:  0        0        0       
     2 = max # of 1-2 neighbors
     1 = max # of 1-3 neighbors
     1 = max # of 1-4 neighbors
     2 = max # of special neighbors
  special bonds CPU = 0.000 seconds
  read_data CPU = 0.115 seconds
Setting atom values ...
  1000 settings made for charge
Setting atom values ...
  500 settings made for charge
1000 atoms in group oxy
500 atoms in group carb
PPPM initialization ...
  using 12-bit tables for long-range coulomb (src/kspace.cpp:342)
  G vector (1/distance) = 0.2674831
  grid = 54 54 54
  stencil order = 5
  estimated absolute RMS force accuracy = 0.00035249099
  estimated relative force accuracy = 1.0615162e-06
  using single precision FFTW3
  3d grid and FFT values/proc = 39304 20412
Generated 1 of 1 mixed pair_coeff terms from arithmetic mixing rule
Last active /omp style is kspace_style pppm/omp
Neighbor list info ...
  update: every = 1 steps, delay = 0 steps, check = yes
  max neighbors/atom: 2000, page size: 100000
  master list distance cutoff = 15
  ghost atom cutoff = 15
  binsize = 7.5, bins = 8 8 8
  1 neighbor lists, perpetual/occasional/extra = 1 0 0
  (1) pair lj/cut/coul/long/omp, perpetual
      attributes: half, newton on, omp
      pair build: half/bin/newton/omp
      stencil: half/bin/3d
      bin: standard
Setting up cg style minimization ...
  Unit style    : real
  Current step  : 0
Per MPI rank memory allocation (min/avg/max) = 10.15 | 10.18 | 10.21 Mbytes
   Step          Temp          E_pair         E_mol          TotEng         Press     
         0   0              33.981313      1.5011389e-05  33.981328      196.28289    
      4502   0             -365.73141      0.24347869    -365.48794     -10.372822    
Loop time of 28.3155 on 8 procs for 4502 steps with 1500 atoms

99.0% CPU use with 8 MPI tasks x 1 OpenMP threads

Minimization stats:
  Stopping criterion = energy tolerance
  Energy initial, next-to-last, final = 
      33.9813277050565   -365.48769289381  -365.487935468416
  Force two-norm initial, final = 102.67446 1.6172279
  Force max component initial, final = 13.944353 0.2362177
  Final line search alpha, max atom move = 0.74442587 0.17584657
  Iterations, force evaluations = 4502 9002

MPI task timing breakdown:
Section |  min time  |  avg time  |  max time  |%varavg| %total
---------------------------------------------------------------
Pair    | 1.4066     | 2.1883     | 3.007      |  35.0 |  7.73
Bond    | 0.071246   | 0.086241   | 0.1024     |   3.1 |  0.30
Kspace  | 24.3       | 25.213     | 26.065     |  10.9 | 89.04
Neigh   | 0.0085011  | 0.0086117  | 0.0087163  |   0.1 |  0.03
Comm    | 0.52888    | 0.59809    | 0.6871     |   7.7 |  2.11
Output  | 0          | 0          | 0          |   0.0 |  0.00
Modify  | 0.01971    | 0.022666   | 0.024636   |   1.0 |  0.08
Other   |            | 0.199      |            |       |  0.70

Nlocal:          187.5 ave         253 max         131 min
Histogram: 1 1 2 0 0 1 1 1 0 1
Nghost:         1343.5 ave        1395 max        1283 min
Histogram: 1 1 1 0 1 0 0 2 0 2
Neighs:        11078.5 ave       16409 max        6097 min
Histogram: 2 1 0 0 0 2 0 1 1 1

Total # of neighbors = 88628
Ave neighs/atom = 59.085333
Ave special neighs/atom = 2
Neighbor list builds = 20
Dangerous builds = 0
PPPM initialization ...
  using 12-bit tables for long-range coulomb (src/kspace.cpp:342)
  G vector (1/distance) = 0.2674831
  grid = 54 54 54
  stencil order = 5
  estimated absolute RMS force accuracy = 0.00035249099
  estimated relative force accuracy = 1.0615162e-06
  using single precision FFTW3
  3d grid and FFT values/proc = 39304 20412
Generated 1 of 1 mixed pair_coeff terms from arithmetic mixing rule
Last active /omp style is kspace_style pppm/omp
Setting up Verlet run ...
  Unit style    : real
  Current step  : 4502
  Time step     : 0.1
Per MPI rank memory allocation (min/avg/max) = 9.025 | 9.061 | 9.09 Mbytes
   Step         PotEng         KinEng         TotEng         Press           Temp        v_Density   
      4502  -365.48794      1340.4703      974.98234      284.83019      300            0.11165098   
      5000   94.323441      1365.239       1459.5625      192.59396      305.5433       0.10871474   
      6000   284.81223      1281.5969      1566.4091      113.53218      286.82402      0.087153807  
      7000   192.36348      1440.3987      1632.7622      121.68379      322.36419      0.082001343  
      8000   359.79309      1246.7763      1606.5694      53.949646      279.0311       0.085641746  
      9000   222.694        1417.5506      1640.2446      128.9514       317.25073      0.089889078  
     10000   344.53677      1276.9667      1621.5035      65.64833       285.78777      0.093311477  
     11000   269.32449      1376.8771      1646.2016      109.32048      308.14793      0.098101241  
     12000   321.71961      1331.0891      1652.8087      87.898656      297.90047      0.10128781   
     13000   340.79205      1333.5985      1674.3905      107.15441      298.46207      0.10409034   
     14000   317.21573      1375.265       1692.4807      116.00689      307.78712      0.10703514   
     15000   347.73702      1357.1231      1704.8601      79.783454      303.72693      0.11164448   
     16000   305.59163      1440.2809      1745.8726      92.270828      322.33783      0.10820476   
     17000   377.9918       1327.594       1705.5858      84.190127      297.11827      0.10525552   
     18000   314.93748      1401.6673      1716.6048      140.74629      313.69603      0.10977242   
     19000   361.70393      1337.5794      1699.2833      75.017158      299.35301      0.10838016   
     20000   341.37579      1376.6631      1718.0389      67.030149      308.10002      0.10345863   
     21000   341.42698      1356.0424      1697.4694      124.31032      303.48507      0.10293124   
     22000   344.34397      1332.5282      1676.8722      150.37004      298.22254      0.10588664   
     23000   359.59246      1313.4095      1673.002       59.645262      293.94375      0.10125646   
     24000   372.91848      1333.9957      1706.9142      66.731967      298.55098      0.097190405  
     25000   376.19455      1338.1519      1714.3465      155.03121      299.48114      0.10182708   
     26000   356.60421      1360.4952      1717.0994      111.22254      304.48161      0.10066719   
     27000   374.88391      1341.8856      1716.7695      45.180715      300.31675      0.094973152  
     28000   371.18064      1359.9128      1731.0934      88.112792      304.35128      0.091801164  
     29000   371.23511      1300.1235      1671.3586      135.69892      290.97031      0.095507391  
     30000   361.76855      1312.9394      1674.708       102.54632      293.83854      0.099364872  
     31000   357.3889       1371.4277      1728.8166      70.93666       306.92834      0.098615935  
     32000   389.22502      1333.3177      1722.5428      92.489134      298.39925      0.094402035  
     33000   374.50091      1363.828       1738.3289      129.11029      305.22751      0.092313795  
     34000   390.23978      1383.2721      1773.5119      97.798738      309.57913      0.097495936  
     35000   383.32654      1370.6193      1753.9458      62.653702      306.74741      0.10079381   
     36000   361.02132      1391.9311      1752.9524      105.25944      311.51704      0.099124714  
     37000   381.51272      1345.5322      1727.0449      137.08798      301.13287      0.10174843   
     38000   344.07984      1316.3803      1660.4601      115.57839      294.60861      0.10822654   
     39000   374.01333      1322.98        1696.9933      59.271864      296.08564      0.10286701   
     40000   365.76745      1321.4366      1687.2041      93.981237      295.74023      0.099231462  
     41000   356.79481      1329.1867      1685.9815      128.02958      297.47471      0.10224647   
     42000   365.96622      1277.4797      1643.4459      95.544098      285.90258      0.10312018   
     43000   372.02077      1344.6724      1716.6932      72.806846      300.94045      0.097086449  
     44000   375.10974      1307.7724      1682.8821      102.25053      292.68214      0.093546221  
     45000   387.29536      1318.5836      1705.8789      112.0703       295.10171      0.096632014  
     46000   363.26159      1335.1057      1698.3673      95.042356      298.79939      0.097969202  
     47000   373.93624      1323.8804      1697.8166      100.02352      296.28715      0.095372062  
     48000   384.82766      1319.8029      1704.6305      98.070529      295.37459      0.090838748  
     49000   400.51466      1377.0026      1777.5172      96.163871      308.176        0.091703775  
     50000   392.438        1352.2105      1744.6485      76.653149      302.62749      0.094986894  
     51000   392.51595      1339.2104      1731.7264      106.88377      299.71804      0.10168656   
     52000   342.34615      1421.288       1763.6341      132.09157      318.08717      0.10438052   
     53000   368.06177      1357.3978      1725.4596      79.552319      303.78842      0.10102071   
     54000   373.81628      1382.5418      1756.3581      89.618245      309.41569      0.10114583   
     54502   392.87014      1382.1147      1774.9848      106.52396      309.3201       0.10093869   
Loop time of 333.57 on 8 procs for 50000 steps with 1500 atoms

Performance: 1.295 ns/day, 18.532 hours/ns, 149.894 timesteps/s, 224.840 katom-step/s
99.3% CPU use with 8 MPI tasks x 1 OpenMP threads

MPI task timing breakdown:
Section |  min time  |  avg time  |  max time  |%varavg| %total
---------------------------------------------------------------
Pair    | 5.011      | 6.823      | 9.0518     |  41.8 |  2.05
Bond    | 0.47867    | 0.55753    | 0.65058    |   7.5 |  0.17
Kspace  | 150.4      | 152.7      | 154.58     |   9.2 | 45.78
Neigh   | 0.038955   | 0.039132   | 0.039352   |   0.1 |  0.01
Comm    | 3.1591     | 3.3528     | 3.4781     |   5.8 |  1.01
Output  | 0.0024467  | 0.0026833  | 0.0041961  |   1.1 |  0.00
Modify  | 150.28     | 159.48     | 167.71     |  50.1 | 47.81
Other   |            | 10.61      |            |       |  3.18

Nlocal:          187.5 ave         229 max         146 min
Histogram: 1 0 1 1 1 1 1 1 0 1
Nghost:           1273 ave        1316 max        1236 min
Histogram: 1 0 1 3 0 0 1 1 0 1
Neighs:        8932.75 ave       11198 max        6404 min
Histogram: 1 0 1 1 0 2 1 0 0 2

Total # of neighbors = 71462
Ave neighs/atom = 47.641333
Ave special neighs/atom = 2
Neighbor list builds = 101
Dangerous builds = 0
PPPM initialization ...
  using 12-bit tables for long-range coulomb (src/kspace.cpp:342)
  G vector (1/distance) = 0.26574656
  grid = 54 54 54
  stencil order = 5
  estimated absolute RMS force accuracy = 0.00038698309
  estimated relative force accuracy = 1.1653881e-06
  using single precision FFTW3
  3d grid and FFT values/proc = 39304 20412
Generated 1 of 1 mixed pair_coeff terms from arithmetic mixing rule
Last active /omp style is kspace_style pppm/omp
Setting up Verlet run ...
  Unit style    : real
  Current step  : 54502
  Time step     : 0.25
Per MPI rank memory allocation (min/avg/max) = 9.025 | 9.061 | 9.09 Mbytes
   Step         PotEng         KinEng         TotEng         Press           Temp        v_Density   
     54502   392.87075      1382.1147      1774.9854      106.52401      309.3201       0.10093869   
     55000   413.64093      1347.9559      1761.5968      86.157232      301.6753       0.096842665  
     56000   417.37116      1398.0886      1815.4598      87.264373      312.8951       0.092619538  
     57000   388.05843      1311.5698      1699.6283      89.618807      293.53202      0.099974441  
     58000   376.06063      1340.6414      1716.702       69.643583      300.03829      0.096855933  
     59000   356.19629      1312.909       1669.1053      89.838603      293.83173      0.097305108  
     60000   403.37847      1351.7955      1755.1739      105.17088      302.5346       0.094730079  
     61000   395.51465      1373.1429      1768.6575      130.74663      307.31219      0.10242346   
     62000   405.71757      1371.7048      1777.4223      117.172        306.99034      0.097006357  
     63000   433.30882      1345.9728      1779.2817      125.10319      301.23148      0.094509928  
     64000   422.40513      1308.4858      1730.891       98.34726       292.84182      0.092332065  
     65000   396.06091      1280.6178      1676.6787      60.629108      286.6049       0.09645119   
     66000   425.31285      1358.2825      1783.5954      22.879919      303.98642      0.092854507  
     67000   406.81242      1363.0026      1769.815       59.874606      305.04278      0.095281075  
     68000   419.21636      1336.0752      1755.2915      133.10373      299.01636      0.092793292  
     69000   401.74704      1321.5707      1723.3177      172.01218      295.77023      0.099537975  
     70000   403.60099      1300.1615      1703.7625      124.24395      290.97882      0.095101221  
     71000   405.12563      1368.7086      1773.8342      83.377594      306.31979      0.09798452   
     72000   403.77234      1390.8041      1794.5764      42.000316      311.26481      0.10048767   
     73000   414.37774      1316.7342      1731.1119      63.267699      294.68781      0.094430263  
     74000   411.96135      1328.1131      1740.0744      104.35108      297.23443      0.092708214  
     75000   422.08723      1364.9779      1787.0651      156.81327      305.48485      0.093882631  
     76000   393.74235      1343.3456      1737.0879      150.48803      300.6435       0.097560876  
     77000   411.26101      1356.1123      1767.3733      92.68352       303.50071      0.096544134  
     78000   441.72637      1290.8134      1732.5397      43.635219      288.88668      0.091364487  
     79000   412.86252      1334.7563      1747.6188      12.586337      298.72119      0.090032319  
     80000   404.82248      1336.582       1741.4044      50.826099      299.12979      0.093894662  
     81000   392.90779      1397.0154      1789.9232      152.63428      312.65491      0.094895692  
     82000   420.69613      1379.2796      1799.9757      190.51346      308.6856       0.094924787  
     83000   426.78364      1377.8673      1804.651       153.83297      308.36954      0.091376545  
     84000   405.69625      1317.9598      1723.6561      82.852898      294.96212      0.095075937  
     85000   399.17563      1385.2088      1784.3844      66.63336       310.01256      0.096890062  
     86000   431.22277      1342.7922      1774.015       68.300913      300.51966      0.093181222  
     87000   423.67435      1355.675       1779.3494      90.638685      303.40285      0.097859097  
     88000   407.35733      1356.0103      1763.3676      114.72365      303.47788      0.09090558   
     89000   425.67028      1366.2382      1791.9085      151.78105      305.76692      0.09174019   
     90000   420.71871      1325.5953      1746.314       118.09626      296.67095      0.0918594    
     91000   403.86421      1300.2154      1704.0797      102.45725      290.99089      0.097144779  
     92000   429.93828      1359.4348      1789.373       82.910972      304.24429      0.090247465  
     93000   407.32913      1351.0462      1758.3753      85.765435      302.3669       0.098075661  
     94000   412.95514      1356.6854      1769.6406      76.256201      303.62898      0.094632657  
     95000   413.33595      1375.6095      1788.9455      82.779848      307.86423      0.094253995  
     96000   403.65028      1331.833       1735.4832      110.49765      298.06695      0.092204205  
     97000   405.80177      1315.4818      1721.2836      131.06816      294.40753      0.089744815  
     98000   411.24141      1322.061       1733.3024      138.15819      295.87996      0.091338669  
     99000   401.23923      1300.6781      1701.9173      76.603681      291.09443      0.090765359  
    100000   412.62876      1296.8009      1709.4297      67.172538      290.22671      0.088155833  
    101000   422.80044      1285.5224      1708.3228      80.120139      287.70255      0.095333958  
    102000   435.84226      1292.8663      1728.7085      114.48896      289.34612      0.091313228  
    103000   414.81816      1329.737       1744.5552      184.65843      297.59787      0.098578261  
    104000   416.86798      1332.3312      1749.1992      114.80144      298.17846      0.091851162  
    104502   419.81297      1365.1955      1785.0085      84.772135      305.53356      0.089388935  
Loop time of 331.554 on 8 procs for 50000 steps with 1500 atoms

Performance: 3.257 ns/day, 7.368 hours/ns, 150.805 timesteps/s, 226.207 katom-step/s
99.4% CPU use with 8 MPI tasks x 1 OpenMP threads

MPI task timing breakdown:
Section |  min time  |  avg time  |  max time  |%varavg| %total
---------------------------------------------------------------
Pair    | 5.6334     | 6.2152     | 7.3568     |  21.3 |  1.87
Bond    | 0.51829    | 0.55686    | 0.62257    |   3.9 |  0.17
Kspace  | 150.59     | 151.81     | 152.44     |   4.6 | 45.79
Neigh   | 0.077759   | 0.077891   | 0.078015   |   0.0 |  0.02
Comm    | 3.1837     | 3.2094     | 3.2396     |   1.1 |  0.97
Output  | 0.0022798  | 0.0025445  | 0.0042588  |   1.3 |  0.00
Modify  | 150.32     | 159.75     | 168.4      |  51.8 | 48.18
Other   |            | 9.933      |            |       |  3.00

Nlocal:          187.5 ave         217 max         153 min
Histogram: 1 0 1 0 1 3 0 0 0 2
Nghost:           1182 ave        1205 max        1144 min
Histogram: 1 1 0 0 0 1 0 2 0 3
Neighs:        7834.25 ave        9827 max        5679 min
Histogram: 1 0 0 1 2 2 0 0 1 1

Total # of neighbors = 62674
Ave neighs/atom = 41.782667
Ave special neighs/atom = 2
Neighbor list builds = 213
Dangerous builds = 0
PPPM initialization ...
  using 12-bit tables for long-range coulomb (src/kspace.cpp:342)
  G vector (1/distance) = 0.26962159
  grid = 60 60 60
  stencil order = 5
  estimated absolute RMS force accuracy = 0.00027186501
  estimated relative force accuracy = 8.1871341e-07
  using single precision FFTW3
  3d grid and FFT values/proc = 50653 27000
Generated 1 of 1 mixed pair_coeff terms from arithmetic mixing rule
Last active /omp style is kspace_style pppm/omp
Setting up Verlet run ...
  Unit style    : real
  Current step  : 104502
  Time step     : 0.5
Per MPI rank memory allocation (min/avg/max) = 9.747 | 9.757 | 9.761 Mbytes
   Step         PotEng         KinEng         TotEng         Press           Temp        v_Density   
    104502   419.81294      1365.1955      1785.0085      84.77244       305.53356      0.089388935  
    105000   475.33399      1347.2699      1822.6039      92.225766      301.52177      0.10784363   
    106000   498.65412      1339.2141      1837.8682      105.57364      299.71885      0.11366953   
    107000   461.93932      1325.9181      1787.8574      137.4425       296.74319      0.11697947   
    108000   482.62974      1350.9119      1833.5417      75.224541      302.33687      0.11588664   
    109000   482.96048      1356.8543      1839.8147      105.19172      303.66677      0.10677428   
    110000   502.21703      1338.9616      1841.1786      124.85005      299.66235      0.10970807   
    111000   480.3837       1339.9276      1820.3113      59.916844      299.87856      0.10938741   
    112000   480.62272      1375.3096      1855.9323      82.256117      307.79711      0.11424257   
    113000   476.88314      1365.7245      1842.6077      179.85115      305.65196      0.11293074   
    114000   484.75521      1348.1482      1832.9034      87.907713      301.71833      0.11592474   
    115000   507.87168      1317.6232      1825.4949      12.882734      294.88678      0.10183024   
    116000   469.82556      1336.9633      1806.7889      166.24942      299.21514      0.1171407    
    117000   498.90439      1372.5276      1871.432       96.076144      307.17449      0.10820238   
    118000   533.16195      1324.4832      1857.6452     -8.0659664      296.42206      0.10889162   
    119000   508.04651      1373.9104      1881.9569      167.09364      307.48397      0.11175045   
    120000   497.07192      1370.468       1867.54        117.76851      306.71356      0.11243112   
    121000   518.52607      1368.3383      1886.8644     -23.068644      306.23692      0.10941801   
    122000   483.66802      1318.9724      1802.6405      162.72202      295.18874      0.10801345   
    123000   473.64199      1354.3554      1827.9974      124.92857      303.10752      0.11449575   
    124000   472.32344      1353.9516      1826.2751      52.319278      303.01715      0.11475959   
    125000   483.95278      1317.3475      1801.3003      102.02894      294.82507      0.1145582    
    126000   500.77098      1342.1687      1842.9397      175.72726      300.38012      0.11043393   
    127000   486.76251      1338.7473      1825.5098      48.476412      299.61439      0.11105221   
    128000   482.44627      1328.2355      1810.6817      91.019894      297.26182      0.1113867    
    129000   509.43307      1382.9435      1892.3766      124.84985      309.50559      0.11411132   
    130000   489.31485      1326.7708      1816.0857      20.97568       296.93404      0.11297504   
    131000   488.70152      1372.5804      1861.2819      122.19632      307.18631      0.11465145   
    132000   487.20385      1286.549       1773.7528      179.32524      287.9323       0.11135202   
    133000   510.68384      1367.2038      1877.8876      42.921755      305.98301      0.11326274   
    134000   463.4313       1357.666       1821.0973      100.78384      303.84844      0.11078176   
    135000   488.52673      1335.1587      1823.6854      160.90965      298.81125      0.11035751   
    136000   483.96352      1381.4181      1865.3816      20.391432      309.16421      0.12827941   
    137000   513.74795      1378.2074      1891.9554      58.975428      308.44565      0.11265702   
    138000   497.04391      1372.8178      1869.8617      148.13216      307.23944      0.11306555   
    139000   479.20946      1379.7072      1858.9166      76.515209      308.7813       0.11271896   
    140000   463.96997      1329.8715      1793.8414      52.738098      297.62796      0.113136     
    141000   497.7555       1396.2971      1894.0526      176.76286      312.49416      0.11531744   
    142000   484.80522      1321.0501      1805.8553      114.84643      295.65372      0.11057372   
    143000   500.8655       1297.2913      1798.1568      50.23785       290.33646      0.1188897    
    144000   515.54919      1290.1586      1805.7078      143.19728      288.74015      0.10782327   
    145000   499.88091      1336.5453      1836.4262      101.76637      299.12158      0.11050167   
    146000   486.63132      1376.6953      1863.3266      52.368196      308.10722      0.11048826   
    147000   474.56334      1337.3299      1811.8932      164.49167      299.29718      0.11024918   
    148000   501.60415      1329.3026      1830.9067      108.03541      297.50065      0.11200302   
    149000   469.47862      1368.193       1837.6716      26.431196      306.2044       0.11975208   
    150000   493.81909      1348.5483      1842.3674      125.34839      301.80788      0.11554018   
    151000   496.66389      1348.0891      1844.753       130.13366      301.70512      0.10402626   
    152000   512.26225      1371.9373      1884.1996      34.276888      307.04239      0.10623246   
    153000   508.34633      1300.5654      1808.9117      98.25794       291.0692       0.11181872   
    154000   517.92085      1390.5029      1908.4237      159.83964      311.1974       0.1065679    
    154502   509.07767      1279.1318      1788.2094      87.825937      286.27232      0.11444491   
Loop time of 414.017 on 8 procs for 50000 steps with 1500 atoms

Performance: 5.217 ns/day, 4.600 hours/ns, 120.768 timesteps/s, 181.152 katom-step/s
99.4% CPU use with 8 MPI tasks x 1 OpenMP threads

MPI task timing breakdown:
Section |  min time  |  avg time  |  max time  |%varavg| %total
---------------------------------------------------------------
Pair    | 6.3849     | 6.9829     | 7.6192     |  17.5 |  1.69
Bond    | 0.52935    | 0.55867    | 0.58335    |   2.2 |  0.13
Kspace  | 179.53     | 180.21     | 180.86     |   3.7 | 43.53
Neigh   | 0.18251    | 0.18269    | 0.18286    |   0.0 |  0.04
Comm    | 3.3961     | 3.4341     | 3.4541     |   1.0 |  0.83
Output  | 0.002473   | 0.0027597  | 0.0045745  |   1.3 |  0.00
Modify  | 211.96     | 216.8      | 220.27     |  18.1 | 52.37
Other   |            | 5.839      |            |       |  1.41

Nlocal:          187.5 ave         213 max         167 min
Histogram: 2 1 1 0 1 0 1 0 0 2
Nghost:         1358.5 ave        1384 max        1330 min
Histogram: 1 2 0 0 0 1 0 1 1 2
Neighs:        9922.38 ave       11901 max        8533 min
Histogram: 1 0 3 0 1 2 0 0 0 1

Total # of neighbors = 79379
Ave neighs/atom = 52.919333
Ave special neighs/atom = 2
Neighbor list builds = 429
Dangerous builds = 0
PPPM initialization ...
  using 12-bit tables for long-range coulomb (src/kspace.cpp:342)
  G vector (1/distance) = 0.26833771
  grid = 54 54 54
  stencil order = 5
  estimated absolute RMS force accuracy = 0.00034041881
  estimated relative force accuracy = 1.0251611e-06
  using single precision FFTW3
  3d grid and FFT values/proc = 39304 20412
Generated 1 of 1 mixed pair_coeff terms from arithmetic mixing rule
Last active /omp style is kspace_style pppm/omp
Setting up Verlet run ...
  Unit style    : real
  Current step  : 0
  Time step     : 0.5
Per MPI rank memory allocation (min/avg/max) = 9.038 | 9.065 | 9.092 Mbytes
   Step         PotEng         KinEng         TotEng         Press           Temp        v_Density   
         0   509.07874      1279.1318      1788.2105      87.825466      286.27232      0.11444491   
      1000   501.41724      1315.6252      1817.0425      92.832167      294.43962      0.11284512   
      2000   502.13357      1318.0985      1820.2321      126.72906      294.99316      0.11058671   
      3000   507.5995       1332.1719      1839.7714      122.41843      298.1428       0.10777716   
      4000   515.9239       1286.6255      1802.5494      100.19749      287.94942      0.10664058   
      5000   496.66258      1333.2428      1829.9053      99.454692      298.38246      0.10876172   
      6000   483.56813      1325.8422      1809.4103      101.94678      296.7262       0.11458656   
      7000   515.63495      1311.3558      1826.9907      64.114702      293.48411      0.1175947    
      8000   480.09534      1328.1975      1808.2929      97.460543      297.25333      0.11848479   
      9000   491.14737      1375.735       1866.8824      89.40683       307.89232      0.11589936   
     10000   471.8154       1355.8567      1827.6721      76.758887      303.44352      0.11110705   
     11000   480.65955      1359.1955      1839.8551      87.973329      304.19075      0.10865244   
     12000   494.58677      1343.3387      1837.9255      110.76238      300.64196      0.1087146    
     13000   495.62306      1374.9888      1870.6118      120.73277      307.72531      0.11057387   
     14000   505.46828      1344.9338      1850.4021      127.73836      300.99895      0.11393089   
     15000   472.76867      1372.1749      1844.9436      142.19334      307.09556      0.11689992   
     16000   495.4603       1370.4791      1865.9394      144.92132      306.71604      0.11864111   
     17000   486.83435      1346.6349      1833.4693      110.54066      301.37966      0.11935481   
     18000   484.44001      1376.0893      1860.5293      121.89104      307.97161      0.11890399   
     19000   486.0234       1425.5796      1911.603       96.391939      319.04765      0.11471322   
     20000   500.33324      1388.0588      1888.3921      77.388445      310.65042      0.10842918   
     21000   520.41723      1332.8684      1853.2856      61.824455      298.29868      0.10681869   
     22000   479.50302      1333.5705      1813.0735      84.111523      298.45582      0.1088992    
     23000   462.88027      1330.9188      1793.7991      119.57401      297.86237      0.11204684   
     24000   473.6798       1312.2648      1785.9446      134.34287      293.68755      0.11433215   
     25000   463.90017      1323.9184      1787.8185      134.14157      296.29565      0.1165137    
     26000   441.49185      1327.7476      1769.2394      136.45257      297.15264      0.11812317   
     27000   495.61696      1307.4758      1803.0928      139.03178      292.61577      0.11875037   
     28000   498.56575      1300.5315      1799.0972      133.10414      291.06162      0.11770736   
     29000   482.10677      1383.5661      1865.6729      105.30479      309.64494      0.11345363   
     30000   510.28151      1346.9469      1857.2284      51.212134      301.44947      0.10767202   
     31000   484.86172      1351.5734      1836.4351      36.924117      302.4849       0.10467069   
     32000   482.0652       1300.982       1783.0473      58.349302      291.16245      0.10620207   
     33000   470.21245      1334.6061      1804.8186      88.139371      298.6876       0.1101287    
     34000   500.48585      1318.9879      1819.4738      62.700256      295.1922       0.11392124   
     35000   503.25117      1327.6901      1830.9413      27.358765      297.13977      0.1168956    
     36000   476.41614      1324.5263      1800.9425      7.5635269      296.43171      0.11829755   
     37000   493.3448       1327.8641      1821.2089      14.594001      297.17871      0.11953704   
     38000   484.45935      1340.0567      1824.516       53.116464      299.90744      0.1191214    
     39000   459.55769      1331.3717      1790.9294      111.66411      297.96373      0.11815283   
     40000   482.35378      1278.9193      1761.2731      121.1832       286.22477      0.11533476   
     41000   481.08997      1355.8805      1836.9705      164.29484      303.44884      0.11174491   
     42000   486.5762       1345.8185      1832.3947      135.00239      301.19694      0.10757446   
     43000   518.59731      1343.863       1862.4603      104.39028      300.7593       0.10787983   
     44000   485.55681      1310.3644      1795.9212      68.531886      293.26224      0.11179369   
     45000   472.49112      1291.7115      1764.2026      39.92511       289.08767      0.11756628   
     46000   496.45316      1312.4136      1808.8668      8.2009113      293.72086      0.11861234   
     47000   491.61767      1319.5893      1811.2069      38.899657      295.32679      0.11779909   
     48000   479.37249      1325.7133      1805.0857      97.597524      296.69735      0.11586573   
     49000   457.36173      1301.1958      1758.5575      145.58153      291.21029      0.11322897   
     50000   496.65447      1267.2397      1763.8942      156.89163      283.61084      0.11215759   
     51000   475.52632      1322.2682      1797.7946      156.9555       295.92635      0.11308186   
     52000   491.40688      1327.9377      1819.3446      138.15939      297.19518      0.11459441   
     53000   483.53053      1349.0162      1832.5468      114.51786      301.91261      0.11757771   
     54000   498.59476      1321.0846      1819.6793      72.688357      295.66144      0.11933859   
     55000   473.38156      1383.1207      1856.5023      108.57384      309.54525      0.11891278   
     56000   495.7665       1345.5002      1841.2667      131.91906      301.12572      0.11441497   
     57000   515.75009      1352.6379      1868.388       159.62133      302.72314      0.11048761   
     58000   498.48482      1368.7554      1867.2402      141.08208      306.33027      0.10861853   
     59000   508.66365      1405.3124      1913.976       137.43102      314.5118       0.10909872   
     60000   483.22987      1375.9799      1859.2098      95.442287      307.94712      0.11053729   
     61000   502.9761       1331.6602      1834.6363      77.255418      298.02829      0.11265557   
     62000   483.86634      1315.19        1799.0564      66.434948      294.34223      0.11460431   
     63000   482.79295      1335.7798      1818.5727      100.23951      298.95025      0.11801448   
     64000   466.82222      1325.0236      1791.8459      135.79572      296.54301      0.11936061   
     65000   483.0932       1273.9143      1757.0074      125.29166      285.10462      0.11699979   
     66000   464.52844      1318.6478      1783.1763      130.17657      295.11609      0.11174375   
     67000   496.10852      1310.1916      1806.3001      101.87606      293.22357      0.10893594   
     68000   490.77307      1328.1663      1818.9394      96.16389       297.24635      0.10878922   
     69000   504.06413      1354.0865      1858.1506      37.983452      303.04734      0.10961101   
     70000   491.79615      1390.8247      1882.6208      56.489494      311.26942      0.11187305   
     71000   519.34745      1392.0895      1911.4369      86.511915      311.55248      0.1137387    
     72000   477.1927       1351.5995      1828.7922      105.57422      302.49074      0.11509713   
     73000   509.90821      1316.3266      1826.2348      129.30801      294.59659      0.11735635   
     74000   478.03726      1322.8223      1800.8596      138.97485      296.05036      0.12012893   
     75000   443.43808      1318.7109      1762.149       128.20312      295.13022      0.12136626   
     76000   492.26846      1317.9879      1810.2563      73.597026      294.96839      0.11852409   
     77000   490.43567      1319.1737      1809.6094      71.931733      295.23378      0.1126388    
     78000   503.48543      1331.6794      1835.1648      105.17365      298.03259      0.10957474   
     79000   518.59929      1310.0626      1828.6619      96.724329      293.1947       0.1079431    
     80000   524.44723      1333.6061      1858.0534      132.11775      298.46379      0.10758365   
     81000   514.91913      1337.0882      1852.0073      148.11815      299.24308      0.10652955   
     82000   502.52682      1349.903       1852.4298      132.62367      302.11105      0.10542633   
     83000   475.22501      1362.3438      1837.5688      111.56402      304.89534      0.10625      
     84000   497.3691       1360.3616      1857.7307      91.307699      304.45171      0.10984642   
     85000   490.90815      1293.5597      1784.4679      94.670006      289.50133      0.11574793   
     86000   472.89133      1315.0333      1787.9246      123.71463      294.30715      0.11863788   
     87000   446.49132      1333.0114      1779.5028      104.42336      298.3307       0.11719661   
     88000   490.32739      1314.5337      1804.8611      87.673049      294.19534      0.11438447   
     89000   478.4482       1331.3366      1809.7848      79.006674      297.95586      0.11135014   
     90000   497.63972      1344.8811      1842.5209      60.935956      300.98716      0.10934772   
     91000   508.10175      1371.1007      1879.2025      86.045005      306.85515      0.10892961   
     92000   494.66562      1351.7709      1846.4366      92.121488      302.52911      0.10853797   
     93000   478.0352       1340.8935      1818.9287      97.038309      300.09472      0.10836233   
     94000   506.30127      1343.5599      1849.8612      125.46905      300.69147      0.11070248   
     95000   484.46562      1386.6043      1871.0699      160.39275      310.32489      0.11500786   
     96000   479.45435      1366.0381      1845.4924      117.19901      305.72213      0.11643119   
     97000   488.02511      1361.0359      1849.061       113.67942      304.60263      0.11591605   
     98000   483.69551      1369.9187      1853.6142      79.489116      306.59062      0.11346413   
     99000   501.22321      1361.4127      1862.6359      50.360014      304.68695      0.10884184   
    100000   521.68429      1359.38        1881.0643      42.836115      304.23203      0.10638978   
    101000   512.49139      1352.5592      1865.0506      61.662464      302.70553      0.10694722   
    102000   502.00601      1383.4775      1885.4835      74.529202      309.62511      0.1076944    
    103000   507.4046       1357.0196      1864.4242      103.58174      303.70377      0.1084449    
    104000   504.4123       1332.6794      1837.0917      113.78964      298.25638      0.10875404   
    105000   483.79952      1327.6421      1811.4417      107.56696      297.12904      0.10848282   
    106000   507.36638      1317.5656      1824.932       96.188463      294.87389      0.10807259   
    107000   477.56414      1345.6284      1823.1925      93.000867      301.1544       0.10866691   
    108000   513.74589      1310.0211      1823.767       83.441598      293.18542      0.11128891   
    109000   492.52216      1337.8738      1830.3959      72.893731      299.4189       0.11404782   
    110000   500.23197      1355.2424      1855.4744      101.05659      303.30604      0.1153064    
    111000   500.52548      1363.0019      1863.5274      126.88998      305.04262      0.11383392   
    112000   525.22276      1438.528       1963.7508      125.69629      321.94552      0.11080451   
    113000   507.52478      1370.8811      1878.4058      115.06063      306.806        0.10884629   
    114000   500.28417      1349.4015      1849.6856      96.075444      301.99882      0.10928797   
    115000   524.00658      1353.2154      1877.222       84.856191      302.85239      0.11369234   
    116000   489.11759      1401.8846      1891.0022      143.7368       313.74466      0.1190033    
    117000   492.25371      1385.4516      1877.7053      142.72126      310.0669       0.1197461    
    118000   505.47291      1347.396       1852.8689      117.80487      301.54999      0.11784189   
    119000   481.92443      1360.4487      1842.3731      93.2632        304.47121      0.11570727   
    120000   484.50483      1384.2113      1868.7162      97.154899      309.78934      0.11477631   
    121000   518.47422      1394.622       1913.0963      119.49133      312.11927      0.11440535   
    122000   518.37349      1384.6531      1903.0266      154.81388      309.8882       0.11510234   
    123000   489.04525      1328.3145      1817.3597      170.41265      297.2795       0.11905344   
    124000   475.40405      1324.2576      1799.6617      147.4707       296.37158      0.12324602   
    125000   484.18142      1349.5864      1833.7678      96.696058      302.04021      0.12395197   
    126000   499.93982      1320.3952      1820.335       60.646556      295.50715      0.12106839   
    127000   488.81365      1327.652       1816.4657      21.189784      297.13125      0.11499183   
    128000   519.34886      1351.0247      1870.3736      39.218632      302.36211      0.11141308   
    129000   490.56754      1302.9869      1793.5545      97.563777      291.61115      0.11152236   
    130000   483.91724      1326.6219      1810.5391      146.26071      296.9007       0.11346875   
    131000   493.53643      1334.4079      1827.9444      224.18072      298.64323      0.11636937   
    132000   480.03493      1340.1867      1820.2216      180.56624      299.93653      0.11774326   
    133000   475.00575      1350.4653      1825.471       131.11052      302.2369       0.11811723   
    134000   487.57815      1300.9102      1788.4883      20.274174      291.14637      0.1160308    
    135000   493.32544      1325.9278      1819.2533     -23.920455      296.74537      0.11240254   
    136000   502.89679      1339.337       1842.2338     -33.012321      299.74637      0.10943359   
    137000   512.176        1325.7067      1837.8827      6.5966269      296.69587      0.10901201   
    138000   505.83418      1367.5997      1873.4339      79.941856      306.07162      0.1101548    
    139000   491.87528      1372.0137      1863.889       178.67549      307.05948      0.11251224   
    140000   480.85522      1379.6696      1860.5248      242.85754      308.77288      0.11519765   
    141000   488.61355      1367.8688      1856.4823      206.085        306.13184      0.11590547   
    142000   471.74572      1377.3161      1849.0619      174.9453       308.24618      0.11685416   
    143000   471.28758      1385.2773      1856.5648      127.62808      310.02789      0.11687203   
    144000   498.65853      1354.303       1852.9615      72.75003       303.09579      0.11668292   
    145000   490.89104      1346.0422      1836.9333      70.061269      301.24701      0.11679642   
    146000   487.0392       1347.8113      1834.8505      71.847026      301.64294      0.11625155   
    147000   494.89188      1331.6033      1826.4952      109.9567       298.01555      0.11413536   
    148000   506.34738      1278.2352      1784.5826      100.77405      286.07167      0.11075726   
    149000   462.23649      1331.1466      1793.3831      123.38819      297.91334      0.11007897   
    150000   477.9907       1335.1832      1813.1738      122.22158      298.81673      0.1131618    
    151000   506.96823      1307.0675      1814.0357      145.07033      292.52438      0.11798479   
    152000   469.41373      1341.0866      1810.5004      161.0539       300.13794      0.11998243   
    153000   479.36997      1303.0437      1782.4137      144.36799      291.62386      0.11930546   
    154000   483.51684      1328.7551      1812.2719      125.19227      297.37811      0.11747191   
    155000   481.35158      1306.8337      1788.1852      66.940369      292.47206      0.11596022   
    156000   511.62226      1306.893       1818.5152      39.469314      292.48533      0.11555464   
    157000   480.27277      1317.8683      1798.1411      79.563849      294.94163      0.1155724    
    158000   472.24591      1309.3443      1781.5902      97.092281      293.03394      0.11488913   
    159000   475.37346      1286.4732      1761.8467      134.37467      287.91535      0.1154425    
    160000   467.41687      1317.2347      1784.6516      159.43664      294.79984      0.11700839   
    161000   469.80693      1335.4798      1805.2867      135.83135      298.88312      0.11876146   
    162000   479.25605      1350.7226      1829.9787      120.70012      302.2945       0.12361466   
    163000   457.0243       1359.5822      1816.6065      92.231565      304.27729      0.12933403   
    164000   463.72576      1375.6228      1839.3485      70.795398      307.8672       0.13178714   
    165000   469.68035      1386.5348      1856.2152      80.041572      310.30934      0.12843873   
    166000   509.98026      1366.3846      1876.3648      117.6739       305.79967      0.1228556    
    167000   516.35053      1366.0406      1882.3912      132.26395      305.7227       0.11901903   
    168000   489.69093      1361.0238      1850.7147      141.74396      304.59992      0.11722246   
    169000   495.67902      1358.3684      1854.0474      140.98723      304.00564      0.11652194   
    170000   494.26002      1344.2049      1838.465       63.045554      300.83582      0.1150403    
    171000   502.8735       1337.2207      1840.0942      50.0169        299.27273      0.11516112   
    172000   479.63043      1355.6758      1835.3062      53.154013      303.40303      0.11715482   
    173000   489.54605      1340.3671      1829.9131      46.2318        299.9769       0.1197976    
    174000   486.47486      1300.4899      1786.9648      78.977375      291.05231      0.12189055   
    175000   466.81522      1333.0403      1799.8556      144.88363      298.33717      0.12433755   
    176000   478.80202      1285.4445      1764.2466      162.81293      287.68513      0.12464991   
    177000   481.30209      1278.0792      1759.3813      160.33457      286.03674      0.12351512   
    178000   466.86392      1352.7997      1819.6636      151.92464      302.75935      0.12038923   
    179000   480.90644      1358.1895      1839.0959      106.16944      303.9656       0.11616741   
    180000   484.45635      1364.6883      1849.1446      83.056726      305.42003      0.11358018   
    181000   502.76262      1371.1515      1873.9141      57.023698      306.86652      0.11386551   
    182000   464.41922      1339.6689      1804.0881      62.418222      299.82064      0.11697113   
    183000   461.15592      1321.0359      1782.1918      52.531448      295.65055      0.12014457   
    184000   485.94721      1307.5284      1793.4756      62.742988      292.62754      0.12096845   
    185000   490.37311      1331.0868      1821.4599      40.276354      297.89996      0.11904174   
    186000   490.1743       1324.6394      1814.8137      46.064496      296.45702      0.11696893   
    187000   488.2475       1284.3936      1772.6411      69.655997      287.44993      0.11484444   
    188000   474.11439      1300.5063      1774.6207      94.678287      291.05599      0.11377254   
    189000   486.92253      1307.9444      1794.8669      122.09189      292.72064      0.11496222   
    190000   489.91891      1323.8237      1813.7426      153.63145      296.27447      0.11763013   
    191000   479.3577       1340.9337      1820.2914      100.22504      300.10372      0.11969047   
    192000   499.52649      1319.8282      1819.3547      60.013618      295.38027      0.12221727   
    193000   500.38835      1319.6154      1820.0038      38.510874      295.33264      0.12627925   
    194000   454.56895      1316.2549      1770.8238      49.972086      294.58054      0.12803564   
    195000   488.55854      1380.6293      1869.1879      98.787663      308.98768      0.12444051   
    196000   475.33295      1404.5471      1879.8801      123.74234      314.34053      0.11851191   
    197000   502.79569      1350.997       1853.7927      148.01357      302.35591      0.11496795   
    198000   511.68002      1358.2727      1869.9528      167.61313      303.98423      0.11238249   
    199000   504.18002      1381.8863      1886.0663      156.15574      309.26899      0.11050279   
    200000   494.95105      1336.126       1831.0771      147.19511      299.02775      0.10997057   
    201000   494.99972      1344.9797      1839.9794      90.217328      301.00922      0.11189097   
    202000   478.40241      1339.31        1817.7124      46.941904      299.74033      0.11459359   
    203000   467.47154      1300.0253      1767.4968      6.3003531      290.94832      0.11655079   
    204000   459.84869      1309.8732      1769.7219      34.056234      293.1523       0.1211017    
    205000   478.59225      1323.0498      1801.6421      55.006758      296.10127      0.12355751   
    206000   482.91663      1332.5612      1815.4778      61.967866      298.22993      0.12127588   
    207000   481.92759      1346.4825      1828.4101      69.526478      301.34555      0.11426446   
    208000   495.79158      1380.5683      1876.3599      98.516309      308.97402      0.11086419   
    209000   489.75058      1361.3123      1851.0629      115.86538      304.66449      0.1106913    
    210000   494.1266       1355.546       1849.6726      133.43807      303.37397      0.11276239   
    211000   495.16401      1389.7504      1884.9144      115.85769      311.02899      0.11538255   
    212000   503.69123      1386.7472      1890.4385      104.085        310.35688      0.11674359   
    213000   486.642        1365.8384      1852.4804      89.45235       305.67743      0.11506858   
    214000   493.84799      1357.9653      1851.8133      105.26669      303.91541      0.11325965   
    215000   518.83069      1331.2871      1850.1178      106.10948      297.94478      0.11365662   
    216000   493.48826      1376.2558      1869.744       138.16901      308.00886      0.11894975   
    217000   468.23114      1364.0423      1832.2734      133.04639      305.27547      0.12395058   
    218000   481.2715       1351.7168      1832.9883      154.74472      302.51699      0.12505415   
    219000   477.44275      1342.6203      1820.0631      153.38331      300.48119      0.12333976   
    220000   486.40599      1299.7338      1786.1398      92.727415      290.88309      0.11898713   
    221000   467.12858      1333.2974      1800.4259      77.098742      298.39469      0.11557145   
    222000   509.30854      1322.3125      1831.621       39.247636      295.93625      0.11357395   
    223000   514.55523      1309.643       1824.1982      43.318816      293.10079      0.11255567   
    224000   476.68226      1339.8109      1816.4932      92.472894      299.85244      0.11336138   
    225000   478.85736      1393.6329      1872.4903      148.61004      311.89791      0.11672089   
    226000   493.81717      1381.1486      1874.9657      173.77958      309.10388      0.11880863   
    227000   483.11142      1378.6274      1861.7389      158.1051       308.53965      0.11864487   
    228000   492.42479      1348.8584      1841.2832      168.2694       301.87727      0.11806467   
    229000   482.16843      1345.594       1827.7625      141.73492      301.1467       0.11454793   
    230000   491.83807      1302.7249      1794.563       114.45397      291.55252      0.1060441    
    231000   501.73432      1316.151       1817.8853      104.23062      294.5573       0.10461229   
    232000   514.14116      1303.3724      1817.5136      75.345058      291.69742      0.10717638   
    233000   477.17709      1340.9066      1818.0837      52.377002      300.09766      0.11100273   
    234000   468.6741       1369.0376      1837.7117      55.236674      306.39343      0.11424155   
    235000   478.65273      1350.0025      1828.6553      106.2879       302.13334      0.11591429   
    236000   470.43807      1365.6117      1836.0498      113.3216       305.6267       0.11471475   
    237000   470.60782      1344.4307      1815.0385      125.58467      300.88636      0.11471861   
    238000   498.81457      1351.2714      1850.086       122.71715      302.41732      0.11634052   
    239000   513.54752      1337.3429      1850.8904      92.799792      299.30009      0.11745826   
    240000   459.33049      1362.3274      1821.6579      102.19057      304.89167      0.11953855   
    241000   484.55778      1360.4382      1844.996       112.61293      304.46886      0.12260828   
    242000   464.92763      1347.4293      1812.357       170.14718      301.55745      0.12459525   
    243000   464.29405      1372.5617      1836.8557      188.58097      307.18212      0.12316468   
    244000   497.54553      1401.7578      1899.3034      203.16655      313.71628      0.11889061   
    245000   510.67281      1323.7339      1834.4067      158.36389      296.25436      0.11432573   
    246000   512.13214      1364.6564      1876.7885      155.71009      305.4129       0.11330668   
    247000   482.26127      1396.1923      1878.4535      146.62735      312.47069      0.1141425    
    248000   475.1071       1338.934       1814.0411      136.35144      299.65618      0.11701952   
    249000   461.17537      1318.9833      1780.1587      134.52444      295.19118      0.11990267   
    250000   484.05122      1322.7034      1806.7546      122.37831      296.02374      0.11999859   
    251000   494.57653      1304.6961      1799.2726      96.044727      291.99366      0.11844676   
    252000   487.91938      1302.5654      1790.4848      111.87194      291.51681      0.11758582   
    253000   472.83102      1293.9109      1766.7419      87.374288      289.57992      0.11680776   
    254000   475.64335      1304.1827      1779.8261      89.674366      291.87877      0.11518245   
    255000   512.46383      1339.5758      1852.0396      97.727226      299.7998       0.11363537   
    256000   488.8587       1328.8654      1817.7241      109.16334      297.40281      0.11254235   
    257000   501.61431      1338.8846      1840.499       146.52002      299.64513      0.11328614   
    258000   517.54186      1340.6693      1858.2111      146.71489      300.04453      0.1170989    
    259000   516.95759      1343.0928      1860.0503      167.58057      300.58692      0.12280032   
    260000   495.07854      1369.3178      1864.3963      150.80986      306.45612      0.12380183   
    261000   470.61453      1380.605       1851.2196      123.82893      308.98224      0.12209923   
    262000   488.87338      1357.0803      1845.9537      101.28189      303.71736      0.12002339   
    263000   482.13649      1353.1776      1835.3141      64.514441      302.84392      0.11634814   
    264000   477.87581      1339.8024      1817.6782      50.475955      299.85052      0.11289043   
    265000   476.72461      1296.735       1773.4596      52.591884      290.21195      0.1114675    
    266000   480.59058      1324.7271      1805.3177      55.916403      296.47665      0.11218008   
    267000   472.44381      1321.6115      1794.0553      70.044899      295.77936      0.11388601   
    268000   493.78738      1345.028       1838.8154      53.748179      301.02003      0.11517885   
    269000   525.92654      1355.1524      1881.079       51.20864       303.28589      0.11818723   
    270000   488.76523      1341.4808      1830.246       75.784436      300.22616      0.1225888    
    271000   468.74301      1377.899       1846.642       96.668875      308.37663      0.12478729   
    272000   470.57673      1355.764       1826.3407      119.69744      303.42276      0.12287165   
    273000   501.97609      1347.8757      1849.8517      110.42996      301.65734      0.11859649   
    274000   493.54405      1339.8649      1833.409       84.466849      299.86452      0.11356348   
    275000   483.59206      1360.9529      1844.545       85.018379      304.58406      0.11153337   
    276000   500.58223      1372.6817      1873.2639      81.375303      307.20898      0.11195249   
    277000   471.07812      1354.9836      1826.0617      143.32958      303.24811      0.11528268   
    278000   492.3889       1354.0561      1846.445       126.99766      303.04053      0.1182607    
    279000   485.67439      1348.9197      1834.5941      138.22732      301.89099      0.11985785   
    280000   495.61336      1424.599       1920.2124      129.93005      318.82819      0.119104     
    281000   472.50405      1388.566       1861.07        135.82862      310.76392      0.11725089   
    282000   504.66214      1337.7465      1842.4087      115.07896      299.39042      0.11634264   
    283000   490.51814      1354.4384      1844.9566      94.28422       303.1261       0.11747911   
    284000   492.18108      1350.1278      1842.3089      93.032327      302.16137      0.11971734   
    285000   487.48901      1351.7065      1839.1955      108.36419      302.51468      0.12308704   
    286000   481.00518      1345.0886      1826.0937      96.048931      301.03358      0.12405265   
    287000   506.46655      1352.5436      1859.0101      98.167842      302.70203      0.11995133   
    288000   491.46664      1342.5752      1834.0418      99.72296       300.47108      0.11492223   
    289000   489.78918      1327.8128      1817.602       124.30818      297.16724      0.11263369   
    290000   486.21628      1326.3411      1812.5574      145.5315       296.83786      0.11110302   
    291000   472.09355      1302.3516      1774.4451      109.45124      291.46896      0.10999896   
    292000   502.97269      1297.2428      1800.2155      90.271569      290.3256       0.11141894   
    293000   489.74116      1313.0468      1802.7879      39.817827      293.86256      0.11332068   
    294000   481.49894      1319.3161      1800.815       41.645292      295.26565      0.11593512   
    295000   485.60416      1325.7448      1811.3489      70.819851      296.7044       0.12181513   
    296000   467.44572      1327.8398      1795.2855      137.4971       297.17328      0.12863749   
    297000   461.92448      1346.185       1808.1094      177.16227      301.27896      0.12942682   
    298000   468.25131      1317.9087      1786.16        150.1608       294.95068      0.12521072   
    299000   486.2079       1330.7626      1816.9705      161.1517       297.82741      0.12159674   
    300000   470.26611      1322.6474      1792.9136      148.3827       296.01121      0.11825679   
    301000   466.69937      1330.0018      1796.7011      148.19018      297.65712      0.11653548   
    302000   509.63448      1341.6123      1851.2468      134.38062      300.25558      0.11648734   
    303000   504.97317      1377.8654      1882.8386      90.784434      308.36911      0.11818582   
    304000   480.83751      1373.1922      1854.0297      49.461539      307.32324      0.12065525   
    305000   508.96195      1334.853       1843.8149      23.203376      298.74283      0.12191839   
    306000   482.48842      1359.6673      1842.1557      30.956024      304.29633      0.12182373   
    307000   489.75001      1373.2355      1862.9855      77.103089      307.33292      0.12064649   
    308000   485.31083      1343.6916      1829.0025      124.95667      300.72095      0.11722963   
    309000   497.63933      1322.4122      1820.0515      130.91848      295.95857      0.11435225   
    310000   513.86502      1306.8946      1820.7596      155.59419      292.4857       0.11387185   
    311000   480.32403      1347.3223      1827.6463      123.24008      301.5335       0.11287144   
    312000   494.0351       1305.4984      1799.5335      91.789959      292.17322      0.11176289   
    313000   513.08037      1321.74        1834.8203      79.560338      295.80812      0.11225317   
    314000   467.30557      1339.9503      1807.2559      83.023935      299.88363      0.11423295   
    315000   493.38298      1327.2135      1820.5965      118.11768      297.0331       0.1164069    
    316000   473.77737      1344.8663      1818.6437      109.2279       300.98383      0.11650875   
    317000   496.65194      1332.8908      1829.5428      150.2319       298.3037       0.11601096   
    318000   512.47906      1380.4789      1892.958       139.37671      308.95402      0.11411      
    319000   475.962        1386.0481      1862.0101      138.88982      310.2004       0.1131462    
    320000   505.93332      1369.376       1875.3094      124.60219      306.46917      0.11515672   
    321000   484.77307      1358.9999      1843.773       145.18971      304.14697      0.11965142   
    322000   470.26718      1380.7847      1851.0518      159.0215       309.02244      0.12364807   
    323000   474.0277       1411.0747      1885.1024      155.782        315.80141      0.12533392   
    324000   467.819        1384.1896      1852.0086      152.30724      309.78447      0.1246101    
    325000   493.62079      1350.4034      1844.0242      123.46155      302.22306      0.12174226   
    326000   519.61595      1399.5856      1919.2015      82.186971      313.23013      0.11792472   
    327000   496.65338      1369.1065      1865.7599      41.05926       306.40884      0.11483883   
    328000   514.18952      1341.9984      1856.1879      40.255582      300.34199      0.11449843   
    329000   482.90564      1365.6559      1848.5615      75.686101      305.63659      0.11491326   
    330000   469.09493      1365.349       1834.4439      88.096865      305.5679       0.11673714   
    331000   479.54196      1393.2241      1872.766       110.15929      311.80641      0.12060164   
    332000   499.15941      1346.8596      1846.019       92.014683      301.42993      0.12267505   
    333000   490.26962      1354.5277      1844.7973      129.88595      303.14608      0.12348616   
    334000   482.57685      1355.3435      1837.9204      157.84829      303.32866      0.1208779    
    335000   478.52426      1346.5494      1825.0736      162.53983      301.36051      0.11607018   
    336000   526.31639      1362.3992      1888.7156      158.40353      304.90775      0.11310079   
    337000   489.5824       1346.6023      1836.1847      163.27172      301.37236      0.11212383   
    338000   466.20541      1355.4597      1821.6652      130.93477      303.35467      0.11286198   
    339000   483.76053      1355.5343      1839.2948      79.900334      303.37135      0.11491238   
    340000   476.65128      1357.1746      1833.8258      23.186069      303.73845      0.11701857   
    341000   496.74436      1352.5058      1849.2501      11.885229      302.69356      0.11869496   
    342000   492.8505       1316.1782      1809.0287      47.612265      294.56337      0.11999331   
    343000   472.60755      1352.3499      1824.9574      91.324186      302.65868      0.11922727   
    344000   488.64763      1333.4357      1822.0833      142.54082      298.42564      0.11691022   
    345000   495.97619      1295.3352      1791.3113      106.97194      289.89867      0.11180026   
    346000   500.98796      1286.451       1787.439       109.94136      287.91038      0.11011492   
    347000   460.25626      1329.1281      1789.3843      128.9974       297.4616       0.11269128   
    348000   451.87057      1347.7907      1799.6613      98.795574      301.63833      0.1156734    
    349000   489.14341      1310.0143      1799.1577      52.492848      293.18389      0.11754014   
    350000   482.86773      1281.4406      1764.3084      24.803311      286.78905      0.11810443   
    351000   462.84114      1315.6344      1778.4756      42.428668      294.44168      0.11874611   
    352000   466.35477      1327.6823      1794.0371      47.167896      297.13803      0.11938812   
    353000   488.33257      1314.7058      1803.0384      58.446176      294.23386      0.11877584   
    354000   474.70628      1323.2314      1797.9377      81.274616      296.14191      0.11727517   
    355000   475.65804      1328.8183      1804.4763      105.65102      297.39225      0.11773155   
    356000   493.00234      1283.6001      1776.6025      128.11252      287.27234      0.118094     
    357000   493.29602      1350.4321      1843.7281      115.80649      302.22948      0.11672599   
    358000   490.92641      1350.9229      1841.8493      121.63434      302.33931      0.11528365   
    359000   497.84464      1364.5229      1862.3676      95.874111      305.38303      0.1135764    
    360000   499.8825       1346.5497      1846.4322      56.848749      301.36059      0.11273089   
    361000   500.23955      1358.1333      1858.3728      97.736858      303.95301      0.11320083   
    362000   487.74252      1419.2048      1906.9473      124.84216      317.62094      0.11455548   
    363000   476.36858      1390.5691      1866.9377      199.24188      311.21223      0.11798871   
    364000   501.758        1375.44        1877.198       219.54483      307.8263       0.12270334   
    365000   479.79136      1361.2327      1841.024       176.50633      304.64667      0.12461297   
    366000   472.21333      1350.179       1822.3924      165.76681      302.17284      0.12503353   
    367000   472.91508      1327.1193      1800.0344      132.56204      297.01203      0.12391469   
    368000   490.51934      1314.2035      1804.7229      113.01655      294.12145      0.11950201   
    369000   483.16648      1336.9749      1820.1414      108.46847      299.21772      0.11389124   
    370000   480.39103      1346.5749      1826.966       89.02617       301.36623      0.11075176   
    371000   492.17124      1293.62        1785.7913      86.618761      289.51482      0.11127968   
    372000   494.28019      1324.7963      1819.0765      72.441876      296.49214      0.11393561   
    373000   493.70839      1309.447       1803.1554      46.365004      293.05693      0.11813802   
    374000   467.7626       1349.0984      1816.861       35.16104       301.93098      0.12156797   
    375000   495.77495      1325.8807      1821.6556      36.876906      296.73482      0.12260687   
    376000   453.46259      1283.3276      1736.7902      30.92041       287.21136      0.12085178   
    377000   485.15806      1297.262       1782.4201      43.804012      290.32991      0.11900184   
    378000   505.56975      1318.7049      1824.2746      53.456163      295.12886      0.11832095   
    379000   491.36455      1318.9177      1810.2822      54.992998      295.17649      0.11704141   
    380000   479.47142      1306.1885      1785.66        48.814127      292.32768      0.11618078   
    381000   492.23726      1335.4476      1827.6849      57.265091      298.87592      0.11628897   
    382000   479.6311       1316.054       1795.6851      97.843348      294.53559      0.11744667   
    383000   463.2846       1361.6917      1824.9763      120.9078       304.7494       0.12017737   
    384000   508.51288      1381.0836      1889.5965      144.08235      309.08935      0.12250232   
    385000   509.35595      1366.93        1876.286       145.67221      305.92174      0.122772     
    386000   504.02672      1338.7333      1842.76        101.54699      299.61127      0.12155487   
    387000   502.14009      1321.8575      1823.9976      94.774908      295.83442      0.11814774   
    388000   522.56501      1301.7034      1824.2684      44.532999      291.32389      0.11367282   
    389000   514.42225      1330.8467      1845.2689      16.973937      297.84622      0.11113246   
    390000   504.85984      1369.1282      1873.9881      33.193071      306.4137       0.11195076   
    391000   507.33236      1344.7666      1852.0989      45.20073       300.96152      0.11506797   
    392000   507.21397      1338.5795      1845.7934      74.465577      299.57683      0.11905916   
    393000   485.02872      1389.5218      1874.5505      87.367333      310.97783      0.12169413   
    394000   498.3469       1352.074       1850.4209      92.752688      302.59694      0.12293947   
    395000   483.42713      1358.9762      1842.4034      113.37413      304.14167      0.12122118   
    396000   489.46229      1412.3873      1901.8496      156.8515       316.09517      0.11789212   
    397000   501.12445      1360.511       1861.6355      183.68481      304.48516      0.11586975   
    398000   480.32503      1339.8137      1820.1388      211.30663      299.85306      0.11485057   
    399000   515.26675      1326.4147      1841.6814      179.69729      296.85433      0.11429561   
    400000   476.2868       1339.0366      1815.3234      156.40469      299.67914      0.11268117   
Loop time of 2680.25 on 8 procs for 400000 steps with 1500 atoms

Performance: 6.447 ns/day, 3.723 hours/ns, 149.240 timesteps/s, 223.860 katom-step/s
99.3% CPU use with 8 MPI tasks x 1 OpenMP threads

MPI task timing breakdown:
Section |  min time  |  avg time  |  max time  |%varavg| %total
---------------------------------------------------------------
Pair    | 53.806     | 58.092     | 61.752     |  29.1 |  2.17
Bond    | 4.3056     | 4.5442     | 4.715      |   5.4 |  0.17
Kspace  | 1219       | 1223       | 1227.5     |   6.8 | 45.63
Neigh   | 1.0833     | 1.0847     | 1.0856     |   0.1 |  0.04
Comm    | 28.211     | 28.546     | 28.756     |   3.3 |  1.07
Output  | 0.018666   | 0.020633   | 0.034298   |   3.6 |  0.00
Modify  | 1209.6     | 1280.4     | 1352.3     | 149.4 | 47.77
Other   |            | 84.54      |            |       |  3.15

Nlocal:          187.5 ave         224 max         156 min
Histogram: 1 0 1 1 2 1 1 0 0 1
Nghost:        1350.75 ave        1379 max        1323 min
Histogram: 1 0 0 1 1 4 0 0 0 1
Neighs:        9732.38 ave       12739 max        6653 min
Histogram: 1 0 1 1 1 1 1 0 1 1

Total # of neighbors = 77859
Ave neighs/atom = 51.906
Ave special neighs/atom = 2
Neighbor list builds = 2538
Dangerous builds = 0
PPPM initialization ...
  using 12-bit tables for long-range coulomb (src/kspace.cpp:342)
  G vector (1/distance) = 0.26804
  grid = 54 54 54
  stencil order = 5
  estimated absolute RMS force accuracy = 0.00034565593
  estimated relative force accuracy = 1.0409326e-06
  using single precision FFTW3
  3d grid and FFT values/proc = 39304 20412
Generated 1 of 1 mixed pair_coeff terms from arithmetic mixing rule
Last active /omp style is kspace_style pppm/omp
Setting up Verlet run ...
  Unit style    : real
  Current step  : 0
  Time step     : 0.5
Per MPI rank memory allocation (min/avg/max) = 9.038 | 9.065 | 9.093 Mbytes
   Step         PotEng         KinEng         TotEng         Press           Temp        v_Density   
         0   476.28698      1339.0366      1815.3236      156.40489      299.67914      0.11268117   
      1000   492.51827      1318.9203      1811.4386      125.51688      295.17707      0.11229098   
      2000   484.28994      1318.5439      1802.8338      132.7559       295.09283      0.1115957    
      3000   496.741        1282.762       1779.503       113.33077      287.08476      0.11010841   
      4000   492.51959      1326.4777      1818.9973      68.101632      296.86843      0.10919791   
      5000   486.74108      1346.2369      1832.978       35.459711      301.29058      0.10944004   
      6000   511.74021      1282.6434      1794.3836      12.604124      287.05823      0.11028372   
      7000   498.98998      1309.7898      1808.7798      63.742799      293.13366      0.11194282   
      8000   477.80246      1299.6413      1777.4438      103.13801      290.8624       0.11538848   
      9000   473.37479      1339.3796      1812.7544      144.81418      299.7559       0.11777278   
     10000   470.64201      1292.0348      1762.6768      190.65309      289.16005      0.11826136   
     11000   492.37514      1309.2701      1801.6452      156.80545      293.01733      0.11467859   
     12000   506.66039      1379.1364      1885.7968      143.41535      308.65357      0.1085629    
     13000   518.16725      1410.6279      1928.7951      140.01397      315.70142      0.1070132    
     14000   512.55111      1353.6464      1866.1976      143.30621      302.94885      0.1073396    
     15000   485.32288      1369.6573      1854.9802      141.36956      306.53212      0.10746168   
     16000   512.64775      1333.3662      1846.014       80.707436      298.4101       0.10785046   
     17000   521.82938      1345.405       1867.2344      44.585484      301.1044       0.11068562   
     18000   486.74894      1353.8771      1840.626       17.494522      303.00047      0.11554116   
     19000   521.69532      1359.1771      1880.8724     -17.436552      304.18662      0.11791515   
     20000   510.08909      1339.7495      1849.8385      14.063393      299.83868      0.11788798   
     21000   504.13065      1358.6903      1862.8209      90.687278      304.07767      0.11697671   
     22000   493.34401      1342.5776      1835.9216      127.44655      300.47162      0.11457824   
     23000   466.05637      1315.1509      1781.2073      151.28512      294.33347      0.11268206   
     24000   507.13154      1310.2836      1817.4152      120.06473      293.24417      0.11184092   
     25000   486.57944      1327.7105      1814.29        123.04168      297.14434      0.11141625   
     26000   489.81004      1346.5941      1836.4041      110.48732      301.37052      0.11122665   
     27000   504.62809      1349.3676      1853.9957      118.41178      301.99124      0.11184902   
     28000   526.83906      1332.8399      1859.6789      133.1582       298.2923       0.1129774    
     29000   520.10929      1371.8094      1891.9187      158.00695      307.01376      0.11520452   
     30000   486.93718      1360.4161      1847.3533      117.17643      304.46392      0.11587848   
     31000   520.72729      1340.077       1860.8043      74.340787      299.91198      0.11566027   
     32000   514.53755      1349.4279      1863.9654      51.945508      302.00473      0.11406109   
     33000   501.42952      1338.0422      1839.4718      40.309876      299.4566       0.1106141    
     34000   518.4525       1314.5813      1833.0338      48.788513      294.20599      0.10842302   
     35000   487.24883      1359.6261      1846.875       94.629764      304.28712      0.10929287   
     36000   504.5633       1339.5286      1844.0919      124.90726      299.78925      0.11093139   
     37000   509.03304      1336.7275      1845.7606      160.47989      299.16237      0.11414093   
     38000   491.11284      1348.5033      1839.6162      184.85908      301.79782      0.11648706   
     39000   456.2045       1363.868       1820.0724      202.20325      305.23645      0.11830395   
     40000   493.93774      1348.6801      1842.6179      133.90321      301.83739      0.11961182   
     41000   484.89543      1375.9433      1860.8387      79.453042      307.93893      0.11825059   
     42000   476.08232      1351.4939      1827.5762      17.956272      302.46711      0.11307864   
     43000   507.62528      1321.4279      1829.0531     -16.500908      295.73827      0.10956776   
     44000   498.37999      1335.4102      1833.7902      36.811419      298.86754      0.10985228   
     45000   475.8702       1360.6105      1836.4807      98.437512      304.50742      0.11185049   
     46000   492.37283      1346.8783      1839.2511      164.33188      301.43412      0.11444773   
     47000   508.6743       1324.3501      1833.0244      155.224        296.39227      0.11489197   
     48000   522.36128      1334.3426      1856.7039      85.264771      298.62861      0.11413674   
     49000   500.2553       1364.9442      1865.1995      49.346703      305.47731      0.11419982   
     50000   490.82909      1333.666       1824.4951      44.011547      298.47719      0.11571673   
     51000   499.68175      1328.0372      1827.719       96.545453      297.21745      0.11780324   
     52000   492.12518      1327.7251      1819.8503      128.9804       297.1476       0.11804211   
     53000   472.65226      1323.7272      1796.3794      161.99822      296.25286      0.11727848   
     54000   505.79265      1317.92        1823.7127      141.03053      294.95321      0.11476468   
     55000   500.4242       1295.7016      1796.1258      94.170721      289.98067      0.11136314   
     56000   485.41401      1316.1707      1801.5847      51.759207      294.56171      0.10894727   
     57000   498.31393      1329.6288      1827.9427      25.005351      297.57365      0.10832295   
     58000   500.57449      1315.1957      1815.7702      38.495656      294.3435       0.1097361    
     59000   479.84214      1330.2436      1810.0857      76.849196      297.71124      0.11406285   
     60000   476.46608      1325.7235      1802.1895      67.986065      296.69963      0.11914866   
     61000   465.19526      1311.1099      1776.3052      117.56284      293.42908      0.12169451   
     62000   457.44514      1362.1697      1819.6148      154.37643      304.85637      0.1205016    
     63000   494.80627      1359.3707      1854.177       177.45294      304.22996      0.11740758   
     64000   508.31507      1358.9236      1867.2387      151.9086       304.12989      0.1144311    
     65000   510.59863      1362.417       1873.0156      132.60173      304.91172      0.11342814   
     66000   511.44387      1348.3815      1859.8254      103.26454      301.77055      0.11326043   
     67000   491.63817      1357.7794      1849.4176      83.826756      303.87382      0.11363117   
     68000   490.90926      1299.8794      1790.7887      88.618251      290.91568      0.1131815    
     69000   482.96091      1326.5562      1809.5171      103.20679      296.88601      0.1114896    
     70000   508.11829      1330.017       1838.1352      89.390604      297.66052      0.10924865   
     71000   513.32951      1346.591       1859.9205      84.59296       301.36983      0.10657983   
     72000   507.24703      1365.3648      1872.6118      77.626126      305.57143      0.10512716   
     73000   516.63731      1395.3002      1911.9375      103.2285       312.27105      0.10740624   
     74000   508.61201      1328.2145      1836.8265      137.51469      297.25713      0.11366072   
     75000   512.85113      1329.9845      1842.8357      140.38137      297.65327      0.11757987   
     76000   464.89938      1362.2431      1827.1425      123.95625      304.87281      0.11825425   
     77000   488.62415      1328.1249      1816.7491      99.896925      297.23709      0.11832505   
     78000   475.89997      1336.6006      1812.5006      77.3975        299.13397      0.11631667   
     79000   477.20488      1356.9265      1834.1314      42.902879      303.68293      0.1144903    
     80000   494.66103      1352.3389      1846.9999      54.024914      302.65622      0.11508677   
     81000   483.25632      1336.7585      1820.0148      86.55249       299.16929      0.11843954   
     82000   467.16024      1352.8909      1820.0512      114.03584      302.77976      0.12402299   
     83000   475.22827      1382.0314      1857.2597      152.30248      309.30147      0.12715573   
     84000   493.80941      1325.5707      1819.3801      114.78674      296.66545      0.12607228   
     85000   494.22526      1316.2137      1810.439       79.441189      294.57133      0.12244457   
     86000   469.73142      1321.0284      1790.7598      132.04879      295.64887      0.12097187   
     87000   502.10094      1321.9744      1824.0753      147.80599      295.86058      0.11849518   
     88000   498.27244      1335.4768      1833.7492      174.68646      298.88245      0.11619278   
     89000   516.66589      1368.736       1885.4019      176.69649      306.32593      0.11492575   
     90000   506.14156      1351.4914      1857.633       116.25384      302.46655      0.114191     
     91000   514.87659      1324.6766      1839.5532      39.510603      296.46533      0.1146074    
     92000   488.92803      1312.9957      1801.9237      33.748571      293.85113      0.11722757   
     93000   452.455        1353.6967      1806.1517      65.774129      302.96009      0.12012619   
     94000   490.92698      1335.9196      1826.8466      91.961607      298.98155      0.12212822   
     95000   500.0554       1352.1308      1852.1862      117.51098      302.60965      0.12168221   
     96000   488.50042      1375.2038      1863.7042      131.04055      307.77343      0.11615396   
     97000   507.12987      1355.8728      1863.0026      116.62735      303.44711      0.11092623   
     98000   502.47697      1363.4492      1865.9262      117.56181      305.14274      0.10815765   
     99000   505.80168      1333.8324      1839.6341      117.54552      298.51444      0.10775818   
    100000   499.89673      1357.7727      1857.6694      113.13364      303.87231      0.10922257   
    101000   505.38649      1365.9595      1871.346       98.220083      305.70454      0.1122885    
    102000   505.4089       1339.0907      1844.4996      70.19808       299.69124      0.11500406   
    103000   515.54943      1376.0442      1891.5937      49.814718      307.96153      0.11594539   
    104000   501.92554      1360.949       1862.8746      67.444436      304.58319      0.11427245   
    105000   517.22401      1339.9332      1857.1572      88.768551      299.87981      0.11088496   
    106000   504.25196      1357.5539      1861.8059      119.54255      303.82336      0.10900884   
    107000   495.87059      1345.6234      1841.4939      129.1669       301.15327      0.10933038   
    108000   485.62786      1390.9157      1876.5435      132.60821      311.28978      0.11359383   
    109000   488.76952      1356.6106      1845.3802      83.713628      303.61224      0.11880166   
    110000   454.66052      1362.6878      1817.3483      68.631938      304.97233      0.12181493   
    111000   472.8667       1392.4336      1865.3003      71.270306      311.62951      0.12187343   
    112000   497.72283      1337.0325      1834.7554      60.450902      299.23062      0.11996504   
    113000   501.59173      1351.8485      1853.4403      59.098299      302.54648      0.11773826   
    114000   476.00061      1356.8952      1832.8958      97.058044      303.67593      0.11649921   
    115000   495.79537      1340.2498      1836.0451      143.8927       299.95065      0.11421407   
    116000   513.59084      1337.7631      1851.354       157.12739      299.39413      0.10988453   
    117000   506.06123      1322.0181      1828.0793      154.04531      295.87036      0.10469582   
    118000   479.10577      1354.1624      1833.2681      124.87338      303.06431      0.1030979    
    119000   510.26092      1324.5634      1834.8243      91.569245      296.44         0.10614817   
    120000   479.66152      1333.9855      1813.647       58.14074       298.54869      0.11013411   
    121000   486.73992      1331.4045      1818.1444      81.36948       297.97107      0.11300486   
    122000   494.55264      1323.7539      1818.3066      107.50381      296.25885      0.11522124   
    123000   518.95445      1314.5265      1833.481       151.45755      294.19374      0.11727025   
    124000   469.32492      1301.697       1771.022       186.22171      291.32247      0.1174415    
    125000   487.24914      1314.5612      1801.8103      154.01103      294.2015       0.1164836    
    126000   500.74938      1309.8673      1810.6167      100.19561      293.151        0.11500254   
    127000   480.81518      1329.0921      1809.9073      44.113368      297.45355      0.11159553   
    128000   493.03429      1314.2488      1807.2831      11.983848      294.13158      0.10699339   
    129000   522.363        1339.1458      1861.5088      10.621776      299.70358      0.10615815   
    130000   504.73854      1371.1798      1875.9184      39.889207      306.87286      0.10908322   
    131000   518.41593      1354.4593      1872.8753      67.138333      303.13078      0.11120346   
    132000   515.56877      1343.8928      1859.4616      113.26826      300.76597      0.11312235   
    133000   490.08602      1345.4514      1835.5374      135.642        301.11479      0.11561366   
    134000   480.40225      1295.2013      1775.6035      126.34188      289.86871      0.11791003   
    135000   478.34639      1301.4512      1779.7976      109.3272       291.26745      0.11903332   
    136000   496.93527      1334.3014      1831.2366      68.2143        298.61939      0.11807422   
    137000   490.4308       1331.6706      1822.1014      43.899735      298.03061      0.11575539   
    138000   492.67444      1285.3591      1778.0335      35.351486      287.666        0.11282202   
    139000   475.49948      1323.7339      1799.2333      49.715442      296.25436      0.10985412   
    140000   513.61763      1282.2373      1795.8549      75.330774      286.96733      0.10759399   
    141000   514.70429      1333.0066      1847.7109      81.25593       298.32962      0.10475231   
    142000   486.78316      1348.0159      1834.7991      114.77293      301.68874      0.10566694   
    143000   502.65727      1344.8692      1847.5265      78.32582       300.98449      0.11058436   
    144000   474.4525       1298.735       1773.1875      66.064         290.65956      0.11527604   
    145000   490.03832      1324.3076      1814.3459      53.731044      296.38276      0.1167881    
    146000   485.39077      1312.6614      1798.0521      81.631355      293.77631      0.11664756   
    147000   486.21596      1317.8883      1804.1042      100.6101       294.9461       0.11624531   
    148000   486.92336      1288.8578      1775.7812      126.80204      288.44902      0.11739105   
    149000   492.7634       1300.3677      1793.1311      132.04642      291.02497      0.12033771   
    150000   454.46001      1327.6754      1782.1354      152.00263      297.13648      0.12482529   
    151000   450.98688      1308.1603      1759.1472      116.35985      292.76896      0.12618498   
    152000   463.5074       1308.9694      1772.4768      94.731369      292.95004      0.12437766   
    153000   502.32293      1360.4914      1862.8143      74.382062      304.48077      0.12034903   
    154000   491.76916      1390.8413      1882.6104      68.221691      311.27313      0.11736902   
    155000   502.15733      1356.5458      1858.7031      92.512876      303.59773      0.11644424   
    156000   491.75396      1335.7746      1827.5285      105.427        298.94909      0.11583067   
    157000   475.78887      1355.3406      1831.1294      152.54898      303.328        0.11502507   
    158000   493.21117      1347.9676      1841.1788      146.31221      301.67792      0.11272173   
    159000   504.56104      1334.4752      1839.0362      136.70897      298.65828      0.11053923   
    160000   514.41456      1376.2316      1890.6461      92.122183      308.00345      0.10888878   
    161000   515.65755      1339.9508      1855.6083      44.35231       299.88374      0.11074401   
    162000   456.35012      1322.7666      1779.1167      34.163802      296.03787      0.11688553   
    163000   500.64568      1304.1409      1804.7866      33.210442      291.86941      0.12109409   
    164000   479.7955       1310.6964      1790.4919      20.751808      293.33655      0.12061826   
    165000   501.15867      1321.8448      1823.0034      61.25989       295.83157      0.11849069   
    166000   477.57712      1338.8136      1816.3908      115.11818      299.62924      0.11466218   
    167000   482.55318      1313.1225      1795.6756      142.95873      293.8795       0.11266205   
    168000   496.21712      1339.5426      1835.7597      136.54077      299.79238      0.11196975   
    169000   490.00271      1349.6771      1839.6798      147.15389      302.06051      0.11225497   
    170000   503.46699      1343.9308      1847.3978      146.9494       300.77447      0.11222564   
    171000   498.22355      1343.1683      1841.3919      115.2907       300.60383      0.11105795   
    172000   484.32196      1371.4472      1855.7692      117.52832      306.9327       0.11043578   
    173000   520.39757      1390.6708      1911.0684      85.891456      311.23499      0.11108369   
    174000   509.77453      1340.4054      1850.1799      54.699028      299.98547      0.11313903   
    175000   490.17546      1372.3211      1862.4965      70.601067      307.12827      0.11752915   
    176000   467.56096      1370.8805      1838.4414      75.928939      306.80586      0.12016623   
    177000   503.68577      1375.6138      1879.2996      84.427849      307.86519      0.12149436   
    178000   476.51686      1356.5604      1833.0772      113.97586      303.601        0.12258564   
    179000   498.90961      1352.007       1850.9166      110.13834      302.58194      0.12320753   
    180000   498.11215      1382.3788      1880.4909      141.81265      309.37921      0.12256662   
    181000   498.93867      1357.9321      1856.8708      127.98012      303.90799      0.11840373   
    182000   520.52666      1337.6236      1858.1503      132.53075      299.36291      0.11284882   
    183000   522.29184      1358.5122      1880.8041      106.49193      304.03783      0.11035217   
    184000   515.88156      1355.8628      1871.7444      69.122753      303.44489      0.11066969   
    185000   514.03302      1351.4614      1865.4944      24.528333      302.45983      0.11156077   
    186000   498.07872      1383.2211      1881.2998      49.11623       309.56772      0.11326691   
    187000   491.81483      1392.1037      1883.9185      43.59315       311.55567      0.11549242   
    188000   508.22673      1358.2641      1866.4908      69.472672      303.98229      0.11763744   
    189000   474.82397      1353.9833      1828.8073      105.1233       303.02424      0.11862916   
    190000   481.24133      1355.5611      1836.8024      122.56717      303.37736      0.11915691   
    191000   493.2994       1342.0575      1835.3569      132.84729      300.35522      0.1194412    
    192000   496.8713       1350.2979      1847.1691      129.26567      302.19943      0.11863424   
    193000   475.5631       1324.6179      1800.181       122.63305      296.45219      0.11590573   
    194000   531.3414       1337.2605      1868.6019      100.3789       299.28164      0.11426666   
    195000   515.55195      1334.5828      1850.1348      62.465923      298.68238      0.11332658   
    196000   514.63685      1330.9378      1845.5746      65.674693      297.8666       0.11422933   
    197000   506.33462      1371.7085      1878.0432      50.061999      306.99119      0.11672667   
    198000   484.91164      1359.6961      1844.6078      80.395639      304.30278      0.12138078   
    199000   467.02846      1349.0901      1816.1186      112.40518      301.92914      0.1251497    
    200000   467.16993      1344.6184      1811.7884      126.48279      300.92837      0.12499638   
    201000   496.41402      1340.5686      1836.9826      124.37061      300.022        0.12127973   
    202000   495.57345      1377.3356      1872.909       133.3568       308.25054      0.11696131   
    203000   529.15249      1362.2501      1891.4026      115.88008      304.87437      0.11403846   
    204000   525.91295      1400.6693      1926.5822      79.891205      313.47265      0.11285225   
    205000   509.73604      1356.8171      1866.5532      64.189301      303.65846      0.11352176   
    206000   499.51976      1342.1753      1841.695       75.703365      300.38158      0.11539687   
    207000   502.00533      1324.8159      1826.8212      124.61069      296.49652      0.11793555   
    208000   474.79326      1308.655       1783.4482      147.97865      292.87967      0.12058161   
    209000   495.87509      1324.8948      1820.7699      150.33819      296.51418      0.12220129   
    210000   483.04332      1316.4631      1799.5064      126.88316      294.62715      0.12155534   
    211000   474.62903      1288.0593      1762.6883      86.099242      288.27031      0.11680808   
    212000   484.36129      1300.2797      1784.641       29.919854      291.00528      0.110935     
    213000   507.73756      1325.4275      1833.1651      68.951569      296.6334       0.11008481   
    214000   497.95559      1315.7192      1813.6748      103.29268      294.46066      0.11142983   
    215000   477.50234      1351.4294      1828.9317      126.91028      302.45267      0.11337543   
    216000   517.26259      1342.8754      1860.138       136.53417      300.53827      0.1151605    
    217000   483.10725      1376.0128      1859.1201      130.24592      307.95449      0.11763365   
    218000   513.34912      1364.8573      1878.2064      117.58721      305.45787      0.11939244   
    219000   497.83481      1339.1055      1836.9403      78.886394      299.69457      0.11946245   
    220000   484.07712      1351.6266      1835.7038      54.616882      302.49681      0.11748424   
    221000   494.90824      1367.6292      1862.5374      38.451535      306.07822      0.11409426   
    222000   505.49715      1361.3439      1866.8411      51.099309      304.67157      0.11140279   
    223000   502.35054      1354.4555      1856.8061      95.605971      303.12993      0.11064734   
    224000   495.9166       1302.7203      1798.6369      96.80173       291.55148      0.11022193   
    225000   520.57181      1303.7287      1824.3005      104.60174      291.77715      0.11155718   
    226000   482.02385      1340.366       1822.3898      97.851016      299.97665      0.11621464   
    227000   489.14201      1339.5086      1828.6506      110.70217      299.78478      0.12038761   
    228000   490.84715      1333.5828      1824.4299      57.967469      298.45857      0.11848687   
    229000   486.01027      1330.4382      1816.4485      46.805099      297.75481      0.11479049   
    230000   499.2766       1328.1672      1827.4438      42.725395      297.24655      0.11223815   
    231000   482.6021       1290.7559      1773.358       62.544639      288.87381      0.11135314   
    232000   520.84327      1305.7368      1826.58        80.682596      292.22657      0.11123576   
    233000   523.78066      1337.9579      1861.7385      94.44657       299.43771      0.11189106   
    234000   498.11234      1333.5325      1831.6448      103.30567      298.4473       0.11294205   
    235000   468.10496      1359.9864      1828.0913      117.51902      304.36774      0.11317185   
    236000   481.56582      1346.1103      1827.6761      127.47385      301.26225      0.11261423   
    237000   477.78509      1367.7425      1845.5276      124.40803      306.10359      0.11076593   
    238000   508.06459      1349.3908      1857.4554      114.46139      301.99643      0.11026793   
    239000   523.51859      1332.706       1856.2246      99.727746      298.26233      0.111788     
    240000   512.08741      1360.4405      1872.5279      142.70824      304.46938      0.11536733   
    241000   460.61667      1395.2283      1855.845       149.44415      312.25496      0.11821236   
    242000   510.98144      1335.8326      1846.8141      111.52714      298.96209      0.11644523   
    243000   503.3356       1338.3122      1841.6478      81.526758      299.51702      0.11253513   
    244000   505.40772      1327.9909      1833.3986      60.153789      297.20709      0.11030066   
    245000   493.7203       1369.6515      1863.3718      33.356796      306.53081      0.11031719   
    246000   507.37462      1350.1341      1857.5087      24.116615      302.16277      0.11327225   
    247000   488.31442      1344.6723      1832.9867      57.643332      300.94043      0.11908302   
    248000   480.77744      1352.9315      1833.7089      126.43724      302.78885      0.12271084   
    249000   475.23531      1349.1346      1824.3699      192.20121      301.93909      0.12371447   
    250000   472.05263      1364.6439      1836.6965      240.36929      305.4101       0.12205057   
    251000   467.97498      1358.554       1826.529       249.35719      304.04718      0.11880109   
    252000   498.72412      1314.6782      1813.4023      192.11009      294.22767      0.11616031   
    253000   498.91404      1336.2464      1835.1604      141.068        299.05469      0.11669106   
    254000   508.2213       1369.8461      1878.0674      120.03787      306.57436      0.11907548   
    255000   469.00887      1411.6767      1880.6856      107.64324      315.93615      0.12107514   
    256000   471.54781      1366.0964      1837.6442      138.42561      305.73517      0.12218686   
    257000   489.67504      1340.1846      1829.8596      133.87649      299.93605      0.12097906   
    258000   501.0784       1338.0844      1839.1627      108.11446      299.46602      0.11906812   
    259000   500.80808      1332.8647      1833.6727      93.750248      298.29785      0.11825049   
    260000   495.95015      1307.5813      1803.5314      39.676456      292.63937      0.11736796   
    261000   476.72927      1336.4205      1813.1498      46.539549      299.09365      0.11867703   
    262000   480.08204      1330.0351      1810.1172      90.967712      297.66459      0.12039226   
    263000   477.11968      1307.9692      1785.0888      101.57402      292.72618      0.11976984   
    264000   486.24788      1339.8999      1826.1477      93.257452      299.87234      0.11476739   
    265000   510.85491      1308.2078      1819.0627      79.932458      292.77958      0.10929393   
    266000   492.61888      1290.21        1782.8289      98.295301      288.75165      0.10790199   
    267000   496.55353      1323.661       1820.2145      123.14638      296.23805      0.10946717   
    268000   513.00325      1338.5674      1851.5706      145.98233      299.57412      0.1121288    
    269000   490.87768      1358.2229      1849.1005      145.95208      303.97307      0.11486591   
    270000   490.28653      1361.2016      1851.4881      122.18731      304.63971      0.11640526   
    271000   513.95143      1357.7442      1871.6956      99.560787      303.86594      0.11613142   
    272000   507.10451      1363.5158      1870.6203      82.670778      305.15764      0.11475917   
    273000   484.62165      1406.0856      1890.7073      67.780485      314.68484      0.11159404   
    274000   507.87245      1362.6172      1870.4896      59.114563      304.95652      0.1040256    
    275000   525.768        1346.8791      1872.6471      51.233852      301.43431      0.10167747   
    276000   521.40451      1371.4763      1892.8808      71.551911      306.93921      0.1032727    
    277000   518.63684      1431.3312      1949.968       128.88353      320.33486      0.10754742   
    278000   534.01678      1353.188       1887.2048      132.72547      302.84626      0.11114729   
    279000   496.38678      1371.7648      1868.1516      121.00762      307.00378      0.11305844   
    280000   498.06385      1354.3088      1852.3727      79.32362       303.09709      0.1132891    
    281000   516.99559      1377.2092      1894.2048      55.300378      308.22225      0.11228596   
    282000   518.69808      1351.0382      1869.7363      58.320346      302.36512      0.11150861   
    283000   506.49316      1348.6434      1855.1366      60.313185      301.82917      0.11037459   
    284000   519.31594      1363.721       1883.037       96.734311      305.20356      0.11015257   
    285000   506.77614      1391.5473      1898.3234      90.973096      311.43114      0.1114441    
    286000   494.35052      1395.3635      1889.714       107.40099      312.28521      0.11474668   
    287000   482.83575      1319.4899      1802.3256      75.885314      295.30454      0.11554509   
    288000   497.14103      1314.364       1811.505       73.01348       294.15735      0.11520348   
    289000   502.89582      1317.558       1820.4538      76.941227      294.87218      0.11344921   
    290000   497.47748      1310.9601      1808.4376      54.011788      293.39557      0.10954932   
    291000   513.42909      1345.4343      1858.8634      37.596648      301.11095      0.1068177    
    292000   533.8559       1377.4407      1911.2966      40.502945      308.27405      0.10700202   
    293000   494.27886      1367.6265      1861.9053      46.485467      306.07761      0.10959147   
    294000   513.64603      1330.384       1844.03        88.275717      297.74266      0.1163603    
    295000   491.06689      1375.1305      1866.1973      141.9467       307.75702      0.12003452   
    296000   466.0965       1363.2953      1829.3918      146.29797      305.10829      0.11946972   
    297000   477.47004      1345.4745      1822.9445      121.42896      301.11995      0.117481     
    298000   495.65841      1362.2898      1857.9482      102.92766      304.88325      0.11467066   
    299000   501.55284      1349.4803      1851.0332      105.12848      302.01647      0.11141969   
    300000   493.30293      1360.965       1854.2679      106.66387      304.58676      0.1088335    
    301000   507.2409       1325.4675      1832.7084      131.2517       296.64235      0.10757852   
    302000   488.08621      1345.9458      1834.032       143.66153      301.22542      0.10774776   
    303000   526.56945      1300.6845      1827.254       131.61357      291.09587      0.10856683   
    304000   490.80445      1302.2405      1793.045       104.15871      291.44411      0.10841658   
    305000   515.28395      1298.4442      1813.7281      81.19869       290.59447      0.10822224   
    306000   501.48064      1323.5163      1824.9969      93.130382      296.20567      0.10950981   
    307000   506.698        1340.1979      1846.8959      92.009497      299.93903      0.1102513    
    308000   493.98979      1375.0131      1869.0029      80.506838      307.73076      0.11146522   
    309000   545.23329      1376.9671      1922.2004      81.366805      308.16807      0.11323921   
    310000   522.68182      1357.8437      1880.5256      67.801994      303.88822      0.11179019   
    311000   526.55612      1350.352       1876.9081      86.562933      302.21155      0.1097803    
    312000   512.65403      1360.4168      1873.0708      100.14417      304.46407      0.10821755   
    313000   521.0625       1383.3992      1904.4616      98.195836      309.60757      0.10773228   
    314000   495.56961      1364.3605      1859.9301      114.36519      305.34669      0.10897039   
    315000   517.23807      1332.7094      1849.9475      111.28993      298.2631       0.11103806   
    316000   526.98853      1342.2463      1869.2349      89.23092       300.39748      0.11235036   
    317000   515.70549      1344.4205      1860.126       109.24944      300.88406      0.11273662   
    318000   488.54165      1356.5659      1845.1075      131.94646      303.60223      0.1118428    
    319000   511.79526      1290.7024      1802.4977      154.79968      288.86185      0.11162841   
    320000   477.20668      1305.1291      1782.3358      174.63823      292.09058      0.11228725   
    321000   483.99833      1327.745       1811.7434      90.717927      297.15207      0.11181411   
    322000   487.31398      1334.8239      1822.1379      47.000076      298.73634      0.11246993   
    323000   487.90053      1309.7821      1797.6826      19.64801       293.13192      0.11325565   
    324000   489.58907      1329.0553      1818.6444      81.372122      297.4453       0.11562279   
    325000   468.86345      1308.5396      1777.403       137.51313      292.85385      0.11696742   
    326000   472.58502      1347.1769      1819.7619      128.44381      301.50096      0.11681644   
    327000   471.70756      1362.6519      1834.3594      83.88692       304.96428      0.11628462   
    328000   507.3186       1341.4002      1848.7188      17.471204      300.20812      0.11500196   
    329000   523.80478      1319.2304      1843.0351     -33.567136      295.24646      0.1128427    
    330000   483.52632      1325.7707      1809.297       18.89923       296.7102       0.11143472   
    331000   500.58171      1328.9889      1829.5706      106.77641      297.43044      0.11108909   
    332000   501.23189      1294.3486      1795.5805      172.92645      289.67788      0.11332252   
    333000   491.54804      1332.014       1823.5621      186.62727      298.10747      0.11630449   
    334000   480.26584      1310.0525      1790.3184      151.65594      293.19245      0.11864497   
    335000   488.20631      1337.2415      1825.4478      84.303919      299.27739      0.11998089   
    336000   468.91312      1318.8783      1787.7914      25.367026      295.16767      0.11868      
    337000   499.09804      1300.3688      1799.4669      15.478966      291.02521      0.11400531   
    338000   497.2636       1295.2542      1792.5178      33.239643      289.88055      0.10909392   
    339000   511.59512      1330.3698      1841.9649      107.66122      297.7395       0.10904277   
    340000   511.80091      1322.7106      1834.5116      117.61511      296.02536      0.11038276   
    341000   482.30347      1326.3836      1808.6871      115.17038      296.84738      0.1118942    
    342000   512.71298      1328.5318      1841.2448      56.487862      297.32814      0.11363299   
    343000   463.24409      1323.8095      1787.0536      19.755821      296.27128      0.11587925   
    344000   496.72302      1320.5385      1817.2615      41.245204      295.53923      0.11759789   
    345000   501.19429      1306.6953      1807.8896      55.349366      292.44108      0.11755559   
    346000   463.23414      1332.0893      1795.3235      97.316903      298.12432      0.11742797   
    347000   466.13525      1285.712       1751.8473      135.03218      287.74499      0.11924835   
    348000   461.13437      1344.1451      1805.2795      146.17641      300.82243      0.12207847   
    349000   471.67166      1336.9493      1808.621       145.91386      299.212        0.12357334   
    350000   494.85737      1288.7261      1783.5835      131.40637      288.41954      0.120628     
    351000   508.28688      1328.3274      1836.6142      115.18834      297.28239      0.11541216   
    352000   508.46437      1351.9542      1860.4186      111.96989      302.57013      0.11235516   
    353000   500.18782      1359.8927      1860.0806      92.214679      304.34679      0.11223828   
    354000   505.08825      1354.5116      1859.5999      76.135658      303.14248      0.11456429   
    355000   519.79826      1343.1086      1862.9068      69.636305      300.59045      0.11825878   
    356000   467.37029      1402.0289      1869.3992      112.39802      313.77694      0.11964284   
    357000   489.73533      1373.8176      1863.5529      92.501296      307.46319      0.1193279    
    358000   495.59591      1369.7162      1865.3122      60.764796      306.54531      0.11873426   
    359000   492.80973      1371.7967      1864.6064      39.964445      307.01091      0.1172615    
    360000   489.35413      1366.2189      1855.5731      48.25494       305.7626       0.11203085   
    361000   518.26089      1381.51        1899.7709      51.278899      309.18478      0.10673887   
    362000   506.02408      1331.1831      1837.2072      70.885459      297.92151      0.10664802   
    363000   505.48114      1324.8021      1830.2832      100.17066      296.49343      0.11071537   
    364000   500.02047      1302.8849      1802.9054      119.11509      291.58832      0.11463629   
    365000   464.55415      1327.8085      1792.3626      120.32231      297.16626      0.1176637    
    366000   491.80607      1316.1718      1807.9779      99.41834       294.56195      0.12078659   
    367000   488.02604      1325.7072      1813.7332      87.777517      296.69598      0.12255914   
    368000   480.77927      1325.8551      1806.6343      75.418358      296.72908      0.12405956   
    369000   455.2691       1332.4893      1787.7584      61.337552      298.21384      0.12382138   
    370000   493.25426      1326.4715      1819.7258      88.608086      296.86704      0.12269184   
    371000   467.2889       1340.1936      1807.4825      150.94278      299.93807      0.11947848   
    372000   491.53111      1362.1116      1853.6427      168.77694      304.84336      0.11243604   
    373000   504.99007      1341.5129      1846.503       171.92269      300.23334      0.11037112   
    374000   511.15388      1326.7999      1837.9537      158.09327      296.94053      0.11256444   
    375000   511.00398      1333.4465      1844.4505      157.17583      298.42807      0.11584939   
    376000   499.93835      1358.8966      1858.8349      104.88527      304.12384      0.11712912   
    377000   494.42922      1362.1485      1856.5777      80.612134      304.85163      0.1175599    
    378000   482.51187      1397.3424      1879.8543      105.40985      312.7281       0.11869269   
    379000   480.04621      1354.2239      1834.2701      96.736496      303.07809      0.11885928   
    380000   521.09326      1326.5708      1847.6641      78.46677       296.88927      0.1199331    
    381000   507.45541      1308.8484      1816.3038      73.994059      292.92295      0.12176657   
    382000   472.37308      1331.5379      1803.9109      103.93769      298.00091      0.12452514   
    383000   457.24932      1332.0302      1789.2795      134.04119      298.1111       0.12668476   
    384000   501.40099      1330.442       1831.843       90.188218      297.75565      0.1261275    
    385000   490.03738      1324.4854      1814.5228      39.139565      296.42255      0.12229186   
    386000   448.6776       1332.974       1781.6516      47.093528      298.32231      0.11863275   
    387000   490.98617      1306.3752      1797.3614      76.79877       292.36945      0.11635308   
    388000   482.45114      1321.5736      1804.0247      130.38713      295.77088      0.11550139   
    389000   480.70293      1324.2719      1804.9748      134.43544      296.37476      0.11471293   
    390000   462.78237      1330.9576      1793.74        164.32101      297.87104      0.11524266   
    391000   481.43915      1360.1015      1841.5406      171.8817       304.3935       0.1171893    
    392000   526.35836      1357.6457      1884.004       130.95994      303.84389      0.1202862    
    393000   484.92596      1383.5646      1868.4906      137.82854      309.6446       0.12363444   
    394000   476.68653      1367.2066      1843.8931      104.7097       305.98364      0.12440931   
    395000   490.17668      1347.2024      1837.3791      79.553531      301.50666      0.12210685   
    396000   489.67658      1368.2128      1857.8894      85.911452      306.20883      0.11767955   
    397000   518.56289      1339.6126      1858.1755      83.764507      299.80804      0.11426093   
    398000   492.79789      1343.957       1836.7549      76.332069      300.78033      0.11218346   
    399000   467.20676      1359.9884      1827.1952      89.325698      304.3682       0.11181618   
    400000   495.58023      1292.3341      1787.9143      96.045335      289.22701      0.11296204   
    401000   478.03429      1313.3836      1791.4179      135.37464      293.93796      0.11674047   
    402000   474.30876      1317.0726      1791.3814      173.82913      294.76355      0.12125337   
    403000   475.54794      1320.1141      1795.662       156.94217      295.44424      0.12395843   
    404000   475.15924      1324.7491      1799.9083      143.82463      296.48157      0.1256735    
    405000   483.0928       1313.3735      1796.4663      161.13316      293.93568      0.12393321   
    406000   488.92125      1292.9173      1781.8386      159.14528      289.35755      0.11985584   
    407000   461.772        1334.0477      1795.8197      123.72361      298.56261      0.11651736   
    408000   513.12146      1302.095       1815.2165      72.152903      291.41154      0.11528235   
    409000   493.70516      1329.5726      1823.2778      40.497927      297.56109      0.11473434   
    410000   490.29864      1346.0048      1836.3034      37.371561      301.23863      0.11506397   
    411000   487.03321      1336.8685      1823.9017      17.010677      299.19391      0.11717074   
    412000   492.88307      1348.8663      1841.7493      43.226382      301.87904      0.12092223   
    413000   509.01204      1372.2031      1881.2151      63.995562      307.10187      0.12337353   
    414000   476.0819       1372.8146      1848.8965      111.47209      307.23872      0.12337876   
    415000   521.0002       1339.4997      1860.4999      116.4018       299.78279      0.12184445   
    416000   504.27         1405.6727      1909.9427      113.70794      314.59245      0.11956516   
    417000   477.83259      1380.5103      1858.3429      122.34118      308.96105      0.11727412   
    418000   482.55865      1344.6235      1827.1821      98.745532      300.92949      0.11600055   
    419000   489.0933       1351.7275      1840.8208      80.599445      302.51938      0.11656003   
    420000   490.59041      1340.7261      1831.3165      76.10777       300.05724      0.11769109   
    421000   482.56053      1351.4817      1834.0422      107.03505      302.46437      0.11881567   
    422000   503.9267       1287.4931      1791.4198      117.20311      288.14359      0.11967784   
    423000   485.38948      1285.9929      1771.3824      124.98937      287.80785      0.11934318   
    424000   493.23807      1308.8687      1802.1067      109.64058      292.92749      0.11763849   
    425000   506.15495      1315.3705      1821.5255      95.532129      294.38262      0.11462282   
    426000   493.12135      1298.4544      1791.5758      97.216973      290.59676      0.10986783   
    427000   497.40118      1334.6931      1832.0943      116.58651      298.70705      0.10785537   
    428000   530.18385      1334.735       1864.9189      140.15961      298.71644      0.10901879   
    429000   495.39682      1339.8969      1835.2937      107.65773      299.87167      0.11121183   
    430000   495.53861      1344.4913      1840.0299      90.982856      300.89991      0.11419545   
    431000   489.44781      1339.7529      1829.2007      61.455876      299.83945      0.11574059   
    432000   493.37024      1357.9304      1851.3007      76.037872      303.90762      0.11665111   
    433000   519.31527      1357.6557      1876.971       83.469371      303.84613      0.11718858   
    434000   509.07186      1362.1465      1871.2183      127.70797      304.85118      0.11899885   
    435000   499.3369       1371.9665      1871.3034      134.71816      307.04891      0.12153807   
    436000   459.37744      1361.6047      1820.9821      173.05277      304.72992      0.12430846   
    437000   457.67758      1316.6671      1774.3447      144.77862      294.67281      0.12554857   
    438000   474.96316      1318.3503      1793.3135      72.02823       295.04951      0.12401727   
    439000   492.03766      1308.1741      1800.2118      33.700507      292.77206      0.12102639   
    440000   463.19164      1337.3574      1800.549       44.777821      299.30333      0.11961737   
    441000   496.3891       1377.7033      1874.0924      85.369387      308.33283      0.12114093   
    442000   472.32773      1349.3125      1821.6402      113.3203       301.9789       0.12439804   
    443000   463.95805      1376.9266      1840.8847      151.86362      308.15901      0.12766443   
    444000   484.55359      1366.5107      1851.0643      140.95417      305.8279       0.12646778   
    445000   508.13346      1350.9267      1859.0602      83.990785      302.34018      0.12442387   
    446000   491.96269      1352.8808      1844.8434      51.021666      302.77749      0.12129057   
    447000   504.30835      1336.8185      1841.1269      26.842579      299.18273      0.11638656   
    448000   499.64678      1330.2756      1829.9224      26.183462      297.71841      0.11294344   
    449000   497.39988      1324.7218      1822.1216      74.097998      296.47545      0.11418248   
    450000   496.30244      1285.3063      1781.6087      136.74963      287.65418      0.11753698   
    451000   473.15061      1347.8071      1820.9577      171.49549      301.642        0.1197926    
    452000   476.86879      1350.7362      1827.6049      163.99129      302.29752      0.12043454   
    453000   470.4671       1371.2722      1841.7393      142.07324      306.89353      0.12146058   
    454000   511.10129      1339.3848      1850.4861      92.924037      299.75707      0.12281078   
    455000   492.66307      1335.8048      1828.4679      94.312377      298.95586      0.12607289   
    456000   489.90046      1372.0455      1861.946       101.13111      307.0666       0.12898883   
    457000   489.24446      1397.9098      1887.1543      119.59721      312.85509      0.12967206   
    458000   503.48931      1369.1145      1872.6038      55.850587      306.41064      0.12458868   
    459000   509.45576      1345.0089      1854.4647      28.061705      301.01576      0.11944394   
    460000   499.48638      1343.5863      1843.0727      35.779333      300.69737      0.11715619   
    461000   483.9669       1383.6571      1867.624       77.208376      309.66531      0.11597823   
    462000   513.86972      1334.6249      1848.4946      88.200054      298.69179      0.11607117   
    463000   522.81429      1337.9892      1860.8035      102.76465      299.44474      0.11706448   
    464000   498.48354      1384.2167      1882.7002      131.97532      309.79054      0.1193178    
    465000   501.45327      1413.1068      1914.5601      139.17887      316.25621      0.12052429   
    466000   497.147        1355.7145      1852.8615      118.92608      303.41169      0.11914146   
    467000   523.13824      1330.018       1853.1562      127.07949      297.66076      0.11660449   
    468000   523.51608      1355.236       1878.7521      111.10772      303.3046       0.11280714   
    469000   489.6173       1370.0575      1859.6748      108.87223      306.62167      0.10990614   
    470000   499.076        1348.359       1847.435       72.938921      301.76552      0.10902015   
    471000   507.49468      1313.9173      1821.412       58.380386      294.05739      0.11092383   
    472000   510.07267      1320.1476      1830.2203      41.103802      295.45174      0.11530458   
    473000   497.41666      1323.861       1821.2777      94.18781       296.28281      0.11893944   
    474000   482.23484      1333.4933      1815.7281      142.01719      298.43854      0.12012476   
    475000   503.13355      1304.4542      1807.5877      145.18859      291.93952      0.11807168   
    476000   494.43765      1312.9538      1807.3914      132.53913      293.84175      0.11403254   
    477000   485.85875      1287.4672      1773.3259      87.598811      288.13779      0.11132537   
    478000   501.79734      1342.4564      1844.2538      44.91241       300.4445       0.11024454   
    479000   515.42486      1361.0026      1876.4275      31.335739      304.59518      0.10983479   
    480000   526.92656      1370.3115      1897.238       46.13088       306.67852      0.10998996   
    481000   538.91975      1356.4897      1895.4094      95.274357      303.58517      0.11037073   
    482000   507.57643      1323.354       1830.9304      119.09833      296.16934      0.109776     
    483000   489.27573      1325.4475      1814.7232      143.95868      296.63786      0.11005812   
    484000   489.18331      1338.6986      1827.8819      135.05414      299.60348      0.11120207   
    485000   503.60163      1309.5095      1813.1112      95.514391      293.07092      0.1128896    
    486000   507.03417      1334.6417      1841.6758      95.042518      298.69554      0.1147583    
    487000   498.16783      1330.82        1828.9878      114.32947      297.84024      0.11725872   
    488000   490.84982      1339.1444      1829.9942      121.10597      299.70327      0.12054778   
    489000   489.76006      1360.026       1849.7861      139.15924      304.37662      0.12271944   
    490000   491.03304      1367.0423      1858.0753      115.71159      305.94687      0.12315644   
    491000   506.04825      1356.4073      1862.4555      79.809003      303.56674      0.12103779   
    492000   518.09833      1419.0643      1937.1627      41.002386      317.58951      0.11403712   
    493000   505.59         1353.4141      1859.0041      73.139368      302.89684      0.11077661   
    494000   517.91161      1335.4665      1853.3781      128.84178      298.88015      0.11070176   
    495000   509.54139      1349.1621      1858.7035      159.61374      301.94525      0.11168521   
    496000   481.89283      1343.2833      1825.1762      150.91808      300.62957      0.1124533    
    497000   515.47257      1292.5605      1808.033       105.00537      289.27768      0.11372745   
    498000   517.49168      1297.727       1815.2186      75.556494      290.43396      0.11554732   
    499000   512.39067      1307.7848      1820.1754      22.858464      292.68491      0.11464345   
    500000   509.1177       1310.1071      1819.2248      8.0757568      293.20467      0.1106753    
    501000   517.8301       1354.7304      1872.5605      14.968522      303.19145      0.10676965   
    502000   515.19349      1385.4816      1900.6751      76.180592      310.07362      0.10605966   
    503000   508.35037      1422.2714      1930.6218      125.75111      318.30726      0.10826743   
    504000   502.65074      1347.5921      1850.2428      145.98276      301.59388      0.11170269   
    505000   511.72713      1325.7358      1837.463       137.69836      296.7024       0.11450223   
    506000   502.40943      1349.5243      1851.9338      157.57342      302.02632      0.11465009   
    507000   514.63335      1352.4547      1867.088       148.23555      302.68213      0.11277789   
    508000   485.64435      1328.786       1814.4303      123.98514      297.38503      0.11066345   
    509000   494.28229      1357.97        1852.2523      133.91786      303.91647      0.11101602   
    510000   484.63552      1358.3571      1842.9926      114.45461      304.0031       0.11221519   
    511000   502.3925       1356.0773      1858.4698      91.031848      303.49289      0.11233522   
    512000   507.34534      1322.8201      1830.1655      83.246955      296.04986      0.11187536   
    513000   480.70879      1294.587       1775.2958      100.95716      289.73123      0.11384932   
    514000   492.70971      1299.7219      1792.4316      103.03715      290.88044      0.11802956   
    515000   470.83826      1320.8379      1791.6762      125.94126      295.60624      0.12226326   
    516000   473.71132      1322.9609      1796.6722      131.64226      296.08136      0.12259993   
    517000   481.02111      1293.6677      1774.6888      139.20544      289.52548      0.12049678   
    518000   485.92517      1360.5015      1846.4267      144.04137      304.48304      0.1167779    
    519000   503.59523      1345.3296      1848.9249      155.02486      301.08753      0.11259826   
    520000   507.32672      1354.787       1862.1137      116.89105      303.20412      0.11115997   
    521000   503.7898       1342.6282      1846.418       73.257137      300.48294      0.11273025   
    522000   521.42413      1348.4373      1869.8615      56.864569      301.78304      0.11636375   
    523000   490.93057      1397.9758      1888.9064      56.787105      312.86985      0.11974916   
    524000   503.79835      1392.2924      1896.0907      108.15138      311.59789      0.12123907   
    525000   484.24488      1378.0261      1862.271       94.943359      308.40507      0.11875435   
    526000   493.42102      1358.7124      1852.1335      110.82657      304.08263      0.11667666   
    527000   497.12948      1371.2468      1868.3763      117.69602      306.88784      0.11565032   
    528000   501.43481      1362.3935      1863.8283      122.85328      304.90647      0.11637574   
    529000   510.0968       1361.132       1871.2288      125.15655      304.62414      0.11716815   
    530000   481.19705      1377.9388      1859.1358      93.644591      308.38553      0.11548775   
    531000   485.63852      1350.9512      1836.5897      50.638171      302.34565      0.11352802   
    532000   509.64081      1319.7314      1829.3722      41.565326      295.35859      0.11204698   
    533000   530.58404      1326.4131      1856.9971      77.276942      296.85397      0.11098068   
    534000   510.69608      1345.6311      1856.3272      126.96753      301.15501      0.11270804   
    535000   510.81423      1367.8242      1878.6385      172.55793      306.12187      0.1184553    
    536000   468.09552      1344.6927      1812.7882      219.75689      300.94499      0.12229604   
    537000   481.3447       1303.4329      1784.7776      207.88115      291.71096      0.12283513   
    538000   502.12292      1318.9096      1821.0325      192.16873      295.17467      0.12216172   
    539000   492.07974      1328.173       1820.2528      150.63947      297.24785      0.12078676   
    540000   484.67398      1316.3033      1800.9773      85.38576       294.59138      0.11858581   
    541000   508.45209      1317.6691      1826.1212      44.662681      294.89704      0.11613355   
    542000   494.01252      1317.1226      1811.1351      11.631583      294.77473      0.11362784   
    543000   496.78528      1321.7687      1818.554      -4.0580627      295.81456      0.1121058    
    544000   455.64661      1305.2543      1760.901       51.837374      292.1186       0.11387894   
    545000   523.72043      1320.1101      1843.8305      91.767756      295.44335      0.11764803   
    546000   481.61764      1332.1552      1813.7728      146.02336      298.13906      0.12046904   
    547000   470.15052      1349.6064      1819.757       136.92523      302.04469      0.11997151   
    548000   495.28345      1343.804       1839.0874      100.03935      300.74609      0.11863483   
    549000   483.29857      1351.4083      1834.7069      65.201655      302.44796      0.11827456   
    550000   505.11417      1369.5687      1874.6828      46.697661      306.51228      0.12032976   
    551000   488.59883      1351.591       1840.1898      41.301424      302.48884      0.12265983   
    552000   463.21906      1372.5777      1835.7967      72.317354      307.1857       0.12219366   
    553000   497.98437      1353.2463      1851.2306      126.8837       302.85929      0.11953966   
    554000   501.09557      1351.0801      1852.1757      160.71156      302.3745       0.11550124   
    555000   495.11096      1390.4137      1885.5247      136.14396      311.17745      0.11308594   
    556000   527.73556      1345.7289      1873.4644      132.6825       301.17688      0.11463243   
    557000   506.17437      1374.8657      1881.0401      105.5025       307.69777      0.11657382   
    558000   486.34522      1367.0099      1853.3551      85.751064      305.93962      0.11832334   
    559000   492.30805      1361.416       1853.724       66.020146      304.68769      0.1205953    
    560000   506.23571      1350.006       1856.2417      74.22573       302.13411      0.12087373   
    561000   501.6151       1361.2102      1862.8253      60.18937       304.64163      0.11576379   
    562000   491.3099       1361.1901      1852.5         88.135758      304.63714      0.11133679   
    563000   486.56311      1348.2594      1834.8225      114.94231      301.74323      0.11045719   
    564000   494.20963      1342.5832      1836.7928      151.5633       300.47288      0.11223974   
    565000   492.36054      1316.943       1809.3035      137.63218      294.73454      0.11263101   
    566000   486.26425      1325.1487      1811.413       129.96018      296.571        0.11260928   
    567000   501.3474       1334.4028      1835.7502      130.4565       298.64209      0.11358441   
    568000   469.90851      1335.3648      1805.2733      106.48343      298.85738      0.11527507   
    569000   476.11046      1290.0601      1766.1705      99.088572      288.71809      0.11753711   
    570000   485.80825      1307.8033      1793.6116      62.191748      292.68907      0.11958274   
    571000   476.65284      1330.114       1806.7669      33.54885       297.68225      0.1201293    
    572000   481.99568      1356.8004      1838.7961      59.158507      303.65471      0.11738196   
    573000   522.15848      1364.3944      1886.5529      95.042943      305.35427      0.11265182   
    574000   529.40462      1407.0332      1936.4378      126.59447      314.89691      0.11003306   
    575000   502.82294      1373.1998      1876.0227      138.30847      307.32493      0.10983657   
    576000   487.76628      1388.0776      1875.8439      88.431198      310.65462      0.11113969   
    577000   501.0477       1345.8509      1846.8986      70.851626      301.2042       0.11569741   
    578000   513.08255      1382.2881      1895.3707      3.3765347      309.35892      0.11777546   
    579000   507.03068      1355.1097      1862.1404      10.751993      303.27633      0.1180015    
    580000   498.38667      1360.7592      1859.1459      28.254472      304.5407       0.11809834   
    581000   509.81875      1380.2575      1890.0762      83.26807       308.90445      0.11740807   
    582000   491.31923      1399.1871      1890.5063      103.32158      313.14095      0.11552303   
    583000   486.25375      1360.1353      1846.389       103.25002      304.40107      0.11425164   
    584000   520.9528       1333.6549      1854.6077      78.528576      298.47472      0.11454768   
    585000   511.59393      1374.0382      1885.6321      80.779282      307.51257      0.11832172   
    586000   471.4852       1328.0911      1799.5763      96.608017      297.22951      0.12456169   
    587000   475.61706      1324.3163      1799.9333      105.43494      296.3847       0.12745188   
    588000   493.50578      1356.5748      1850.0806      131.5037       303.60423      0.12668976   
    589000   489.73093      1367.3775      1857.1085      123.03205      306.0219       0.12139062   
    590000   491.9919       1418.3724      1910.3643      98.722861      317.43466      0.11862227   
    591000   494.75422      1352.3055      1847.0597      100.69174      302.64875      0.11779382   
    592000   485.63803      1365.1629      1850.801       112.73424      305.52627      0.11831102   
    593000   478.32531      1387.9303      1866.2556      120.51314      310.62165      0.11939593   
    594000   493.26246      1375.9311      1869.1935      129.95989      307.93619      0.12077983   
    595000   504.89169      1362.258       1867.1497      119.60945      304.87615      0.12309622   
    596000   489.32449      1400.7803      1890.1048      114.81116      313.4975       0.12758339   
    597000   477.84002      1362.9545      1840.7945      132.09885      305.032        0.13208973   
    598000   462.14528      1351.3579      1813.5032      125.51751      302.43668      0.13283123   
    599000   478.70875      1342.2469      1820.9557      101.86686      300.39761      0.13009404   
    600000   487.60316      1320.3452      1807.9483      94.638577      295.49596      0.12492249   
    601000   497.56127      1333.9798      1831.541       95.863358      298.54741      0.12121958   
    602000   466.62338      1322.4405      1789.0638      110.92392      295.96489      0.11972462   
    603000   476.00517      1331.0409      1807.046       165.82251      297.88968      0.12006249   
    604000   480.01996      1329.2234      1809.2434      178.31799      297.48293      0.12073573   
    605000   489.44506      1281.9031      1771.3481      182.01556      286.89254      0.12179605   
    606000   456.13098      1291.5597      1747.6907      123.71372      289.05372      0.12181543   
    607000   471.40918      1321.9405      1793.3496      97.499936      295.85299      0.12245283   
    608000   491.05186      1313.5513      1804.6032      61.028672      293.97548      0.12358067   
    609000   491.95924      1326.7921      1818.7514      37.378332      296.9388       0.12241804   
    610000   478.65182      1288.4643      1767.1161      44.261219      288.36095      0.11750142   
    611000   498.23576      1301.8077      1800.0435      99.660028      291.34724      0.11484999   
    612000   503.24279      1301.7364      1804.9792      113.1431       291.33127      0.11484298   
    613000   526.0624       1303.3864      1829.4488      86.982379      291.70055      0.1169794    
    614000   479.01037      1328.1445      1807.1549      96.027996      297.24147      0.12060145   
    615000   493.08656      1327.275       1820.3616      69.845277      297.04687      0.12219231   
    616000   470.89838      1349.0703      1819.9687      61.768832      301.92471      0.12356167   
    617000   477.28268      1375.1987      1852.4814      60.866641      307.7723       0.12469183   
    618000   493.15312      1371.5239      1864.6771      90.335791      306.94988      0.12733988   
    619000   456.5904       1418.7013      1875.2917      104.77006      317.50826      0.12946277   
    620000   484.50624      1336.6907      1821.1969      138.95167      299.15412      0.12956829   
    621000   467.92803      1347.897       1815.825       129.41545      301.66212      0.12628753   
    622000   488.68284      1338.6819      1827.3647      126.54123      299.59975      0.12172735   
    623000   513.55918      1331.9147      1845.4739      136.65913      298.08524      0.11837199   
    624000   508.15534      1322.2634      1830.4187      106.7024       295.92526      0.11599386   
    625000   487.79127      1338.2675      1826.0587      72.33692       299.50701      0.11565407   
    626000   463.03868      1334.5772      1797.6159      67.21789       298.68113      0.11949251   
    627000   475.14877      1306.4555      1781.6043      74.333685      292.38742      0.12562371   
    628000   494.72647      1300.67        1795.3965      58.796161      291.09262      0.12741385   
    629000   492.08851      1291.9452      1784.0337      71.815568      289.14         0.12661153   
    630000   474.74029      1324.2512      1798.9915      108.19047      296.37014      0.12425467   
    631000   521.43794      1308.5913      1830.0292      112.47055      292.86541      0.11881662   
    632000   499.63359      1355.5921      1855.2257      133.40251      303.3843       0.11659239   
    633000   491.51585      1366.7715      1858.2873      151.55708      305.88626      0.11748237   
    634000   489.62076      1352.9012      1842.522       141.76007      302.78207      0.12030617   
    635000   490.75474      1376.1097      1866.8645      111.00258      307.97618      0.12282691   
    636000   501.69007      1383.099       1884.7891      93.142073      309.5404       0.12293242   
    637000   509.47593      1353.0905      1862.5664      69.699384      302.82443      0.12249989   
    638000   492.3195       1342.3154      1834.6349      98.925588      300.41294      0.12012004   
    639000   481.34032      1339.2498      1820.5902      119.37292      299.72687      0.11542585   
    640000   509.47874      1303.8252      1813.304       107.02359      291.79877      0.11155543   
    641000   489.56958      1287.0754      1776.6449      160.09535      288.05011      0.11169858   
    642000   496.83597      1310.7416      1807.5776      124.15281      293.34666      0.11359571   
    643000   482.40328      1333.5615      1815.9647      100.05381      298.45379      0.1157436    
    644000   493.92771      1330.8208      1824.7485      65.733128      297.84042      0.11634183   
    645000   493.09689      1307.8653      1800.9621      101.58346      292.70293      0.11603726   
    646000   481.29574      1270.7534      1752.0491      121.16725      284.39721      0.11525519   
    647000   490.10313      1293.2932      1783.3964      108.2407       289.44168      0.11533912   
    648000   499.09302      1326.0016      1825.0946      100.93666      296.76188      0.11612855   
    649000   492.73967      1352.5225      1845.2622      108.35908      302.69732      0.11632286   
    650000   512.27752      1365.2202      1877.4977      147.17686      305.53909      0.11501573   
    651000   532.22138      1376.2019      1908.4233      145.40318      307.99682      0.10995948   
    652000   539.76115      1385.1386      1924.8998      149.70097      309.99687      0.10669961   
    653000   528.94832      1357.0811      1886.0294      117.4151       303.71753      0.10519675   
    654000   548.16655      1330.4167      1878.5832      57.804928      297.74998      0.10598961   
    655000   510.47514      1381.2304      1891.7055      59.082085      309.1222       0.11097622   
    656000   511.85287      1340.9476      1852.8004      55.525778      300.10682      0.11432993   
    657000   504.01054      1378.9117      1882.9223      72.176104      308.60328      0.11513265   
    658000   490.54354      1350.1724      1840.7159      114.87303      302.17135      0.11597119   
    659000   505.51063      1370.7655      1876.2762      134.70492      306.78014      0.11548401   
    660000   490.85294      1352.5046      1843.3576      159.27191      302.69332      0.1140616    
    661000   505.94271      1380.2811      1886.2238      128.48765      308.90975      0.11078149   
    662000   525.47894      1335.233       1860.7119      85.607746      298.82788      0.10750679   
    663000   505.79673      1348.599       1854.3957      96.838031      301.81922      0.107236     
    664000   518.42506      1338.5728      1856.9978      84.827191      299.57533      0.10905487   
    665000   492.78766      1334.8818      1827.6695      72.33159       298.74929      0.11426125   
    666000   491.55698      1304.1454      1795.7024      72.756467      291.87043      0.11945211   
    667000   485.4389       1290.9926      1776.4315      78.1846        288.92679      0.11938816   
    668000   484.37126      1288.2495      1772.6207      58.634908      288.31287      0.11711928   
    669000   510.91973      1294.7355      1805.6552      17.445846      289.76446      0.11596349   
    670000   501.95082      1331.1216      1833.0724      18.060936      297.90775      0.11546937   
    671000   522.30017      1309.6424      1831.9425      34.407122      293.10065      0.11440263   
    672000   520.15583      1334.0587      1854.2145      62.374623      298.56507      0.11275862   
    673000   517.60966      1324.2709      1841.8805      141.26507      296.37453      0.11072947   
    674000   492.88172      1325.2432      1818.1249      193.9348       296.59215      0.10845041   
    675000   495.28095      1349.3668      1844.6477      208.52071      301.99105      0.10812765   
    676000   510.13989      1349.4035      1859.5434      174.86762      301.99928      0.11022744   
    677000   496.29275      1349.4399      1845.7326      90.21103       302.00742      0.11508356   
    678000   504.20301      1327.2681      1831.4712      48.843545      297.04533      0.12034363   
    679000   501.66585      1311.9288      1813.5947     -1.6452613      293.61236      0.12082352   
    680000   473.55686      1346.9804      1820.5373      48.329098      301.45698      0.11919596   
    681000   479.99635      1305.3294      1785.3258      108.76255      292.13541      0.11630841   
    682000   512.23989      1318.4394      1830.6793      98.578106      295.06945      0.11288146   
    683000   490.68068      1339.3389      1830.0195      120.53914      299.74679      0.11147517   
    684000   510.73619      1313.204       1823.9402      104.18615      293.89776      0.11014556   
    685000   501.14769      1311.1691      1812.3168      75.878228      293.44234      0.10957509   
    686000   517.00658      1298.1965      1815.2031      53.722787      290.53904      0.11080757   
    687000   496.11968      1352.4015      1848.5212      56.653226      302.67024      0.11264763   
    688000   530.39257      1350.8773      1881.2699      81.412604      302.32912      0.11486156   
    689000   495.86197      1347.6521      1843.5141      134.05458      301.60731      0.11606883   
    690000   504.13972      1374.5687      1878.7084      168.54185      307.63129      0.11607184   
    691000   499.38951      1426.6852      1926.0747      180.06591      319.29507      0.11709009   
    692000   500.21481      1388.7372      1888.952       155.17552      310.80224      0.11832803   
    693000   506.73754      1353.0706      1859.8081      89.515305      302.81997      0.11867228   
    694000   501.65793      1349.6904      1851.3484      95.074066      302.06349      0.11674757   
    695000   515.58401      1369.3355      1884.9195      46.403436      306.46009      0.10933615   
    696000   521.56101      1395.1389      1916.6999      78.795117      312.23496      0.10725207   
    697000   534.40587      1358.3922      1892.7981      104.19879      304.01096      0.10788594   
    698000   513.40038      1375.5978      1888.9981      143.90928      307.8616       0.11079651   
    699000   505.59856      1367.7061      1873.3047      164.05869      306.09543      0.11467287   
    700000   524.9552       1327.9595      1852.9147      124.01117      297.20006      0.11549755   
    701000   520.07044      1356.0354      1876.1058      76.851245      303.48351      0.1160366    
    702000   483.96221      1344.2985      1828.2607      59.453139      300.85677      0.11608541   
    703000   491.93911      1337.1464      1829.0855      41.21882       299.25611      0.11685541   
    704000   508.47079      1306.6029      1815.0737      60.771683      292.42041      0.1182959    
    705000   498.56844      1294.2974      1792.8659      90.734037      289.66642      0.11851833   
    706000   488.4237       1318.6825      1807.1061      127.83762      295.12384      0.11576213   
    707000   506.20826      1366.9501      1873.1583      118.07188      305.92623      0.11145658   
    708000   491.91768      1364.4607      1856.3783      114.03154      305.3691       0.10956238   
    709000   497.72729      1379.4356      1877.1629      98.032715      308.72052      0.10978181   
    710000   507.38616      1373.2077      1880.5938      116.26175      307.3267       0.11270454   
    711000   501.88531      1374.12        1876.0053      106.21542      307.53087      0.1152737    
    712000   508.89217      1365.2766      1874.1688      100.08692      305.55172      0.11850465   
    713000   491.02969      1339.5842      1830.6139      76.681045      299.8017       0.1222356    
    714000   485.71445      1345.229       1830.9434      109.42432      301.065        0.12579204   
    715000   501.91844      1376.6246      1878.5431      156.3205       308.09142      0.12569886   
    716000   517.05629      1327.6719      1844.7282      144.51286      297.1357       0.12143984   
    717000   492.10162      1369.7182      1861.8198      128.73045      306.54573      0.11829163   
    718000   497.47631      1368.4636      1865.9399      87.50061       306.26495      0.1169048    
    719000   491.48146      1322.0221      1813.5035      100.91017      295.87125      0.11699711   
    720000   498.54941      1286.8759      1785.4253      109.251        288.00547      0.11804438   
    721000   490.21198      1285.5554      1775.7674      138.0295       287.70995      0.11915231   
    722000   480.2369       1323.0258      1803.2627      180.97187      296.09589      0.12108054   
    723000   483.70768      1325.9477      1809.6554      159.09943      296.74983      0.12127267   
    724000   494.33847      1318.2956      1812.6341      101.51122      295.03726      0.11640553   
    725000   511.83811      1323.1069      1834.945       53.016987      296.11405      0.11038298   
    726000   514.63101      1307.5338      1822.1648      21.876931      292.62875      0.10898244   
    727000   507.29233      1338.006       1845.2983      56.652272      299.44849      0.10962032   
    728000   514.94104      1370.7646      1885.7056      55.174485      306.77993      0.11083416   
    729000   521.16674      1371.3536      1892.5204      92.5314        306.91176      0.11371291   
    730000   501.15911      1363.3304      1864.4895      169.11599      305.11614      0.11762282   
    731000   498.89586      1351.6493      1850.5452      168.85313      302.50189      0.1190962    
    732000   478.13575      1389.6156      1867.7514      162.97385      310.99883      0.11817005   
    733000   471.94128      1362.9483      1834.8896      140.36421      305.03063      0.11586464   
    734000   487.68896      1334.6064      1822.2953      99.328202      298.68764      0.11430737   
    735000   530.36316      1327.0002      1857.3634      75.096637      296.98537      0.11453216   
    736000   487.67529      1361.9455      1849.6208      95.291358      304.8062       0.11598621   
    737000   472.17431      1360.3416      1832.5159      99.87733       304.44724      0.11785795   
    738000   495.33699      1315.8697      1811.2067      104.00642      294.49433      0.1197381    
    739000   496.97058      1326.5276      1823.4982      107.66706      296.87961      0.12085515   
    740000   494.33488      1325.506       1819.8408      93.008538      296.65095      0.12130338   
    741000   523.24996      1317.9335      1841.1835      70.591681      294.95622      0.12199957   
    742000   524.21944      1318.9029      1843.1224      64.7371        295.17318      0.12215576   
    743000   499.28951      1376.5263      1875.8158      117.58782      308.0694       0.1191227    
    744000   512.36711      1377.9881      1890.3552      129.97539      308.39657      0.11390636   
    745000   538.06483      1349.568       1887.6328      154.08068      302.03609      0.11069821   
    746000   516.10067      1347.4971      1863.5978      137.60969      301.57262      0.11014701   
    747000   490.90478      1356.3613      1847.2661      121.17231      303.55644      0.11228879   
    748000   479.42478      1293.957       1773.3818      46.36004       289.59024      0.11480079   
    749000   500.88049      1300.0074      1800.8879      17.736489      290.94432      0.11731429   
    750000   470.32409      1323.1505      1793.4746      62.490506      296.12379      0.11820694   
    751000   502.86906      1314.3076      1817.1767      95.568134      294.14475      0.11705835   
    752000   486.01321      1361.3744      1847.3876      142.44035      304.67838      0.11625455   
    753000   495.58734      1397.5173      1893.1046      146.9554       312.76724      0.11522975   
    754000   536.33393      1351.4579      1887.7918      82.494368      302.45905      0.11400851   
    755000   519.23047      1344.3176      1863.548       33.283283      300.86103      0.1130619    
    756000   503.40396      1362.5424      1865.9464      28.905924      304.93979      0.11367765   
    757000   510.90915      1382.5601      1893.4693      80.598542      309.4198       0.11521972   
    758000   487.33902      1317.2673      1804.6063      157.78363      294.80713      0.11828894   
    759000   480.35358      1327.1385      1807.4921      209.54978      297.01633      0.12130514   
    760000   481.51256      1330.9984      1812.511       176.59128      297.88018      0.12142153   
    761000   505.62208      1321.8926      1827.5147      87.117927      295.84228      0.11789672   
    762000   511.19054      1333.0501      1844.2406      12.195348      298.33934      0.11373672   
    763000   499.29666      1295.2266      1794.5233     -28.280749      289.87438      0.11162064   
    764000   480.7933       1285.4089      1766.2022      18.769771      287.67714      0.11193281   
    765000   501.82336      1307.76        1809.5833      65.206172      292.67937      0.11313519   
    766000   500.62008      1342.5317      1843.1518      141.56723      300.46136      0.11475763   
    767000   519.59875      1327.8394      1847.4381      211.05643      297.17318      0.11524209   
    768000   479.71263      1325.1021      1804.8147      213.43598      296.56056      0.11416456   
    769000   500.80509      1331.151       1831.9561      190.61161      297.91432      0.11480555   
    770000   502.59201      1325.6158      1828.2078      138.60814      296.67554      0.11613019   
    771000   513.68817      1345.0092      1858.6974      99.292978      301.01583      0.11677654   
    772000   486.38572      1357.1301      1843.5158      112.99908      303.7285       0.11806517   
    773000   505.95351      1335.6462      1841.5997      118.53177      298.92036      0.11919249   
    774000   489.23131      1289.4013      1778.6326      115.78954      288.57066      0.11932146   
    775000   499.26438      1316.4309      1815.6952      75.898798      294.61993      0.11697884   
    776000   493.60452      1319.4942      1813.0987      35.474569      295.30551      0.1121638    
    777000   506.36961      1347.9717      1854.3413      65.748428      301.67884      0.10885833   
    778000   494.1138       1371.1082      1865.222       80.518222      306.85682      0.10725749   
    779000   507.94353      1366.0508      1873.9943      93.633252      305.72497      0.10937215   
    780000   515.82193      1366.7146      1882.5365      85.845774      305.87353      0.11323486   
    781000   492.27272      1356.0325      1848.3053      105.73609      303.48287      0.11636179   
    782000   496.64511      1354.2442      1850.8893      94.475327      303.08263      0.11765302   
    783000   529.36512      1357.4901      1886.8552      104.69654      303.80907      0.11892733   
    784000   501.42603      1353.8401      1855.2661      93.351526      302.99219      0.11921314   
    785000   505.90223      1371.1817      1877.084       87.748517      306.87329      0.11858721   
    786000   516.46776      1321.1889      1837.6566      83.395494      295.68478      0.11639831   
    787000   496.52077      1331.7085      1828.2292      105.86263      298.03909      0.11431625   
    788000   491.45787      1343.8446      1835.3025      145.77124      300.75518      0.11441555   
    789000   504.64664      1331.5152      1836.1619      143.99279      297.99584      0.1145708    
    790000   482.29382      1290.719       1773.0128      132.00505      288.86556      0.11497517   
    791000   489.9529       1315.8602      1805.8131      99.522115      294.49221      0.11715669   
    792000   482.56663      1320.5474      1803.1141      73.802753      295.54123      0.11906402   
    793000   455.12081      1358.247       1813.3678      43.383744      303.97847      0.11945893   
    794000   488.52537      1302.3132      1790.8386      63.770309      291.46037      0.11964545   
    795000   492.37892      1317.7509      1810.1298      132.34969      294.91535      0.11821936   
    796000   493.45735      1326.7083      1820.1657      149.73337      296.92005      0.11446981   
    797000   485.25477      1307.9001      1793.1549      150.27045      292.71073      0.1113331    
    798000   507.45955      1271.165       1778.6246      131.02958      284.48934      0.1097403    
    799000   528.84923      1301.5222      1830.3715      56.828325      291.28335      0.10916975   
    800000   517.50147      1320.8011      1838.3026      19.011994      295.59799      0.11153526   
    801000   509.9268       1312.1666      1822.0934      20.144751      293.66558      0.11547277   
    802000   517.62273      1294.5194      1812.1421      30.991223      289.7161       0.11859904   
    803000   474.13676      1323.2257      1797.3624      87.678716      296.14062      0.1199173    
    804000   471.59649      1291.513       1763.1095      170.13094      289.04327      0.1203304    
    805000   491.22398      1342.0282      1833.2522      209.02371      300.34867      0.11863453   
    806000   497.13978      1338.84        1835.9797      203.60135      299.63513      0.11639188   
    807000   511.06086      1307.1669      1818.2277      133.27243      292.54663      0.11425395   
    808000   511.27667      1308.7653      1820.042       87.757562      292.90437      0.11408135   
    809000   497.18729      1369.1675      1866.3548      23.849822      306.42249      0.11441314   
    810000   513.08696      1323.268       1836.3549     -19.012244      296.15009      0.11564346   
    811000   501.0846       1328.1964      1829.281       11.450592      297.25309      0.11902628   
    812000   493.54265      1328.5407      1822.0833      70.175961      297.33013      0.1243031    
    813000   468.34449      1305.6318      1773.9763      126.84447      292.20308      0.12647539   
    814000   477.53153      1347.1873      1824.7188      176.39938      301.50329      0.12318661   
    815000   512.13854      1326.738       1838.8765      197.49262      296.92669      0.11833375   
    816000   512.81168      1367.2947      1880.1064      163.06483      306.00336      0.11621729   
    817000   505.53176      1353.7869      1859.3187      145.44067      302.9803       0.1161536    
    818000   502.02436      1360.9707      1862.9951      118.10763      304.58804      0.11605033   
    819000   522.38155      1370.7999      1893.1815      86.502803      306.78784      0.11615106   
    820000   487.15076      1352.8177      1839.9685      93.775482      302.76339      0.11672706   
    821000   502.06821      1349.099       1851.1672      96.480204      301.93113      0.11854943   
    822000   491.51686      1384.9206      1876.4374      122.93864      309.94807      0.12178061   
    823000   473.8819       1356.0066      1829.8885      159.80116      303.47706      0.12578743   
    824000   485.73486      1345.0151      1830.75        149.54584      301.01714      0.12833364   
    825000   493.03597      1370.5405      1863.5765      96.650724      306.72978      0.12551121   
    826000   515.69507      1373.9246      1889.6196      71.617118      307.48714      0.11799647   
    827000   490.72596      1345.0266      1835.7526      51.477         301.01972      0.11503394   
    828000   494.67944      1318.8164      1813.4959      73.727318      295.15383      0.11546723   
    829000   485.2596       1333.1379      1818.3975      92.938285      298.35899      0.11701522   
    830000   491.5435       1330.6121      1822.1557      111.23252      297.79373      0.11939734   
    831000   479.80778      1304.3727      1784.1805      122.82121      291.92129      0.119905     
    832000   493.98211      1363.3851      1857.3672      141.07008      305.12839      0.11834087   
    833000   527.30554      1348.8773      1876.1828      146.2461       301.8815       0.11484071   
    834000   515.9855       1354.8718      1870.8573      134.29309      303.22308      0.11128604   
    835000   510.16369      1372.9384      1883.1021      98.26092       307.26643      0.10926149   
    836000   528.90005      1378.7806      1907.6806      85.221102      308.57392      0.1098968    
    837000   516.29069      1388.6944      1904.9851      60.587771      310.79266      0.11467476   
    838000   503.42189      1345.5189      1848.9408      75.551258      301.12989      0.12154384   
    839000   494.39332      1347.9044      1842.2977      89.153864      301.66377      0.12447819   
    840000   504.99561      1343.5116      1848.5072      62.091878      300.68065      0.12402256   
    841000   502.08531      1363.8569      1865.9422      58.684561      305.23397      0.12256849   
    842000   498.33889      1322.6497      1820.9886      22.605789      296.01171      0.11932857   
    843000   479.5081       1364.5075      1844.0156      22.568181      305.37958      0.11589309   
    844000   506.20991      1333.0675      1839.2774      29.082226      298.34325      0.11529468   
    845000   497.33195      1338.0975      1835.4295      85.130771      299.46897      0.11785045   
    846000   476.05296      1315.2721      1791.325       128.7385       294.36059      0.12053065   
    847000   464.89245      1295.6432      1760.5356      153.57021      289.96761      0.12127676   
    848000   496.92486      1279.6891      1776.6139      170.6265       286.39704      0.12028124   
    849000   484.70368      1337.5761      1822.2798      174.96731      299.35228      0.11878258   
    850000   479.29455      1344.1595      1823.454       114.68387      300.82565      0.11788938   
    851000   498.7342       1332.1499      1830.8841      50.229528      298.13787      0.11778953   
    852000   489.73959      1316.9124      1806.652       36.646811      294.7277       0.11882849   
    853000   479.89212      1316.5828      1796.475       32.98562       294.65394      0.12010399   
    854000   493.33645      1313.7997      1807.1361      58.641217      294.03106      0.12181443   
    855000   479.1948       1311.7129      1790.9077      89.809141      293.56403      0.1258219    
    856000   491.7571       1294.0832      1785.8403      150.91773      289.61848      0.13100002   
    857000   475.185        1339.8513      1815.0363      159.24399      299.86146      0.13329452   
    858000   495.53214      1327.5149      1823.047       157.55291      297.10055      0.13027518   
    859000   489.80668      1347.4409      1837.2475      124.34335      301.56003      0.12527457   
    860000   487.82873      1358.4399      1846.2686      145.2151       304.02164      0.12385261   
    861000   504.81904      1389.6314      1894.4504      126.33225      311.00236      0.12229205   
    862000   472.57435      1365.555       1838.1294      114.27458      305.61402      0.12033702   
    863000   502.46198      1348.0371      1850.4991      99.914018      301.69347      0.11981022   
    864000   485.64409      1353.2289      1838.873       92.200346      302.85541      0.1205796    
    865000   499.92513      1359.8585      1859.7836      71.562235      304.33912      0.12170652   
    866000   481.66728      1368.1546      1849.8219      64.422129      306.19582      0.12247661   
    867000   507.62686      1325.1391      1832.766       26.378237      296.56886      0.12307192   
    868000   479.21477      1343.4398      1822.6546      61.420032      300.66458      0.1238504    
    869000   492.57118      1334.7306      1827.3018      106.7077       298.71545      0.12329092   
    870000   481.48239      1290.4503      1771.9327      135.42627      288.80543      0.12130288   
    871000   501.32247      1279.3256      1780.648       113.47779      286.31569      0.11967936   
    872000   511.85814      1306.6369      1818.495       108.57924      292.42801      0.12126932   
    873000   465.85863      1335.9328      1801.7915      106.26773      298.98451      0.12622468   
    874000   490.76222      1306.7647      1797.527       100.41427      292.45663      0.13050653   
    875000   472.94978      1310.4507      1783.4005      113.11446      293.28156      0.13061912   
    876000   500.43917      1327.526       1827.9652      123.7815       297.10304      0.12924906   
    877000   481.94749      1323.6949      1805.6424      138.27574      296.24565      0.12660524   
    878000   476.4898       1344.5339      1821.0237      128.24388      300.90944      0.12498349   
    879000   482.88838      1374.6448      1857.5332      141.54286      307.64833      0.12428836   
    880000   508.14428      1391.6942      1899.8385      131.50832      311.46402      0.12235633   
    881000   502.87141      1418.1761      1921.0475      143.96876      317.39072      0.12069251   
    882000   510.02525      1366.5289      1876.5542      125.54141      305.83198      0.11865339   
    883000   497.54625      1356.371       1853.9173      96.455768      303.55862      0.1157862    
    884000   508.68876      1358.1307      1866.8195      93.904677      303.95245      0.11352016   
    885000   541.3554       1317.1279      1858.4833      79.289386      294.77592      0.11300948   
    886000   525.96534      1344.0317      1869.997       75.191436      300.79704      0.11653248   
    887000   516.13628      1362.2002      1878.3365      73.369749      304.8632       0.12310994   
    888000   482.54588      1384.8992      1867.4451      84.767394      309.94328      0.12567054   
    889000   485.58365      1335.2905      1820.8741      101.79948      298.84075      0.12633949   
    890000   469.71483      1324.5493      1794.2641      113.76023      296.43686      0.1253006    
    891000   504.20289      1317.8087      1822.0116      123.61699      294.9283       0.12148411   
    892000   505.89865      1305.4322      1811.3308      116.66386      292.1584       0.11716092   
    893000   484.5873       1329.1841      1813.7714      127.99119      297.47414      0.11500191   
    894000   507.24475      1321.6417      1828.8864      92.188602      295.78612      0.11379741   
    895000   517.13833      1316.278       1833.4163      84.404923      294.58572      0.1151446    
    896000   516.27272      1315.3999      1831.6726      66.209632      294.38919      0.11619189   
    897000   502.91166      1324.23        1827.1416      71.078163      296.36539      0.11781667   
    898000   527.52748      1307.366       1834.8934      70.194971      292.59119      0.12048619   
    899000   517.7987       1328.5613      1846.36        99.617183      297.33474      0.12258096   
    900000   484.23198      1356.6295      1840.8615      74.107031      303.61647      0.12165904   
    901000   518.72419      1348.7831      1867.5073      111.15163      301.86043      0.11937345   
    902000   533.61567      1376.799       1910.4146      93.820552      308.13044      0.11406376   
    903000   519.10058      1386.4591      1905.5596      132.07506      310.29239      0.11183712   
    904000   523.77005      1371.0714      1894.8415      123.03172      306.8486       0.11159492   
    905000   533.01237      1350.7712      1883.7836      71.586812      302.30537      0.11213407   
    906000   511.08013      1340.0167      1851.0968      39.742394      299.89849      0.1132416    
    907000   492.69871      1336.9262      1829.6249      56.502633      299.20683      0.115017     
    908000   492.65336      1297.1713      1789.8246      70.676082      290.3096       0.11611035   
    909000   502.83666      1310.2974      1813.1341      100.04469      293.24725      0.11841501   
    910000   475.97762      1328.2477      1804.2254      133.47431      297.26457      0.11998949   
    911000   460.44263      1337.0902      1797.5329      138.34254      299.24354      0.11966783   
    912000   514.76353      1366.1108      1880.8744      97.794886      305.73841      0.11841684   
    913000   497.99245      1371.4407      1869.4331      30.176312      306.93123      0.11626235   
    914000   506.55958      1343.745       1850.3046      23.567791      300.73289      0.11622991   
    915000   513.83645      1339.4097      1853.2462      78.567481      299.76264      0.11796961   
    916000   497.08045      1357.235       1854.3154      130.61594      303.75197      0.12043613   
    917000   489.704        1343.3717      1833.0757      165.56469      300.64934      0.12184691   
    918000   498.77827      1353.2843      1852.0626      142.40942      302.86781      0.12170973   
    919000   476.60577      1343.0705      1819.6763      107.35995      300.58194      0.11881563   
    920000   516.69239      1315.2747      1831.9671      81.165055      294.36118      0.11439444   
    921000   524.46088      1366.3045      1890.7654      70.596056      305.78176      0.11134292   
    922000   495.85906      1345.1005      1840.9596      82.455786      301.03626      0.11114326   
    923000   517.94899      1338.2663      1856.2153      104.62073      299.50675      0.11296423   
    924000   519.2947       1331.8742      1851.1689      86.040278      298.07618      0.11714863   
    925000   504.73181      1381.9451      1886.677       126.49082      309.28216      0.1206854    
    926000   515.92089      1354.7904      1870.7113      138.5737       303.20486      0.12064567   
    927000   513.63425      1343.2153      1856.8496      127.02322      300.61435      0.11942274   
    928000   516.34143      1353.2212      1869.5626      119.78162      302.85368      0.11809347   
    929000   502.15758      1346.8994      1849.057       92.398487      301.43885      0.11716535   
    930000   511.71243      1316.8336      1828.5461      66.534188      294.71007      0.11754695   
    931000   512.20907      1325.7361      1837.9451      78.974181      296.70246      0.11698634   
    932000   525.6828       1366.9833      1892.6661      87.020393      305.93367      0.11465405   
    933000   534.84555      1365.85        1900.6955      87.515052      305.68003      0.11017155   
    934000   529.19983      1393.1662      1922.3661      98.365687      311.79346      0.10762411   
    935000   520.48937      1370.3305      1890.8199      84.312419      306.68278      0.10747714   
    936000   520.30869      1344.6954      1865.0041      70.56156       300.94559      0.11036418   
    937000   525.23197      1345.353       1870.585       51.221317      301.09277      0.11496382   
    938000   469.3161       1375.9093      1845.2254      89.750624      307.93133      0.11789809   
    939000   526.81804      1371.5869      1898.4049      86.333556      306.96395      0.11737004   
    940000   508.08388      1354.2395      1862.3234      116.68311      303.08159      0.11563643   
    941000   522.94429      1396.5019      1919.4462      118.29577      312.53998      0.11281587   
    942000   553.29929      1335.276       1888.5753      120.63571      298.83751      0.10998307   
    943000   530.77446      1329.3268      1860.1012      90.334497      297.50606      0.10938289   
    944000   481.00321      1339.1673      1820.1706      92.816323      299.7084       0.1118655    
    945000   483.90707      1333.1021      1817.0092      86.764807      298.35099      0.11589477   
    946000   473.08865      1304.6516      1777.7403      93.725667      291.98372      0.11893022   
    947000   480.10473      1279.2612      1759.366       78.389103      286.30129      0.1195655    
    948000   486.31516      1306.5111      1792.8263      42.36829       292.39987      0.11775755   
    949000   519.57859      1298.5903      1818.1689      24.70658       290.62717      0.11581514   
    950000   500.61107      1320.5433      1821.1544      56.552216      295.5403       0.11421363   
    951000   479.21922      1325.3423      1804.5615      84.161926      296.61433      0.11399268   
    952000   511.08002      1310.6342      1821.7143      120.58861      293.32263      0.11538367   
    953000   510.87472      1291.3002      1802.1749      143.11645      288.99562      0.11595929   
    954000   518.16687      1338.9453      1857.1121      131.27471      299.6587       0.11520152   
    955000   531.67105      1325.037       1856.7081      128.55866      296.546        0.11374838   
    956000   501.20351      1348.1238      1849.3273      100.25902      301.71288      0.11297809   
    957000   506.08706      1383.8536      1889.9406      96.429848      309.70927      0.11423845   
    958000   524.9243       1360.5963      1885.5206      63.182088      304.50424      0.1167669    
    959000   504.35082      1364.476       1868.8268      54.870398      305.37252      0.11782792   
    960000   476.08053      1382.388       1858.4686      72.74786       309.38128      0.11643042   
    961000   536.05324      1353.5343      1889.5875      66.426555      302.92375      0.11062736   
    962000   527.58389      1373.0563      1900.6402      101.97655      307.29281      0.10697511   
    963000   528.95715      1385.2942      1914.2514      149.02906      310.0317       0.1069521    
    964000   517.12262      1354.7003      1871.8229      137.19289      303.1847       0.10867207   
    965000   520.37294      1342.4178      1862.7907      134.08708      300.43586      0.11241416   
    966000   544.72103      1343.4009      1888.1219      76.623061      300.65588      0.11636736   
    967000   493.46039      1351.3262      1844.7866      42.554729      302.42958      0.1162709    
    968000   507.85438      1369.1438      1876.9982      32.829644      306.41719      0.11450906   
    969000   507.66547      1352.9209      1860.5864      54.677032      302.78648      0.11254752   
    970000   525.60495      1350.9036      1876.5086      119.64931      302.335        0.11161752   
    971000   513.99151      1387.62        1901.6115      113.14266      310.55219      0.11100439   
    972000   539.91133      1388.7159      1928.6272      112.23857      310.79747      0.11088485   
    973000   520.41853      1377.2083      1897.6268      98.194816      308.22205      0.11074372   
    974000   513.58912      1364.7184      1878.3075      99.341922      305.42678      0.11096059   
    975000   529.37302      1328.406       1857.779       112.91066      297.29998      0.11077973   
    976000   529.95701      1366.6015      1896.5585      126.8711       305.84821      0.11049577   
    977000   489.06908      1363.0224      1852.0915      113.03473      305.04721      0.10894752   
    978000   526.16489      1313.6558      1839.8207      108.02492      293.99887      0.10704906   
    979000   527.88096      1322.7374      1850.6184      96.768637      296.03135      0.10483232   
    980000   530.88122      1321.9329      1852.8141      99.379348      295.85129      0.10394195   
    981000   520.70423      1309.4413      1830.1455      98.924392      293.05564      0.10453527   
    982000   510.27988      1343.7848      1854.0647      108.33994      300.7418       0.10788339   
    983000   508.02859      1355.5476      1863.5762      113.05667      303.37433      0.1114652    
    984000   498.88912      1362.4095      1861.2986      103.32803      304.91004      0.11336256   
    985000   503.76016      1363.8367      1867.5969      69.242644      305.22946      0.11441456   
    986000   502.43787      1326.5914      1829.0292      43.6967        296.89387      0.11356558   
    987000   530.63147      1323.5747      1854.2061      68.590226      296.21873      0.11240514   
    988000   516.56258      1317.701       1834.2635      74.921759      294.90418      0.11161501   
    989000   502.99801      1340.0691      1843.0671      107.97284      299.91022      0.11243825   
    990000   506.84536      1343.839       1850.6844      91.468402      300.75394      0.11592166   
    991000   502.58519      1346.5629      1849.1481      48.9325        301.36355      0.11981249   
    992000   487.02846      1348.3537      1835.3821      51.400631      301.76432      0.12166702   
    993000   445.18968      1336.1285      1781.3182      88.586115      299.02831      0.12011286   
    994000   507.66952      1316.7322      1824.4017      114.07064      294.68736      0.11689073   
    995000   511.27958      1300.3685      1811.648       167.53186      291.02513      0.11446977   
    996000   520.32109      1309.9713      1830.2924      216.61512      293.17427      0.11257476   
    997000   513.1624       1347.3682      1860.5306      208.95673      301.54376      0.11053009   
    998000   537.4352       1358.4164      1895.8516      151.17432      304.01638      0.10943751   
    999000   519.13052      1338.9714      1858.1019      93.476839      299.66455      0.10973199   
   1000000   519.12605      1349.5756      1868.7017      12.775889      302.03779      0.11101633   
   1001000   529.94473      1344.7063      1874.651      -32.821104      300.94802      0.11486227   
   1002000   523.78482      1376.3689      1900.1537      20.313477      308.03418      0.1187689    
   1003000   512.46769      1372.2615      1884.7292      79.396391      307.11494      0.11903651   
   1004000   495.35699      1351.6691      1847.026       146.95002      302.50631      0.11699396   
   1005000   500.18985      1352.1822      1852.372       157.43514      302.62114      0.11395754   
   1006000   504.263        1337.7799      1842.0429      169.138        299.39788      0.11075313   
   1007000   513.88229      1331.5331      1845.4154      148.00059      297.99984      0.10911388   
   1008000   517.55279      1308.1841      1825.7369      122.5657       292.77428      0.1097028    
   1009000   523.51654      1320.2533      1843.7699      100.59866      295.4754       0.11101356   
   1010000   489.21322      1346.9444      1836.1576      58.242566      301.44892      0.11189494   
   1011000   487.59454      1325.1029      1812.6974      17.013024      296.56075      0.11330355   
   1012000   523.9775       1322.6812      1846.6587      9.2252802      296.01876      0.11456905   
   1013000   508.10241      1306.4525      1814.5549      22.829134      292.38676      0.11460454   
   1014000   494.38325      1262.8141      1757.1973      76.666889      282.62038      0.11368342   
   1015000   493.34343      1301.2635      1794.6069      125.0422       291.22544      0.11246235   
   1016000   513.06991      1303.2782      1816.3481      177.71095      291.67633      0.1121442    
   1017000   493.58901      1332.0862      1825.6752      156.95907      298.12363      0.11137159   
   1018000   506.6329       1323.4956      1830.1286      81.780613      296.20104      0.11035203   
   1019000   497.5535       1339.2839      1836.8374      16.4861        299.73448      0.1113058    
   1020000   491.22267      1311.471       1802.6936     -29.635335      293.50989      0.11486894   
   1021000   488.38614      1374.3383      1862.7245      12.875156      307.57974      0.11996913   
   1022000   502.72676      1321.096       1823.8227      89.638303      295.66399      0.1216659    
   1023000   501.60445      1336.861       1838.4655      157.9453       299.19225      0.1211635    
   1024000   508.59934      1336.5201      1845.1195      198.80434      299.11595      0.11861229   
   1025000   507.28217      1342.6972      1849.9794      200.13261      300.49839      0.1153958    
   1026000   525.15976      1392.3665      1917.5263      147.41694      311.61449      0.11316151   
   1027000   526.4912       1392.3689      1918.8601      78.222579      311.61501      0.11200844   
   1028000   505.77448      1365.6602      1871.4347      37.687006      305.63756      0.11156113   
   1029000   512.78973      1323.9566      1836.7463      17.508448      296.30421      0.11140542   
   1030000   501.57855      1308.1748      1809.7533      33.238864      292.7722       0.11242458   
   1031000   493.93902      1306.6669      1800.6059      74.096503      292.43474      0.11329026   
   1032000   482.48279      1292.203       1774.6858      102.66992      289.19768      0.1155481    
   1033000   482.29565      1343.1532      1825.4488      144.73543      300.60044      0.12058061   
   1034000   487.10637      1352.1398      1839.2462      136.98815      302.61167      0.12393541   
   1035000   505.6719       1355.5517      1861.2236      92.897552      303.37526      0.12367411   
   1036000   531.51845      1369.4248      1900.9433      75.2837        306.48008      0.1216532    
   1037000   511.9151       1343.6199      1855.535       96.542805      300.7049       0.11701984   
   1038000   502.93207      1350.3143      1853.2464      105.44803      302.20312      0.11216242   
   1039000   524.98903      1332.4666      1857.4556      112.84068      298.20876      0.11076259   
   1040000   511.75126      1348.3859      1860.1371      93.641728      301.77153      0.11047802   
   1041000   491.93301      1352.0511      1843.9841      49.642139      302.59182      0.11036787   
   1042000   517.58572      1331.2346      1848.8204      58.015374      297.93305      0.11230434   
   1043000   503.74247      1342.2713      1846.0138      87.70104       300.40308      0.11491785   
   1044000   512.40558      1338.6011      1851.0067      100.77704      299.58167      0.11668264   
   1045000   527.86081      1341.0313      1868.8921      117.37882      300.12555      0.11721664   
   1046000   509.77364      1339.6986      1849.4723      133.70707      299.8273       0.1176322    
   1047000   495.91766      1364.8423      1860.7599      111.59149      305.4545       0.11765392   
   1048000   521.38643      1388.7045      1910.091       123.22134      310.79492      0.117732     
   1049000   533.30865      1349.2408      1882.5494      52.182575      301.96286      0.11350875   
   1050000   511.08662      1365.172       1876.2586      14.2859        305.5283       0.11055096   
   1051000   504.60076      1366.3773      1870.9781      28.166937      305.79805      0.11083194   
   1052000   497.4377       1347.9103      1845.348       82.873146      301.66509      0.11273339   
   1053000   519.46756      1297.9021      1817.3696      135.23115      290.47315      0.11591763   
   1054000   482.03595      1356.8165      1838.8524      202.07669      303.65831      0.12077636   
   1055000   492.05759      1349.9733      1842.0309      182.20081      302.1268       0.12264759   
   1056000   492.43512      1352.0601      1844.4952      71.37071       302.59383      0.12143427   
   1057000   500.67083      1325.9464      1826.6173      4.9016626      296.74954      0.11855725   
   1058000   502.00762      1278.8715      1780.8791     -16.554511      286.21406      0.11570936   
   1059000   491.79284      1296.3692      1788.1621      28.804433      290.13009      0.11430237   
   1060000   507.83162      1304.6321      1812.4637      119.84395      291.97933      0.11418233   
   1061000   510.93404      1324.6038      1835.5379      158.15638      296.44905      0.11443957   
   1062000   493.45593      1318.4636      1811.9196      145.44359      295.07487      0.11547731   
   1063000   486.51708      1338.1514      1824.6684      74.700797      299.48102      0.11602818   
   1064000   472.92796      1307.5116      1780.4395      19.845449      292.62377      0.11558616   
   1065000   520.52864      1317.7755      1838.3042      18.382191      294.92087      0.11605311   
   1066000   506.36316      1343.0566      1849.4198      81.102435      300.57883      0.1163799    
   1067000   515.84318      1334.0636      1849.9068      133.94919      298.56617      0.11637428   
   1068000   499.38574      1329.8463      1829.232       168.86946      297.62233      0.11514524   
   1069000   491.02483      1335.6908      1826.7156      175.27492      298.93035      0.11276245   
   1070000   492.75367      1360.7448      1853.4985      115.27332      304.53748      0.10815115   
   1071000   536.57167      1357.7613      1894.3329      69.175161      303.86976      0.10516805   
   1072000   557.54345      1329.2675      1886.811       19.580112      297.4928       0.10480862   
   1073000   514.18775      1362.3333      1876.5211      5.2039286      304.89299      0.10668049   
   1074000   511.62934      1376.9045      1888.5338      59.326993      308.15405      0.11045884   
   1075000   536.87166      1395.3032      1932.1749      101.81601      312.27173      0.11235019   
   1076000   508.47256      1379.4899      1887.9625      173.94052      308.73267      0.11287257   
   1077000   513.62282      1356.1284      1869.7512      216.92111      303.50431      0.11420762   
   1078000   514.72636      1353.0438      1867.7702      196.66601      302.81399      0.11582678   
   1079000   488.5601       1406.0924      1894.6525      151.82793      314.68636      0.11681691   
   1080000   530.14035      1337.0438      1867.1842      81.938232      299.23315      0.11751856   
   1081000   495.04609      1362.4863      1857.5324      33.864588      304.92723      0.1183274    
   1082000   512.25582      1333.9281      1846.1839      0.040079729    298.53585      0.11939543   
   1083000   503.75426      1329.3151      1833.0694      10.601492      297.50345      0.12202117   
   1084000   497.4876       1323.1715      1820.6591      55.895354      296.12851      0.12372298   
   1085000   491.86498      1331.6738      1823.5388      114.95051      298.03134      0.122539     
   1086000   492.53744      1343.5578      1836.0953      108.2862       300.691        0.11713288   
   1087000   510.0442       1336.6302      1846.6744      135.55727      299.14058      0.11379939   
   1088000   513.56365      1336.4466      1850.0102      172.58225      299.09948      0.11325688   
   1089000   504.90676      1366.9111      1871.8178      134.78634      305.91751      0.11354604   
   1090000   490.2562       1359.9768      1850.233       106.05467      304.36559      0.11460341   
   1091000   509.85612      1350.4069      1860.263       94.19168       302.22383      0.1159163    
   1092000   516.75405      1335.428       1852.1821      78.384376      298.87153      0.11630175   
   1093000   520.35693      1312.9884      1833.3453      89.574913      293.8495       0.11554548   
   1094000   488.48282      1285.1158      1773.5986      101.76921      287.61155      0.11252301   
   1095000   506.97461      1317.2592      1824.2338      92.498588      294.80531      0.10917814   
   1096000   507.52284      1313.8562      1821.3791      55.370229      294.04372      0.10799959   
   1097000   496.44091      1333.0192      1829.4601      32.221254      298.33244      0.10945041   
   1098000   511.47031      1322.4754      1833.9457      44.849734      295.9727       0.11176064   
   1099000   518.46822      1338.8141      1857.2823      89.342258      299.62934      0.11524456   
   1100000   481.74088      1295.7098      1777.4507      172.36496      289.98251      0.12012192   
   1101000   492.9561       1339.6988      1832.6549      192.64631      299.82734      0.12204432   
   1102000   536.63251      1321.7865      1858.419       183.30341      295.81854      0.12090148   
   1103000   509.31708      1316.9276      1826.2447      125.06254      294.7311       0.11900187   
   1104000   509.01316      1351.7486      1860.7618      57.211595      302.52412      0.11766896   
   1105000   519.78853      1345.5894      1865.378       12.008256      301.14568      0.11517288   
   1106000   521.35504      1362.7417      1884.0968      27.201423      304.98439      0.11343094   
   1107000   529.07065      1399.0461      1928.1168      95.220724      313.10939      0.11342814   
   1108000   525.95473      1383.9542      1909.909       168.44656      309.7318       0.11427752   
   1109000   540.94621      1359.73        1900.6762      165.44258      304.31035      0.11579252   
   1110000   522.50865      1343.1855      1865.6942      116.23833      300.60768      0.1181221    
   1111000   473.60621      1355.9889      1829.5951      52.374412      303.4731       0.1218349    
   1112000   484.66988      1331.8787      1816.5486      9.163492       298.07719      0.12842135   
   1113000   482.48651      1311.8426      1794.3291      4.0357682      293.59306      0.13375693   
   1114000   486.78013      1327.1307      1813.9108      47.479194      297.01457      0.13313605   
   1115000   520.04001      1337.9465      1857.9865      86.936302      299.43517      0.12909286   
   1116000   526.55963      1330.0504      1856.61        94.492134      297.66801      0.12450807   
   1117000   481.9969       1370.4646      1852.4615      127.47362      306.71279      0.12047693   
   1118000   493.92757      1364.8001      1858.7277      148.23266      305.44507      0.11780102   
   1119000   499.09922      1308.7133      1807.8125      162.39034      292.89272      0.11703737   
   1120000   515.53093      1343.3821      1858.9131      160.71103      300.65168      0.11691376   
   1121000   483.75734      1343.4721      1827.2294      125.64934      300.67181      0.11713495   
   1122000   481.83936      1350.6581      1832.4975      86.756139      302.28006      0.11885444   
   1123000   511.74024      1308.6933      1820.4335      53.872328      292.88824      0.12205289   
   1124000   466.10246      1304.8563      1770.9587      35.504318      292.02951      0.12691275   
   1125000   472.09071      1312.0082      1784.0989      81.731862      293.63013      0.13020932   
   1126000   531.04339      1348.8523      1879.8957      127.4166       301.87592      0.12858115   
   1127000   499.08824      1355.9276      1855.0158      149.14413      303.45938      0.1223592    
   1128000   509.87589      1356.4756      1866.3515      175.60039      303.58203      0.11912137   
   1129000   534.8269       1328.3571      1863.184       171.24626      297.28904      0.11681733   
   1130000   494.38746      1383.5018      1877.8893      130.48763      309.63054      0.11503569   
   1131000   493.40302      1366.9162      1860.3192      69.950705      305.91864      0.11289077   
   1132000   536.32212      1346.3233      1882.6454      33.76175       301.30991      0.1097931    
   1133000   527.07491      1332.3791      1859.454       51.183604      298.18918      0.10805126   
   1134000   508.43198      1369.7785      1878.2105      83.369787      306.55925      0.10878148   
   1135000   507.86431      1345.8917      1853.756       109.27125      301.21332      0.11187643   
   1136000   513.2897       1331.917       1845.2067      110.03979      298.08577      0.11549855   
   1137000   484.47896      1362.0551      1846.534       92.5238        304.83072      0.11765502   
   1138000   539.24087      1325.7528      1864.9936      48.603137      296.70619      0.11726837   
   1139000   505.5337       1297.3181      1802.8518      28.602262      290.34245      0.11438866   
   1140000   494.71603      1341.25        1835.9661      56.892494      300.17451      0.11249424   
   1141000   478.36096      1347.3494      1825.7104      81.398026      301.53957      0.11220882   
   1142000   507.31844      1340.8294      1848.1478      121.92156      300.08036      0.11240406   
   1143000   514.30189      1309.0524      1823.3543      122.4776       292.96861      0.11369835   
   1144000   514.38438      1333.4188      1847.8032      123.31296      298.42186      0.11722148   
   1145000   506.82408      1340.966       1847.7901      112.93026      300.11095      0.12241351   
   1146000   481.52673      1350.7894      1832.3161      113.24301      302.30943      0.12541767   
   1147000   513.76478      1311.1849      1824.9497      106.14999      293.44587      0.12266572   
   1148000   523.60537      1322.7082      1846.3136      124.12285      296.02482      0.11851053   
   1149000   520.55156      1346.5046      1867.0562      110.48246      301.3505       0.11548406   
   1150000   498.85752      1362.8534      1861.7109      89.3634        305.00939      0.11333078   
   1151000   538.01602      1349.3284      1887.3445      95.939382      301.98248      0.11288356   
   1152000   532.15436      1406.8306      1938.985       121.72613      314.85158      0.11404284   
   1153000   523.00733      1398.6067      1921.614       166.35093      313.01104      0.11666883   
   1154000   522.10111      1358.5675      1880.6686      183.46675      304.0502       0.11830152   
   1155000   496.57907      1344.0876      1840.6666      153.64428      300.80956      0.11894967   
   1156000   515.35984      1363.1057      1878.4656      139.53736      305.06586      0.12125801   
   1157000   486.57708      1378.3819      1864.959       82.888515      308.48471      0.1247331    
   1158000   521.61041      1377.3155      1898.9259      42.872146      308.24604      0.12733394   
   1159000   486.33255      1312.1434      1798.4759      42.115219      293.66038      0.1254629    
   1160000   479.93755      1346.1304      1826.0679      74.395269      301.26674      0.11937272   
   1161000   493.94584      1309.3805      1803.3263      108.98697      293.04204      0.11570469   
   1162000   510.87088      1328.9863      1839.8572      136.84057      297.42986      0.11594561   
   1163000   495.91677      1321.1746      1817.0913      122.60616      295.68158      0.11834025   
   1164000   489.53603      1331.7422      1821.2782      80.981204      298.04664      0.12048646   
   1165000   469.34093      1355.6501      1824.991       75.496476      303.39726      0.12363793   
   1166000   498.5915       1343.2635      1841.855       55.081427      300.62513      0.12414498   
   1167000   528.91587      1319.968       1848.8839      101.54757      295.41156      0.12295496   
   1168000   494.09871      1310.7004      1804.7991      129.87954      293.33744      0.11890745   
   1169000   482.02634      1345.9437      1827.97        144.64203      301.22496      0.11532018   
   1170000   504.18027      1333.7831      1837.9634      94.38845       298.5034       0.11447392   
   1171000   537.97415      1287.1381      1825.1122      41.992254      288.06414      0.11531769   
   1172000   504.15976      1338.2076      1842.3673      7.4973086      299.4936       0.11713963   
   1173000   492.5517       1326.9375      1819.4892      1.7351039      296.97134      0.119603     
   1174000   508.0107       1314.3344      1822.3451      38.948301      294.15074      0.12180886   
   1175000   467.38037      1339.181       1806.5614      98.581687      299.71146      0.12321878   
   1176000   464.57737      1346.2717      1810.8491      143.81479      301.29837      0.12331796   
   1177000   519.51146      1363.481       1882.9925      154.11664      305.14985      0.12083692   
   1178000   513.21623      1341.0088      1854.225       153.26884      300.12051      0.11865453   
   1179000   498.74072      1341.3299      1840.0706      150.02009      300.19238      0.11858025   
   1180000   508.59489      1335.967       1844.5619      173.4093       298.99216      0.11990924   
   1181000   494.37834      1323.7087      1818.087       140.12024      296.24873      0.12035848   
   1182000   522.33779      1313.1325      1835.4703      137.17035      293.88175      0.11956186   
   1183000   524.80612      1292.7312      1817.5373      138.89625      289.31589      0.118578     
   1184000   492.3129       1336.4923      1828.8052      115.02491      299.10973      0.11712764   
   1185000   498.85026      1306.7387      1805.5889      58.53796       292.4508       0.11557218   
   1186000   507.78912      1307.4998      1815.2889      66.134692      292.62114      0.11512159   
   1187000   492.8748       1363.5711      1856.4459      82.217746      305.17002      0.11463379   
   1188000   518.81262      1361.3616      1880.1743      95.26894       304.67553      0.11555455   
   1189000   504.33178      1395.0012      1899.333       95.437613      312.20413      0.1163128    
   1190000   522.51117      1386.7543      1909.2655      76.575893      310.35847      0.11693613   
   1191000   488.29694      1335.7132      1824.0101      115.99585      298.93535      0.11844286   
   1192000   485.34316      1319.5177      1804.8609      154.68514      295.31078      0.11884364   
   1193000   510.5759       1291.1144      1801.6903      161.00323      288.95405      0.11607871   
   1194000   525.43992      1290.0194      1815.4593      129.54279      288.70899      0.1117032    
   1195000   496.51228      1334.624       1831.1363      82.658109      298.69159      0.10957124   
   1196000   511.47213      1344.4414      1855.9135      32.559226      300.88875      0.10961939   
   1197000   516.30633      1313.6381      1829.9445     -7.2678088      293.99491      0.1094502    
   1198000   521.62029      1336.0237      1857.644       10.74214       299.00485      0.11228392   
   1199000   501.87475      1375.1228      1876.9975      86.421474      307.75529      0.11879464   
   1200000   501.84074      1343.0252      1844.8659      145.52633      300.57179      0.1222023    
   1201000   479.37314      1315.5137      1794.8868      204.60821      294.41466      0.12217456   
   1202000   493.7751       1303.5549      1797.33        173.10513      291.73826      0.11905928   
   1203000   507.62215      1324.3194      1831.9416      147.62818      296.3854       0.11633789   
   1204000   500.4854       1306.5881      1807.0735      119.15046      292.41709      0.11452695   
   1205000   505.18899      1334.4702      1839.6592      81.332782      298.65718      0.11244267   
   1206000   521.13339      1316.7999      1837.9333      58.651334      294.70252      0.11154446   
   1207000   511.28138      1315.8564      1827.1378      51.524491      294.49136      0.10947535   
   1208000   510.38927      1338.6831      1849.0724      53.771176      299.60003      0.1086125    
   1209000   547.00341      1363.4229      1910.4263      88.378114      305.13684      0.1104819    
   1210000   522.80002      1395.4552      1918.2552      126.42774      312.30573      0.11424429   
   1211000   503.27673      1378.6088      1881.8855      125.93661      308.53547      0.11591416   
   1212000   523.92949      1333.7984      1857.7279      98.646659      298.50683      0.11790158   
   1213000   516.15512      1338.8865      1855.0416      60.404246      299.64554      0.11995461   
   1214000   502.00671      1337.4464      1839.4531      64.364617      299.32324      0.12241087   
   1215000   495.04084      1347.0492      1842.09        97.262074      301.47237      0.12440214   
   1216000   508.75963      1287.6192      1796.3788      116.85964      288.17181      0.12549186   
   1217000   484.43929      1303.8094      1788.2487      132.28958      291.79521      0.12354045   
   1218000   499.55541      1319.6479      1819.2033      108.5317       295.33991      0.11758514   
   1219000   508.06907      1333.4999      1841.569       72.033918      298.44002      0.11346811   
   1220000   507.90879      1353.0346      1860.9434      39.427202      302.81193      0.11253777   
   1221000   507.3337       1350.6903      1858.024       45.118649      302.28725      0.11386523   
   1222000   510.77431      1327.507       1838.2813      76.373402      297.09879      0.11772477   
   1223000   537.64577      1365.4533      1903.0991      108.62199      305.59125      0.12206028   
   1224000   496.89671      1332.29        1829.1868      116.45895      298.16925      0.12268165   
   1225000   515.78092      1337.3055      1853.0864      55.502304      299.29171      0.1205666    
   1226000   526.24713      1340.8309      1867.078       23.263716      300.08071      0.12038418   
   1227000   503.50211      1388.11        1891.6121      9.7974165      310.66187      0.12042535   
   1228000   539.85905      1385.6726      1925.5316      58.396335      310.11637      0.12028416   
   1229000   532.59178      1368.0272      1900.619       66.110324      306.16729      0.11793282   
   1230000   511.66834      1348.1006      1859.7689      101.56221      301.70768      0.11538923   
   1231000   508.57123      1369.4641      1878.0353      116.31021      306.48887      0.11556971   
   1232000   498.60007      1394.8857      1893.4858      120.282        312.17829      0.11993563   
   1233000   501.34272      1370.2883      1871.631       116.61319      306.67333      0.12602016   
   1234000   512.95964      1343.0702      1856.0298      90.709211      300.58186      0.12829346   
   1235000   501.39444      1332.9942      1834.3887      92.329952      298.32685      0.12615072   
   1236000   500.61724      1326.9685      1827.5857      104.41011      296.97827      0.12219282   
   1237000   502.78023      1323.6114      1826.3916      121.81938      296.22694      0.1174913    
   1238000   501.08702      1312.7221      1813.8091      138.4992       293.78989      0.11647892   
   1239000   491.50462      1331.742       1823.2466      121.20749      298.0466       0.11685239   
   1240000   489.48276      1299.2024      1788.6851      78.024441      290.76416      0.11846549   
   1241000   505.34241      1332.2576      1837.6         128.93574      298.16198      0.12110339   
   1242000   495.94554      1342.76        1838.7055      137.32352      300.51244      0.12083817   
   1243000   497.78014      1355.0565      1852.8366      176.91056      303.26442      0.11794925   
   1244000   497.60438      1334.7021      1832.3064      125.80834      298.70906      0.1121084    
   1245000   494.4368       1330.8862      1825.323       114.77514      297.85506      0.11056709   
   1246000   534.6371       1323.4438      1858.0809      64.581455      296.18944      0.1111257    
   1247000   507.14446      1339.9059      1847.0504      32.520948      299.87369      0.11388287   
   1248000   485.13964      1320.6617      1805.8014      39.477301      295.5668       0.11803318   
   1249000   477.05466      1326.1458      1803.2005      50.552157      296.79415      0.12095526   
   1250000   495.72515      1328.6464      1824.3716      86.419381      297.3538       0.12265864   
   1251000   536.80961      1296.5931      1833.4027      111.43294      290.18019      0.12184007   
   1252000   494.58774      1333.2535      1827.8412      116.51618      298.38486      0.12035182   
   1253000   492.4945       1325.6567      1818.1512      87.161312      296.68468      0.11920786   
   1254000   511.4105       1285.7601      1797.1706      34.507993      287.75574      0.11778109   
   1255000   493.62461      1312.1591      1805.7837      42.247046      293.6639       0.11877251   
   1256000   493.37314      1322.9205      1816.2936      85.317651      296.07231      0.12270122   
   1257000   503.88334      1322.2736      1826.1569      122.22784      295.92754      0.12635458   
   1258000   514.78673      1335.0342      1849.8209      146.67798      298.78338      0.12708782   
   1259000   507.7297       1335.7327      1843.4624      166.77968      298.93972      0.12668579   
   1260000   510.42487      1340.7653      1851.1902      118.56607      300.06603      0.12569348   
   1261000   521.66973      1334.3335      1856.0033      117.08482      298.62658      0.12413421   
   1262000   508.86189      1378.2683      1887.1302      106.49021      308.45928      0.12116948   
   1263000   530.98433      1392.9056      1923.89        83.278293      311.73514      0.11718345   
   1264000   515.87465      1373.0868      1888.9614      63.475198      307.29964      0.11455017   
   1265000   501.48082      1362.2828      1863.7636      97.773587      304.88169      0.11583316   
   1266000   490.17687      1351.3966      1841.5735      184.83472      302.44533      0.12035524   
   1267000   521.44951      1361.7225      1883.172       208.66978      304.75629      0.12334562   
   1268000   506.19347      1358.3601      1864.5536      218.63091      304.00378      0.12460149   
   1269000   511.82572      1387.9159      1899.7416      176.28195      310.61843      0.12298084   
   1270000   498.56233      1349.6771      1848.2395      121.62534      302.06051      0.11607573   
   1271000   517.47587      1308.4092      1825.885       36.001027      292.82466      0.11184857   
   1272000   504.04575      1302.2421      1806.2879     -3.9878379      291.44447      0.11038818   
   1273000   482.02194      1330.5219      1812.5438      2.3141856      297.77353      0.1112508    
   1274000   518.38218      1358.7325      1877.1147      15.587421      304.08713      0.11271136   
   1275000   500.09805      1384.1041      1884.2022      74.122842      309.76534      0.11465755   
   1276000   501.26762      1356.0603      1857.3279      133.4648       303.48908      0.11809759   
   1277000   498.39074      1387.2546      1885.6454      189.70925      310.47043      0.12026576   
   1278000   513.36899      1347.9881      1861.3571      201.04761      301.68251      0.1195078    
   1279000   520.05163      1349.6142      1869.6658      151.07767      302.04643      0.11616821   
   1280000   523.82714      1321.5916      1845.4188      94.77172       295.77492      0.11199144   
   1281000   513.54568      1342.1483      1855.694       62.804853      300.37555      0.10890865   
   1282000   506.88956      1316.0342      1822.9238      22.483786      294.53117      0.10877936   
   1283000   525.82962      1272.6347      1798.4643      18.38437       284.81825      0.11187172   
   1284000   522.111        1307.7448      1829.8558      76.580587      292.67597      0.11731123   
   1285000   503.37959      1338.1968      1841.5764      104.34595      299.49119      0.11954689   
   1286000   513.49563      1359.1983      1872.6939      102.19672      304.19136      0.120268     
   1287000   509.00675      1333.0009      1842.0076      78.535833      298.32833      0.11915892   
   1288000   493.91293      1359.52        1853.433       52.234784      304.26337      0.11725707   
   1289000   543.25976      1391.3879      1934.6476      32.168426      311.39546      0.1155398    
   1290000   540.31309      1373.0069      1913.32        59.423246      307.28177      0.11491495   
   1291000   506.56476      1378.3539      1884.9187      54.740822      308.47843      0.11301664   
   1292000   509.26876      1354.6169      1863.8857      51.234049      303.16604      0.10893832   
   1293000   534.29636      1327.8521      1862.1484      56.313545      297.17602      0.10691753   
   1294000   533.89224      1320.679       1854.5713      77.347403      295.57068      0.10847861   
   1295000   529.83526      1320.3893      1850.2246      113.87024      295.50584      0.11300794   
   1296000   514.44294      1347.6766      1862.1196      132.15709      301.6128       0.11621008   
   1297000   537.60224      1403.9015      1941.5037      105.08996      314.19604      0.11734454   
   1298000   531.77713      1383.7335      1915.5106      103.92752      309.68239      0.11873243   
   1299000   501.90633      1361.4582      1863.3645      115.19557      304.69714      0.11975416   
   1300000   506.94466      1353.1417      1860.0864      71.209483      302.8359       0.11943253   
   1301000   519.79179      1341.0528      1860.8446      72.426366      300.13037      0.1190904    
   1302000   512.63177      1390.957       1903.5888      38.664113      311.29903      0.11756752   
   1303000   530.00235      1344.8425      1874.8448      36.372518      300.9785       0.11592206   
   1304000   511.05536      1359.0717      1870.127       35.233395      304.16303      0.11428487   
   1305000   527.20341      1365.1192      1892.3226      68.269207      305.51648      0.11295939   
   1306000   555.83651      1350.4274      1906.2639      109.71229      302.22843      0.11331383   
   1307000   538.05638      1346.7556      1884.812       140.34372      301.40666      0.11527756   
   1308000   516.9104       1313.9963      1830.9067      149.63919      294.07506      0.11870209   
   1309000   494.35437      1340.2972      1834.6516      132.27943      299.96127      0.1224354    
   1310000   496.7509       1321.6505      1818.4014      91.250769      295.7881       0.12368529   
   1311000   493.11346      1290.5535      1783.667       86.404227      288.82852      0.12322263   
   1312000   512.18965      1318.3721      1830.5618      89.03513       295.05438      0.11872483   
   1313000   529.58153      1322.616       1852.1975      59.253456      296.00417      0.11347487   
   1314000   518.52503      1322.1451      1840.6701      56.482873      295.89878      0.11346709   
   1315000   508.80837      1301.4295      1810.2379      83.184661      291.26259      0.11503702   
   1316000   541.85498      1280.1554      1822.0104      77.362839      286.50141      0.11682915   
   1317000   509.89873      1302.0582      1811.957       92.163116      291.4033       0.11858146   
   1318000   486.85378      1348.3581      1835.2118      89.193627      301.7653       0.12028334   
   1319000   497.66613      1323.5734      1821.2395      59.062536      296.21844      0.12144825   
   1320000   526.30582      1314.1302      1840.436       40.801186      294.10503      0.12002944   
   1321000   527.42642      1295.7159      1823.1424      25.690789      289.98389      0.11752805   
   1322000   507.10821      1337.7506      1844.8589      54.946427      299.39134      0.11553579   
   1323000   500.71018      1330.6624      1831.3726      43.056251      297.80498      0.11364186   
   1324000   519.06485      1321.8385      1840.9034      69.095703      295.83018      0.11008503   
   1325000   536.85683      1333.4431      1870.2999      113.5217       298.42731      0.10630068   
   1326000   555.34822      1308.7544      1864.1027      160.47481      292.90193      0.10632284   
   1327000   514.64724      1349.1643      1863.8115      178.57627      301.94574      0.11314516   
   1328000   499.18451      1365.8336      1865.0181      151.16831      305.67637      0.12003798   
   1329000   504.48103      1364.4501      1868.9311      75.839249      305.36673      0.12190928   
   1330000   533.55322      1349.6659      1883.2191      17.316167      302.058        0.12142678   
   1331000   495.86978      1378.7228      1874.5926      30.743668      308.56099      0.11940216   
   1332000   515.71055      1342.8619      1858.5724      57.584712      300.53524      0.11779221   
   1333000   515.78947      1324.5832      1840.3727      103.85866      296.44445      0.11682898   
   1334000   493.12474      1355.8613      1848.9861      152.56684      303.44455      0.11795688   
   1335000   479.46789      1404.0619      1883.5298      166.99222      314.23194      0.12181264   
   1336000   500.14042      1349.413       1849.5534      166.32418      302.0014       0.12579617   
   1337000   479.03936      1413.1597      1892.1991      134.01554      316.26805      0.12794764   
   1338000   496.30894      1402.2288      1898.5377      105.75962      313.82168      0.12639798   
   1339000   517.83939      1352.5355      1870.3749      76.010214      302.70022      0.12096626   
   1340000   529.64982      1333.0882      1862.738       54.946584      298.34787      0.11572237   
   1341000   505.89827      1294.9923      1800.8905      47.109726      289.82193      0.11499483   
   1342000   510.88641      1293.6424      1804.5288      80.524025      289.51982      0.11699494   
   1343000   502.02493      1335.4838      1837.5087      79.188571      298.88401      0.11978288   
   1344000   530.01687      1319.119       1849.1358      64.494097      295.22153      0.12120025   
   1345000   526.74699      1314.0133      1840.7603      37.881466      294.07887      0.12125076   
   1346000   494.35545      1346.0491      1840.4045      83.45193       301.24855      0.12211271   
   1347000   487.81395      1385.3478      1873.1618      142.15633      310.04369      0.12372911   
   1348000   509.26373      1362.2645      1871.5283      173.39202      304.8776       0.12643697   
   1349000   483.69216      1387.648       1871.3401      180.0827       310.55847      0.12794216   
   1350000   523.96524      1353.4326      1877.3979      151.26894      302.901        0.12698641   
   1351000   519.20505      1347.1958      1866.4008      102.34305      301.50518      0.122094     
   1352000   545.1902       1376.2153      1921.4055      57.082272      307.99981      0.11822744   
   1353000   505.31204      1358.9642      1864.2763      51.419966      304.13899      0.115925     
   1354000   501.97693      1372.4914      1874.4683      48.932319      307.16638      0.11557202   
   1355000   520.93601      1364.0021      1884.9381      67.411559      305.26647      0.11725678   
   1356000   535.95902      1361.7036      1897.6626      96.060979      304.75206      0.11939327   
   1357000   514.56549      1392.7264      1907.2919      125.67291      311.69502      0.12056803   
   1358000   481.52047      1360.8367      1842.3572      107.71507      304.55806      0.12133824   
   1359000   529.78189      1311.5619      1841.3438      109.54842      293.53025      0.12359434   
   1360000   503.51466      1334.7988      1838.3135      94.720374      298.73072      0.12713437   
   1361000   498.48954      1343.4307      1841.9202      106.57289      300.66254      0.13122443   
   1362000   510.98754      1315.4803      1826.4679      78.150813      294.4072       0.13198472   
   1363000   483.33643      1294.4731      1777.8095      45.835353      289.70574      0.13019416   
   1364000   493.28049      1326.2185      1819.499       39.576369      296.81042      0.12661252   
   1365000   513.24573      1291.796       1805.0418      22.261598      289.1066       0.12096063   
   1366000   506.83332      1336.3203      1843.1536      60.773575      299.07122      0.11767304   
   1367000   497.16213      1306.8751      1804.0372      114.19466      292.48132      0.11667289   
   1368000   483.58643      1342.206       1825.7924      122.46064      300.38846      0.11673252   
   1369000   515.86271      1320.9231      1836.7858      154.13895      295.62531      0.11779635   
   1370000   508.51151      1329.7757      1838.2872      131.24993      297.60653      0.11947687   
   1371000   503.48182      1343.2887      1846.7705      123.89659      300.63076      0.12220732   
   1372000   529.87499      1310.0218      1839.8968      89.588095      293.18557      0.12460324   
   1373000   488.43408      1354.166       1842.6001      85.024682      303.06514      0.12662406   
   1374000   500.03899      1358.5516      1858.5906      105.9205       304.04664      0.12845036   
   1375000   506.61373      1305.2205      1811.8342      135.07363      292.11102      0.12990765   
   1376000   506.096        1358.886       1864.982       143.91636      304.12148      0.12845644   
   1377000   486.86175      1358.24        1845.1017      119.5808       303.97689      0.12361007   
   1378000   515.34138      1354.2902      1869.6316      107.14324      303.09292      0.12066083   
   1379000   518.44506      1374.8222      1893.2673      110.8283       307.68804      0.12059068   
   1380000   519.39896      1426.1291      1945.5281      96.796933      319.17063      0.12151316   
   1381000   514.93025      1379.5085      1894.4387      92.998813      308.73683      0.12206685   
   1382000   520.78711      1352.6054      1873.3925      68.963437      302.71586      0.12154983   
   1383000   525.17757      1390.8867      1916.0642      71.773394      311.28329      0.11972613   
   1384000   531.04942      1386.5111      1917.5605      87.252647      310.30403      0.1153863    
   1385000   488.73775      1385.8454      1874.5832      135.1269       310.15505      0.11255688   
   1386000   483.49972      1369.4475      1852.9472      139.11983      306.48517      0.11271592   
   1387000   509.44673      1389.821       1899.2678      120.08302      311.0448       0.1155229    
   1388000   508.2967       1364.701       1872.9977      92.012751      305.42289      0.11973258   
   1389000   478.44736      1367.0283      1845.4756      76.526626      305.94373      0.12319379   
   1390000   509.76399      1314.0615      1823.8255      94.097017      294.08967      0.12492637   
   1391000   485.74124      1325.4461      1811.1874      127.17325      296.63756      0.12505145   
   1392000   501.93202      1324.5923      1826.5244      154.24242      296.44649      0.12393172   
   1393000   512.44795      1303.5153      1815.9632      95.206768      291.7294       0.12126008   
   1394000   509.10874      1343.7837      1852.8925      74.937789      300.74156      0.11947618   
   1395000   519.28875      1329.1825      1848.4713      52.399913      297.47377      0.11906929   
   1396000   497.57017      1353.7372      1851.3074      62.667449      302.96917      0.11897796   
   1397000   535.27306      1361.3952      1896.6683      92.129604      304.68305      0.11864367   
   1398000   515.81414      1369.9881      1885.8022      128.07607      306.60614      0.11679802   
   1399000   536.92343      1370.3551      1907.2785      120.74879      306.68828      0.11416116   
   1400000   550.64491      1328.1193      1878.7643      74.180296      297.23584      0.11264086   
   1401000   519.10378      1362.9438      1882.0476      51.264453      305.02962      0.11462785   
   1402000   492.74986      1353.8485      1846.5984      44.651164      302.99408      0.11949245   
   1403000   521.24885      1337.3418      1858.5907      69.931143      299.29985      0.12267293   
   1404000   513.65167      1365.8916      1879.5432      119.39528      305.68934      0.12226531   
   1405000   492.55376      1354.1456      1846.6994      143.41866      303.06058      0.12131613   
   1406000   526.2596       1323.8832      1850.1428      127.22686      296.28779      0.11976475   
   1407000   538.15789      1379.9413      1918.0991      67.437847      308.83369      0.11803407   
   1408000   515.85018      1355.3545      1871.2047      60.784263      303.33112      0.11542688   
   1409000   533.9821       1345.5814      1879.5635      24.488574      301.14389      0.11156826   
   1410000   569.22541      1310.8057      1880.0311      26.021986      293.361        0.1094309    
   1411000   520.41432      1366.4012      1886.8155      46.855562      305.80338      0.1104937    
   1412000   504.41398      1361.6042      1866.0182      79.951034      304.72982      0.11672203   
   1413000   497.93874      1303.4248      1801.3635      55.720442      291.70914      0.12108751   
   1414000   506.83798      1317.4898      1824.3278      77.360923      294.85693      0.12358046   
   1415000   497.77561      1327.085       1824.8606      79.248462      297.00435      0.12342219   
   1416000   494.33181      1307.7192      1802.051       112.23128      292.67024      0.12153312   
   1417000   497.77876      1344.9401      1842.7189      116.44428      301.00036      0.11799373   
   1418000   484.33391      1337.6552      1821.9891      116.89156      299.36997      0.11533642   
   1419000   518.29084      1294.2638      1812.5547      132.00625      289.6589       0.11523619   
   1420000   494.07294      1276.057       1770.1299      147.96274      285.58417      0.11695738   
   1421000   501.60462      1314.0821      1815.6867      160.91208      294.09428      0.11883535   
   1422000   497.23702      1329.4153      1826.6524      158.57853      297.52588      0.11995206   
   1423000   531.20381      1318.6877      1849.8915      127.12988      295.12501      0.12060835   
   1424000   503.84049      1297.3881      1801.2286      106.1158       290.35812      0.11897562   
   1425000   501.75863      1284.7381      1786.4967      86.866058      287.52701      0.11635025   
   1426000   514.99163      1342.1652      1857.1568      99.829833      300.37932      0.11520016   
   1427000   509.61836      1338.6832      1848.3016      99.829595      299.60005      0.11584064   
   1428000   528.90288      1355.9855      1884.8884      105.94451      303.47234      0.1162079    
   1429000   508.61094      1373.2516      1881.8626      85.705735      307.33653      0.11387967   
   1430000   535.80131      1318.3363      1854.1376      81.278617      295.04636      0.11152573   
   1431000   523.61981      1346.9428      1870.5626      132.21758      301.44857      0.11117229   
   1432000   520.0963       1357.3617      1877.458       129.20303      303.78034      0.11194956   
   1433000   520.49862      1313.8838      1834.3824      143.0691       294.0499       0.11730821   
   1434000   517.64532      1340.2801      1857.9254      112.04869      299.95744      0.12233956   
   1435000   488.50433      1365.3553      1853.8596      85.793897      305.56931      0.12333634   
   1436000   524.03919      1286.6862      1810.7254      65.234518      287.96301      0.12289937   
   1437000   492.60716      1308.9816      1801.5888      45.522629      292.95277      0.12241823   
   1438000   499.8995       1311.1519      1811.0514      56.323061      293.43849      0.12108504   
   1439000   503.84873      1345.0645      1848.9132      61.815669      301.02819      0.11983807   
   1440000   485.59982      1332.0175      1817.6173      74.418088      298.10825      0.11811346   
   1441000   517.69117      1313.9744      1831.6656      104.6853       294.07017      0.11650489   
   1442000   518.67634      1332.1441      1850.8204      123.89142      298.13658      0.11477924   
   1443000   491.41271      1313.0558      1804.4685      112.27753      293.86458      0.11369078   
   1444000   529.74672      1314.7618      1844.5085      92.972853      294.24639      0.11567641   
   1445000   495.96234      1329.0381      1825.0005      86.832737      297.44146      0.12071952   
   1446000   523.07347      1329.0936      1852.1671      41.718235      297.45388      0.12328237   
   1447000   511.38623      1316.9286      1828.3148      58.400929      294.73132      0.12474253   
   1448000   487.90475      1342.0057      1829.9104      81.465221      300.34362      0.12350777   
   1449000   491.36113      1317.2374      1808.5985      122.50023      294.80044      0.12099033   
   1450000   478.60916      1300.7702      1779.3794      151.16962      291.11504      0.11837489   
   1451000   509.37507      1289.4749      1798.8499      150.88786      288.58712      0.11830817   
   1452000   544.74433      1327.0006      1871.7449      124.21993      296.98546      0.11938925   
   1453000   495.29776      1337.4077      1832.7055      81.217604      299.3146       0.12045351   
   1454000   514.18622      1330.6064      1844.7926      53.37363       297.79244      0.1204795    
   1455000   523.92847      1278.8539      1802.7824      50.532068      286.21013      0.12039661   
   1456000   472.29807      1324.6974      1796.9955      90.368623      296.46999      0.12202981   
   1457000   496.91941      1347.5655      1844.485       100.57384      301.58793      0.12243648   
   1458000   533.04396      1347.4397      1880.4837      47.439179      301.55978      0.11917779   
   1459000   534.73439      1354.8339      1889.5683      17.84839       303.2146       0.11450671   
   1460000   537.5826       1372.0572      1909.6398     -12.479468      307.06923      0.11344214   
   1461000   551.26707      1356.6848      1907.9519     -11.79498       303.62885      0.11661763   
   1462000   548.82542      1390.6852      1939.5106     -11.186602      311.2382       0.12177641   
   1463000   517.20719      1356.1461      1873.3532      58.757711      303.50827      0.12466021   
   1464000   527.25033      1336.1669      1863.4173      111.25644      299.0369       0.12638956   
   1465000   513.56802      1356.7028      1870.2708      128.82555      303.63287      0.12725182   
   1466000   540.94289      1319.7698      1860.7127      98.399165      295.3672       0.12592955   
   1467000   562.81665      1371.2246      1934.0413      44.090643      306.88288      0.12193342   
   1468000   492.64453      1371.3445      1863.989       1.4065731      306.9097       0.11770692   
   1469000   499.20176      1372.9724      1872.1742      24.274231      307.27405      0.11584941   
   1470000   533.82216      1331.5763      1865.3984      50.648629      298.0095       0.11699094   
   1471000   516.47279      1346.33        1862.8028      110.84726      301.31142      0.12075793   
   1472000   492.04965      1339.2248      1831.2745      173.68379      299.72127      0.12511397   
   1473000   493.24535      1343.458       1836.7034      193.39939      300.66866      0.12747365   
   1474000   507.03394      1336.7573      1843.7912      161.16154      299.16902      0.1277343    
   1475000   505.76672      1306.9638      1812.7305      125.20541      292.50118      0.12524288   
   1476000   533.63567      1312.7412      1846.3769      72.606444      293.79418      0.12058768   
   1477000   489.57091      1328.7985      1818.3694      70.568205      297.38782      0.116865     
   1478000   493.65769      1331.5667      1825.2244      90.903728      298.00736      0.11500072   
   1479000   514.36638      1300.8429      1815.2093      80.060318      291.13131      0.11531865   
   1480000   550.56414      1333.6045      1884.1686      67.001558      298.46342      0.11792942   
   1481000   507.60342      1332.2755      1839.8789      58.089533      298.166        0.12080821   
   1482000   516.71173      1347.091       1863.8027      46.820355      301.48173      0.12358401   
   1483000   493.72573      1360.3288      1854.0545      83.39077       304.44437      0.12512599   
   1484000   514.83415      1329.1999      1844.034       99.36848       297.47766      0.12475741   
   1485000   506.25971      1341.5463      1847.8061      120.45408      300.24083      0.12297366   
   1486000   527.14745      1394.2984      1921.4459      130.77579      312.04685      0.11684089   
   1487000   558.47731      1355.1829      1913.6603      83.937385      303.29273      0.11150692   
   1488000   520.38117      1396.5554      1916.9366      102.88482      312.55196      0.11155541   
   1489000   524.07007      1359.6076      1883.6776      89.606089      304.28296      0.11371251   
   1490000   507.55033      1346.1227      1853.673       68.712468      301.26503      0.11680906   
   1491000   528.88403      1349.4389      1878.3229      52.589768      302.00719      0.11904564   
   1492000   520.96302      1361.0439      1882.0069      89.186568      304.60442      0.11894808   
   1493000   540.79165      1325.1807      1865.9723      73.076092      296.57816      0.1158355    
   1494000   546.60367      1301.5578      1848.1615      82.695017      291.29131      0.11355313   
   1495000   529.36893      1317.2863      1846.6553      81.313828      294.81138      0.11224364   
   1496000   523.60511      1285.1281      1808.7332      34.359386      287.6143       0.11171328   
   1497000   526.40715      1330.7646      1857.1717      32.242113      297.82785      0.11340526   
   1498000   515.67679      1359.8871      1875.5639      79.149613      304.34553      0.11559712   
   1499000   495.29227      1372.2408      1867.5331      159.35993      307.11031      0.11777946   
   1500000   510.34553      1364.811       1875.1565      178.73571      305.4475       0.11863867   
   1501000   516.50134      1339.1618      1855.6631      132.48334      299.70716      0.11794334   
   1502000   533.56203      1373.4427      1907.0047      99.201188      307.37929      0.11617007   
   1503000   525.00043      1351.6453      1876.6457      82.86923       302.50099      0.11492374   
   1504000   537.37478      1352.4206      1889.7954      88.783198      302.67451      0.11450585   
   1505000   537.00269      1348.6177      1885.6204      133.94971      301.8234       0.11567441   
   1506000   536.55182      1413.0555      1949.6073      142.65761      316.24471      0.11743052   
   1507000   531.90132      1357.443       1889.3443      117.31888      303.79852      0.12009606   
   1508000   527.09483      1331.8197      1858.9145      84.947609      298.06397      0.12305487   
   1509000   512.36985      1347.4466      1859.8165      77.973995      301.56132      0.12322005   
   1510000   528.9782       1365.353       1894.3312      81.798495      305.5688       0.11922143   
   1511000   545.69972      1381.0786      1926.7783      90.682866      309.08822      0.11334549   
   1512000   544.66111      1360.7287      1905.3898      79.405684      304.53388      0.11018026   
   1513000   528.10604      1338.996       1867.102       84.363117      299.67005      0.1095793    
   1514000   520.45094      1335.7458      1856.1968      119.15059      298.94266      0.11242066   
   1515000   525.51994      1323.1607      1848.6807      122.18155      296.12608      0.11643827   
   1516000   487.09449      1315.0908      1802.1853      107.33356      294.32002      0.11945232   
   1517000   504.64476      1331.4342      1836.0789      104.04646      297.9777       0.12287859   
   1518000   478.24102      1336.6178      1814.8588      81.241773      299.1378       0.1244397    
   1519000   503.999        1338.6614      1842.6604      39.3335        299.59516      0.12359948   
   1520000   507.4594       1324.3268      1831.7862      33.820604      296.38706      0.11975542   
   1521000   514.86232      1330.4496      1845.3119      50.934873      297.75735      0.1160907    
   1522000   513.76876      1337.1527      1850.9215      100.54564      299.25752      0.11453521   
   1523000   545.45819      1304.959       1850.4172      147.90422      292.05251      0.11386889   
   1524000   528.37637      1323.4302      1851.8066      131.35106      296.1864       0.11499438   
   1525000   485.64505      1331.8454      1817.4905      140.17612      298.06974      0.11899252   
   1526000   526.05817      1324.8574      1850.9156      86.087173      296.50581      0.12257945   
   1527000   512.23765      1342.6692      1854.9068      79.568565      300.49212      0.12321767   
   1528000   528.87496      1349.5608      1878.4357      48.28914       302.03447      0.12023028   
   1529000   544.96005      1381.7665      1926.7265      48.565045      309.24217      0.11680437   
   1530000   519.00123      1417.6988      1936.7         93.50449       317.2839       0.1158586    
   1531000   532.03777      1357.2496      1889.2874      117.65625      303.75525      0.11716192   
   1532000   531.78847      1363.9639      1895.7524      175.82453      305.25792      0.11998587   
   1533000   553.45876      1340.8724      1894.3312      161.76735      300.09         0.12057896   
   1534000   515.29785      1360.0738      1875.3716      120.81483      304.3873       0.11980551   
   1535000   521.32107      1364.1674      1885.4884      100.27148      305.30346      0.11953514   
   1536000   537.27102      1355.0406      1892.3116      63.367996      303.26087      0.11753252   
   1537000   538.68642      1369.3645      1908.0509      61.424197      306.46658      0.11258016   
   1538000   557.64755      1415.5991      1973.2467      63.69781       316.81399      0.10997233   
   1539000   532.14748      1343.4335      1875.581       120.19091      300.66317      0.1117192    
   1540000   512.75829      1355.2091      1867.9674      139.2506       303.29857      0.115333     
   1541000   525.52523      1369.1118      1894.637       153.1866       306.41003      0.11863157   
   1542000   502.93858      1320.9768      1823.9154      121.5395       295.63732      0.11974291   
   1543000   504.02935      1330.6517      1834.6811      100.48524      297.80259      0.1190791    
   1544000   549.86777      1325.7539      1875.6217      87.941363      296.70644      0.11634049   
   1545000   529.88618      1330.6948      1860.581       109.50073      297.81224      0.11459933   
   1546000   540.76356      1323.6967      1864.4603      123.99764      296.24605      0.11501195   
   1547000   504.7073       1332.3447      1837.052       112.45023      298.18148      0.11602742   
   1548000   512.69946      1294.4901      1807.1895      71.070348      289.70954      0.11850235   
   1549000   502.59001      1338.2115      1840.8015      58.244154      299.49449      0.12428491   
   1550000   516.37926      1301.6506      1818.0299      81.738091      291.31207      0.12835581   
   1551000   497.77686      1335.3115      1833.0884      77.287179      298.84546      0.12864986   
   1552000   481.22088      1349.0627      1830.2836      87.655499      301.923        0.12698314   
   1553000   516.90249      1349.5389      1866.4414      79.20891       302.02957      0.12440843   
   1554000   519.67242      1339.9197      1859.5921      73.485176      299.87678      0.12190323   
   1555000   514.67405      1352.4389      1867.1129      89.269356      302.6786       0.12042914   
   1556000   514.99934      1384.5486      1899.5479      130.40112      309.86482      0.11909692   
   1557000   515.61905      1353.4066      1869.0256      124.55012      302.89517      0.11419325   
   1558000   541.66519      1353.8709      1895.5361      128.37558      302.99908      0.11031843   
   1559000   519.66802      1401.55        1921.218       128.47801      313.66976      0.11176523   
   1560000   540.94835      1332.6624      1873.6107      120.53479      298.25258      0.11522971   
   1561000   512.67871      1331.7842      1844.4629      92.304648      298.05604      0.11701882   
   1562000   534.53819      1310.5144      1845.0526      57.627859      293.29582      0.11893469   
   1563000   536.25997      1294.2562      1830.5162      19.244093      289.65721      0.12002083   
   1564000   502.83837      1319.1694      1822.0078      11.775505      295.23282      0.12190432   
   1565000   496.65773      1302.0847      1798.7424      64.738711      291.40922      0.12427055   
   1566000   497.58735      1318.9267      1816.514       152.30398      295.1785       0.12502389   
   1567000   495.0854       1308.1874      1803.2728      210.77568      292.77503      0.1216677    
   1568000   533.50692      1346.2924      1879.7994      217.68801      301.30301      0.11541533   
   1569000   557.79033      1350.1783      1907.9686      159.94051      302.17267      0.11203253   
   1570000   549.58278      1368.9765      1918.5593      109.84213      306.37975      0.11196878   
   1571000   529.16749      1363.5696      1892.7371      34.902872      305.16967      0.11283637   
   1572000   526.99977      1351.8296      1878.8294     -2.1243961      302.54224      0.11662415   
   1573000   533.06343      1368.0748      1901.1382      2.9183885      306.17795      0.12102079   
   1574000   535.53795      1430.8417      1966.3797      90.773594      320.22531      0.12374659   
   1575000   516.01584      1353.4697      1869.4856      161.09338      302.9093       0.12378748   
   1576000   529.25413      1337.5639      1866.8181      157.62826      299.34956      0.12201531   
   1577000   534.99515      1345.1242      1880.1193      115.15654      301.04155      0.11902521   
   1578000   534.13017      1385.5355      1919.6657      89.186583      310.08569      0.1165803    
   1579000   526.7553       1382.7222      1909.4775      78.528653      309.45606      0.11467684   
   1580000   541.40705      1380.3311      1921.7382      72.127599      308.92094      0.11314459   
   1581000   536.32224      1352.5544      1888.8766      75.051022      302.70445      0.11234086   
   1582000   545.10407      1340.7986      1885.9027      93.033478      300.07348      0.11354368   
   1583000   517.81752      1374.1667      1891.9842      133.09294      307.54133      0.11737499   
   1584000   497.43003      1349.6312      1847.0612      162.401        302.05022      0.12173461   
   1585000   501.80332      1319.1633      1820.9667      203.16642      295.23146      0.12318036   
   1586000   525.7929       1315.3743      1841.1672      171.77056      294.38347      0.12070757   
   1587000   517.07097      1317.9663      1835.0373      141.82906      294.96356      0.11806202   
   1588000   519.77567      1354.6967      1874.4724      71.153647      303.18391      0.11631303   
   1589000   545.99651      1364.4929      1910.4894      64.665078      305.37632      0.11658453   
   1590000   515.17715      1374.6676      1889.8448      67.291814      307.65344      0.11818258   
   1591000   511.2099       1364.5467      1875.7566      97.236587      305.38836      0.12049946   
   1592000   540.47268      1365.2706      1905.7433      119.96096      305.55037      0.12256496   
   1593000   523.12896      1343.7551      1866.884       136.09125      300.73514      0.12285818   
   1594000   510.83988      1352.9813      1863.8211      139.40683      302.79998      0.12101425   
   1595000   537.98423      1337.2873      1875.2715      103.68918      299.28763      0.11794262   
   1596000   507.55285      1345.487       1853.0399      104.5842       301.12276      0.11650345   
   1597000   532.69823      1280.0046      1812.7028      85.782037      286.46765      0.11612633   
   1598000   521.38328      1313.6686      1835.0518      77.689053      294.00172      0.11628521   
   1599000   511.54788      1316.4523      1828.0001      82.052384      294.62472      0.11766234   
   1600000   524.96765      1326.1339      1851.1015      73.64359       296.79149      0.11926559   
   1601000   502.59278      1309.2653      1811.8581      78.3225        293.01626      0.12079767   
   1602000   490.79754      1331.3669      1822.1645      74.931584      297.96265      0.12140575   
   1603000   514.74195      1329.4542      1844.1961      64.39597       297.53458      0.12029024   
   1604000   525.23355      1298.6357      1823.8692      77.137942      290.63733      0.11796356   
   1605000   514.33206      1282.068       1796.4001      80.126939      286.92946      0.11543478   
   1606000   513.38208      1307.3647      1820.7467      68.208301      292.5909       0.11314259   
   1607000   496.87885      1335.6394      1832.5182      63.90444       298.91884      0.11331052   
   1608000   525.4737       1305.1194      1830.5931      71.689998      292.08839      0.11624609   
   1609000   527.78376      1323.9311      1851.7148      80.866655      296.29849      0.12133228   
   1610000   531.80258      1317.8244      1849.6269      73.928204      294.9318       0.12454682   
   1611000   498.95655      1341.2207      1840.1773      94.471878      300.16795      0.12440563   
   1612000   512.25041      1354.467       1866.7174      95.225527      303.1325       0.12286114   
   1613000   529.88673      1337.4458      1867.3325      89.905219      299.32312      0.1202683    
   1614000   510.49542      1377.2951      1887.7905      124.45465      308.24147      0.1166629    
   1615000   520.81262      1375.3381      1896.1507      145.11552      307.80349      0.11350939   
   1616000   549.34838      1364.8208      1914.1691      138.99009      305.44969      0.11229236   
   1617000   525.40102      1368.8978      1894.2988      109.52185      306.36213      0.11206463   
   1618000   514.63729      1359.0129      1873.6502      75.858408      304.14988      0.11302451   
   1619000   519.35976      1378.2803      1897.6401      42.412177      308.46197      0.11398887   
   1620000   533.62569      1322.817       1856.4427      20.313035      296.04917      0.11520802   
   1621000   527.25655      1315.0141      1842.2706      38.984136      294.30285      0.11779305   
   1622000   511.00617      1317.3263      1828.3325      71.047059      294.82033      0.1196497    
   1623000   535.17526      1312.1189      1847.2941      101.04929      293.6549       0.11847119   
   1624000   503.29205      1298.0004      1801.2924      72.126454      290.49515      0.11299871   
   1625000   544.3869       1341.0396      1885.4265      87.345051      300.12743      0.11034833   
   1626000   519.94734      1350.4027      1870.35        128.82642      302.22289      0.11029125   
   1627000   503.60315      1339.4268      1843.0299      153.85542      299.76646      0.1110606    
   1628000   530.42313      1346.0151      1876.4382      155.37552      301.24094      0.11219732   
   1629000   504.904        1312.2377      1817.1417      138.60247      293.6815       0.11403945   
   1630000   500.04057      1308.3279      1808.3685      108.29584      292.80647      0.11615999   
   1631000   519.66783      1335.5026      1855.1705      43.667123      298.88823      0.11868878   
   1632000   513.74664      1336.6305      1850.3771      26.594304      299.14065      0.12250522   
   1633000   527.07162      1300.2846      1827.3562      52.151878      291.00636      0.12294507   
   1634000   498.0315       1307.0396      1805.0711      94.933671      292.51814      0.12007785   
   1635000   531.30064      1333.5556      1864.8563      155.46135      298.45249      0.115493     
   1636000   528.79107      1334.6684      1863.4595      147.06678      298.70153      0.11140417   
   1637000   534.978        1373.4366      1908.4146      137.96325      307.37793      0.11007171   
   1638000   534.35107      1386.6525      1921.0035      112.84599      310.33567      0.11065357   
   1639000   548.38255      1401.6001      1949.9826      81.2596        313.68097      0.11176892   
   1640000   512.05988      1372.6847      1884.7446      81.422354      307.20965      0.11227881   
   1641000   516.26008      1355.8463      1872.1064      79.990364      303.44119      0.11325857   
   1642000   561.21342      1316.6864      1877.8998      86.63949       294.67712      0.11591907   
   1643000   517.07733      1354.3434      1871.4207      105.05155      303.10483      0.12340197   
   1644000   505.73497      1366.8845      1872.6194      124.80665      305.91155      0.1263354    
   1645000   541.25469      1359.4494      1900.7041      138.28348      304.24757      0.12409462   
   1646000   519.90477      1322.2465      1842.1513      116.35847      295.92148      0.11941441   
   1647000   524.46787      1348.2187      1872.6866      128.03117      301.73412      0.11665771   
   1648000   522.58769      1356.9206      1879.5083      129.95295      303.68161      0.11470108   
   1649000   495.42189      1349.4477      1844.8696      106.04341      302.00916      0.11382259   
   1650000   509.80853      1296.0617      1805.8702      84.504446      290.06127      0.11462879   
   1651000   515.79297      1270.8182      1786.6112      48.88383       284.41172      0.11716459   
   1652000   504.32421      1316.4899      1820.8142      56.830205      294.63315      0.12144623   
   1653000   502.07694      1340.0569      1842.1339      39.832993      299.90749      0.12359725   
   1654000   516.02656      1307.4414      1823.468       19.391464      292.60807      0.1218836    
   1655000   511.01183      1335.2868      1846.2987      53.565617      298.83993      0.11909601   
   1656000   517.04641      1352.6264      1869.6729      88.377438      302.72057      0.11682142   
   1657000   552.62527      1340.6465      1893.2717      80.679492      300.03943      0.11619722   
   1658000   532.08264      1350.9725      1883.0552      114.28059      302.35043      0.11836022   
   1659000   544.59615      1399.513       1944.1091      128.54347      313.21388      0.12061224   
   1660000   534.58631      1385.5645      1920.1508      121.80508      310.09217      0.12080458   
   1661000   542.11805      1358.4457      1900.5637      102.1656       304.02293      0.11887811   
   1662000   520.58907      1360.6213      1881.2103      115.70459      304.50983      0.11618957   
   1663000   511.20397      1365.7461      1876.95        97.550906      305.65677      0.11245187   
   1664000   535.45721      1384.5198      1919.977       109.82393      309.85837      0.1096391    
   1665000   538.5173       1351.8661      1890.3834      113.69999      302.55041      0.10760042   
   1666000   551.90068      1351.052       1902.9526      131.29195      302.3682       0.10910253   
   1667000   501.02174      1392.6819      1893.7036      133.45599      311.68506      0.11477889   
   1668000   515.33509      1398.1232      1913.4583      135.87172      312.90285      0.11973847   
   1669000   515.3951       1351.0336      1866.4287      77.220121      302.3641       0.12105595   
   1670000   503.039        1343.7931      1846.8322      39.812806      300.74366      0.12157446   
   1671000   526.03893      1306.5583      1832.5973      37.970078      292.41044      0.12103001   
   1672000   535.15022      1296.6745      1831.8247      58.786012      290.1984       0.11941967   
   1673000   491.52912      1327.6197      1819.1488      149.51367      297.12401      0.11758309   
   1674000   502.46478      1314.023       1816.4878      199.33074      294.08106      0.11565531   
   1675000   545.3877       1321.2052      1866.5929      181.01885      295.68843      0.11351583   
   1676000   516.17431      1338.8286      1855.0029      160.27473      299.63259      0.11294831   
   1677000   517.11925      1357.5628      1874.682       129.54882      303.82534      0.11564115   
   1678000   525.39286      1366.9782      1892.3711      103.44131      305.93253      0.1201493    
   1679000   526.87703      1328.0251      1854.9021      55.58152       297.21475      0.12289865   
   1680000   493.159        1385.6483      1878.8072      57.01292       310.11092      0.12543607   
   1681000   501.41874      1360.1059      1861.5247      65.127861      304.3945       0.12621668   
   1682000   522.70422      1362.8416      1885.5458      110.71353      305.00675      0.12538285   
   1683000   550.63857      1371.4947      1922.1332      105.47521      306.94332      0.1203785    
   1684000   528.46882      1382.0492      1910.518       108.26301      309.30545      0.11617463   
   1685000   527.99746      1330.9402      1858.9376      101.30004      297.86714      0.11592055   
   1686000   493.27262      1363.6373      1856.9099      94.723465      305.18483      0.11684488   
   1687000   522.02723      1334.9115      1856.9387      74.106795      298.75594      0.1187189    
   1688000   534.50787      1317.4435      1851.9514      87.521385      294.84657      0.12090357   
   1689000   498.96454      1299.2239      1798.1884      132.56955      290.76897      0.12193258   
   1690000   498.23832      1340.9968      1839.2352      145.49013      300.11785      0.12260513   
   1691000   497.29918      1320.5974      1817.8965      111.72533      295.5524       0.12113978   
   1692000   514.62928      1325.1656      1839.7949      56.067494      296.57478      0.11449544   
   1693000   508.28574      1345.2064      1853.4921      67.56509       301.05994      0.11084207   
   1694000   525.73586      1306.204       1831.9398      48.142059      292.33113      0.11034742   
   1695000   524.936        1341.9591      1866.8951      69.406393      300.3332       0.11417609   
   1696000   535.07868      1347.3076      1882.3863      115.25047      301.53022      0.11832546   
   1697000   510.398        1354.5873      1864.9852      123.40785      303.15941      0.12039795   
   1698000   537.6717       1343.3882      1881.0599      127.11257      300.65304      0.12153754   
   1699000   509.36881      1354.9016      1864.2704      91.547475      303.22976      0.1208234    
   1700000   554.45842      1328.9347      1883.3932      96.955839      297.41832      0.11943732   
   1701000   520.60627      1356.6675      1877.2737      66.837871      303.62496      0.11582878   
   1702000   536.14459      1346.7474      1882.892       47.429598      301.40483      0.11235654   
   1703000   549.57551      1308.1871      1857.7626      61.053786      292.77496      0.11215727   
   1704000   528.69654      1363.1124      1891.809       128.11453      305.06736      0.11469716   
   1705000   510.88436      1379.1261      1890.0105      160.23001      308.65125      0.11742135   
   1706000   526.93274      1370.8247      1897.7574      164.01425      306.79338      0.11962894   
   1707000   507.19259      1365.0578      1872.2504      144.66835      305.50274      0.12073317   
   1708000   511.79627      1362.7128      1874.509       132.87963      304.97791      0.12265498   
   1709000   503.32422      1386.4591      1889.7833      78.351663      310.29239      0.1233389    
   1710000   529.53955      1397.0586      1926.5982      15.577427      312.66459      0.12300147   
   1711000   538.4758       1356.8907      1895.3665      14.608026      303.67491      0.12228292   
   1712000   521.83652      1348.901       1870.7375      89.451353      301.8868       0.1202746    
   1713000   505.84311      1355.9073      1861.7505      107.91281      303.45485      0.11514222   
   1714000   545.69652      1318.5272      1864.2237      133.24479      295.08909      0.11084168   
   1715000   542.22376      1293.4112      1835.635       129.21377      289.46808      0.11063149   
   1716000   526.42957      1324.5182      1850.9478      126.54958      296.42989      0.11442926   
   1717000   481.14997      1311.0311      1792.181       121.74512      293.41144      0.1190075    
   1718000   501.39117      1320.9276      1822.3188      130.24577      295.62631      0.12299855   
   1719000   509.63832      1321.4869      1831.1252      131.42537      295.75148      0.12423752   
   1720000   506.27066      1256.779       1763.0497      135.19942      281.26972      0.12238562   
   1721000   495.50673      1308.3173      1803.824       162.46009      292.80409      0.12045094   
   1722000   509.30941      1320.9009      1830.2103      136.69399      295.62033      0.11858148   
   1723000   537.54066      1317.4106      1854.9513      85.691176      294.8392       0.11700358   
   1724000   527.26291      1346.1698      1873.4327      4.4435741      301.27556      0.11486058   
   1725000   517.41955      1353.6562      1871.0758     -25.126719      302.95105      0.11425651   
   1726000   554.2314       1366.8609      1921.0923     -38.698178      305.90626      0.11534426   
   1727000   551.24535      1350.8931      1902.1385      24.591783      302.33265      0.11915983   
   1728000   511.73192      1356.959       1868.6909      107.42092      303.6902       0.12281721   
   1729000   525.71779      1345.2984      1871.0162      156.56815      301.08055      0.12369408   
   1730000   514.52484      1277.5871      1792.1119      148.86966      285.92662      0.1238312    
   1731000   500.9023       1304.2756      1805.1779      142.27211      291.89955      0.1257618    
   1732000   498.92919      1322.9551      1821.8843      115.75527      296.08006      0.13039602   
   1733000   501.20212      1329.1418      1830.3439      72.763742      297.46467      0.13327638   
   1734000   477.83784      1320.0558      1797.8937      56.688707      295.43121      0.12958823   
   1735000   512.60991      1392.2026      1904.8125      37.183157      311.5778       0.12166279   
   1736000   519.8836       1349.2253      1869.1089      5.2408722      301.95939      0.11876762   
   1737000   507.07132      1382.2009      1889.2723      4.4228042      309.33941      0.11841345   
   1738000   542.06169      1338.4939      1880.5556      25.723135      299.55767      0.12006347   
   1739000   551.47307      1346.7118      1898.1849      97.006315      301.39688      0.12421265   
   1740000   510.56446      1428.6045      1939.169       157.89111      319.72462      0.12650862   
   1741000   514.417        1386.259       1900.676       204.25659      310.24761      0.12719116   
   1742000   502.07633      1368.7471      1870.8235      170.87298      306.32842      0.12604976   
   1743000   513.20649      1326.7106      1839.9171      96.284604      296.92056      0.12364554   
   1744000   510.34753      1363.9799      1874.3274      23.966563      305.26149      0.12072522   
   1745000   549.49321      1380.458       1929.9512      8.7966693      308.94933      0.11722333   
   1746000   545.6101       1397.8268      1943.4369      29.476003      312.83651      0.11461554   
   1747000   515.44253      1391.1997      1906.6422      89.224394      311.35335      0.11443803   
   1748000   528.2804       1357.2206      1885.501       148.80556      303.74875      0.11597091   
   1749000   512.60369      1356.6352      1869.2388      181.00016      303.61773      0.11884301   
   1750000   511.39119      1391.7382      1903.1294      143.01401      311.47386      0.12061446   
   1751000   530.06614      1327.992       1858.0582      95.993952      297.20734      0.12160459   
   1752000   473.0177       1360.3007      1833.3184      62.670991      304.4381       0.12261045   
   1753000   523.73892      1320.5779      1844.3168      38.003833      295.54804      0.12364037   
   1754000   491.34727      1298.675       1790.0223      63.901549      290.64613      0.12563689   
   1755000   499.20198      1320.2012      1819.4031      79.572342      295.46373      0.12854432   
   1756000   493.92365      1340.7923      1834.7159      95.319798      300.07206      0.13162418   
   1757000   506.08067      1353.9414      1860.0221      100.73402      303.01486      0.13339987   
   1758000   492.23967      1331.3004      1823.54        129.76551      297.94775      0.13214011   
   1759000   489.81939      1334.7275      1824.5469      117.14566      298.71475      0.12718248   
   1760000   514.71817      1370.3031      1885.0212      124.33615      306.67664      0.1230932    
   1761000   511.56966      1358.717       1870.2866      92.133735      304.08365      0.12115255   
   1762000   494.1061       1337.6415      1831.7476      79.511698      299.3669       0.1207483    
   1763000   499.61643      1389.4225      1889.0389      64.007486      310.95561      0.12158935   
   1764000   518.73151      1379.3279      1898.0594      76.919955      308.69642      0.12457569   
   1765000   526.83896      1355.4709      1882.3098      70.703147      303.35716      0.12735119   
   1766000   491.93782      1365.5977      1857.5355      117.50683      305.62356      0.12895166   
   1767000   506.78896      1375.1785      1881.9675      137.79775      307.76777      0.12869068   
   1768000   519.89981      1332.5716      1852.4714      133.09692      298.23226      0.12343538   
   1769000   515.03491      1292.7754      1807.8103      118.60322      289.32579      0.11859305   
   1770000   525.37471      1304.5078      1829.8825      88.800481      291.95151      0.11772898   
   1771000   527.82648      1319.2773      1847.1038      38.535266      295.25696      0.11968285   
   1772000   526.51434      1336.3483      1862.8627     -7.3949317      299.0775       0.12343813   
   1773000   502.03153      1362.2924      1864.3239      4.3486631      304.88383      0.12687743   
   1774000   497.62418      1333.6178      1831.242       11.842522      298.46641      0.12822405   
   1775000   501.49504      1335.2965      1836.7915      82.746954      298.8421       0.12838274   
   1776000   531.37806      1354.5331      1885.9112      117.52401      303.14729      0.12613408   
   1777000   505.15253      1364.5366      1869.6891      202.01096      305.38609      0.12367566   
   1778000   531.11671      1388.0106      1919.1273      183.24458      310.63963      0.12137668   
   1779000   540.60116      1343.7918      1884.393       129.88631      300.74337      0.12063193   
   1780000   508.61324      1348.6575      1857.2708      114.34158      301.83232      0.12128294   
   1781000   499.73822      1328.503       1828.2412      109.14528      297.32171      0.12169979   
   1782000   519.653        1311.648       1831.301       98.780449      293.54952      0.12208709   
   1783000   489.96849      1306.1334      1796.1018      73.46864       292.31533      0.12250489   
   1784000   497.13051      1306.2446      1803.3751      70.008364      292.34022      0.12399294   
   1785000   500.81952      1327.6433      1828.4628      79.280958      297.12929      0.12463069   
   1786000   517.82102      1298.4511      1816.2721      79.323689      290.59603      0.12048973   
   1787000   519.94017      1266.7398      1786.6799      56.511171      283.49896      0.11425275   
   1788000   530.91095      1305.3871      1836.298       67.768632      292.14831      0.11410232   
   1789000   516.08631      1338.0261      1854.1124      65.986228      299.45299      0.11552138   
   1790000   529.89086      1325.399       1855.2899      63.613988      296.62702      0.11735687   
   1791000   538.05449      1331.0528      1869.1073      85.005494      297.89235      0.11937186   
   1792000   524.71447      1348.2278      1872.9423      109.95718      301.73616      0.12088562   
   1793000   520.15591      1395.6075      1915.7634      144.39383      312.33981      0.12290362   
   1794000   505.47565      1386.7871      1892.2628      165.93935      310.3658       0.12363745   
   1795000   523.36512      1330.715       1854.0801      168.54239      297.81675      0.12465099   
   1796000   499.40083      1336.0396      1835.4405      132.7264       299.00841      0.12753236   
   1797000   519.20293      1285.2185      1804.4214      51.157982      287.63454      0.12900345   
   1798000   506.17849      1294.5908      1800.7693      24.763029      289.73209      0.12821426   
   1799000   519.15289      1335.5456      1854.6985      16.787033      298.89785      0.12398583   
   1800000   494.14451      1343.0352      1837.1797      64.368796      300.57403      0.11888083   
   1801000   515.12508      1332.5629      1847.688       102.4937       298.23031      0.11626908   
   1802000   512.33432      1290.7703      1803.1047      133.23576      288.87705      0.11553983   
   1803000   495.91589      1315.3939      1811.3098      159.04293      294.38786      0.11682566   
   1804000   503.0929       1337.6627      1840.7556      145.37906      299.37167      0.11857436   
   1805000   514.48647      1296.4721      1810.9586      144.21877      290.15312      0.12177371   
   1806000   493.58538      1280.9473      1774.5327      145.29189      286.67864      0.1236033    
   1807000   517.8916       1306.1546      1824.0462      153.38723      292.32008      0.12430446   
   1808000   530.85281      1332.8693      1863.7221      136.96151      298.29889      0.12323612   
   1809000   516.04551      1323.1272      1839.1727      118.70493      296.11858      0.12169002   
   1810000   500.11785      1336.725       1836.8429      87.530595      299.16181      0.12027017   
   1811000   519.28907      1317.3081      1836.5972      96.377454      294.81626      0.1189177    
   1812000   531.70053      1336.8857      1868.5862      87.679368      299.19776      0.1163946    
   1813000   529.066        1343.6011      1872.6671      93.450451      300.70069      0.1172386    
   1814000   521.00903      1349.5472      1870.5563      64.985292      302.03144      0.12180037   
   1815000   517.60646      1378.3636      1895.9701      53.927914      308.48061      0.12615517   
   1816000   535.00758      1340.0472      1875.0548      36.926876      299.90531      0.12647261   
   1817000   513.16819      1353.6367      1866.8049      30.890791      302.94667      0.12555155   
   1818000   519.13722      1339.8934      1859.0306      80.435504      299.8709       0.12404128   
   1819000   502.82755      1350.9774      1853.8049      120.35215      302.35151      0.11996007   
   1820000   535.34108      1296.8639      1832.2049      125.4255       290.24079      0.11546763   
   1821000   523.99683      1316.2358      1840.2326      144.7058       294.57628      0.11502416   
   1822000   541.32655      1313.2723      1854.5988      140.57636      293.91303      0.11697297   
   1823000   513.99549      1321.4493      1835.4448      105.05555      295.74306      0.11915841   
   1824000   485.03182      1308.4789      1793.5107      50.11975       292.84027      0.12138493   
   1825000   514.24172      1331.6891      1845.9308      42.13507       298.03475      0.12389419   
   1826000   493.08856      1315.375       1808.4635      103.27657      294.38362      0.12409267   
   1827000   534.01816      1321.7636      1855.7818      124.76147      295.81342      0.12092757   
   1828000   525.42391      1315.6387      1841.0626      153.86951      294.44264      0.11640969   
   1829000   485.63544      1337.6681      1823.3035      143.1558       299.37286      0.11458264   
   1830000   497.47486      1326.4025      1823.8774      131.49096      296.85161      0.11479958   
   1831000   527.06396      1351.1521      1878.216       108.21857      302.39061      0.11458838   
   1832000   516.3852       1351.9838      1868.3691      108.04868      302.57676      0.11547012   
   1833000   529.28546      1364.3021      1893.5876      108.97673      305.33362      0.11833601   
   1834000   536.00438      1345.1971      1881.2015      151.1267       301.05787      0.12218895   
   1835000   526.74482      1359.5358      1886.2807      149.91551      304.26691      0.12506989   
   1836000   500.97956      1399.1988      1900.1783      158.74666      313.14356      0.12624959   
   1837000   525.58183      1368.7596      1894.3414      88.683911      306.33121      0.12390922   
   1838000   529.05457      1327.128       1856.1826      70.543035      297.01398      0.1212752    
   1839000   505.0979       1349.2168      1854.3147      56.465106      301.95749      0.11797748   
   1840000   508.14829      1339.8361      1847.9844      65.986987      299.85807      0.11608476   
   1841000   524.16005      1325.9156      1850.0757      78.170059      296.74264      0.11463748   
   1842000   512.79535      1301.853       1814.6484      108.73639      291.35738      0.11522654   
   1843000   520.53183      1339.4418      1859.9737      150.47074      299.76983      0.11736102   
   1844000   535.69256      1326.9263      1862.6189      168.08738      296.96883      0.1190543    
   1845000   539.74682      1327.5427      1867.2896      190.00795      297.10679      0.11819164   
   1846000   538.89875      1392.6457      1931.5444      138.57958      311.67696      0.11538767   
   1847000   564.23309      1366.5166      1930.7497      82.754336      305.82922      0.11112556   
   1848000   539.8827       1371.3         1911.1827      67.724075      306.89975      0.10939454   
   1849000   541.4953       1359.782       1901.2773      41.708473      304.32201      0.1109889    
   1850000   540.71829      1352.2302      1892.9485      42.095181      302.63191      0.11668893   
   1851000   552.11614      1384.6438      1936.7599      53.290695      309.88613      0.12081313   
   1852000   515.43887      1403.073       1918.5118      72.583757      314.01061      0.12231886   
   1853000   517.21798      1374.505       1891.723       86.667826      307.61704      0.12321811   
   1854000   525.21587      1345.7284      1870.9443      78.464419      301.17677      0.12380551   
   1855000   522.66181      1355.4988      1878.1606      107.31717      303.36342      0.12376322   
   1856000   525.72692      1366.4555      1892.1824      138.39494      305.81554      0.12110618   
   1857000   517.77166      1342.958       1860.7297      150.86484      300.55676      0.11587378   
   1858000   516.78448      1326.1671      1842.9516      121.72836      296.79891      0.11190501   
   1859000   546.06588      1307.0227      1853.0886      77.127844      292.51437      0.1113544    
   1860000   562.28447      1357.4696      1919.7541      46.017219      303.80448      0.11192528   
   1861000   544.23858      1367.2686      1911.5071      45.935801      305.99751      0.11285927   
   1862000   551.40997      1355.79        1907.1999      58.91501       303.42858      0.11501773   
   1863000   538.42731      1354.2533      1892.6806      104.62696      303.08467      0.11853604   
   1864000   509.1432       1313.3462      1822.4894      163.1002       293.92958      0.12085882   
   1865000   510.01092      1307.0232      1817.0341      149.32022      292.51446      0.11953828   
   1866000   520.55804      1323.6511      1844.2092      133.36386      296.23584      0.11791903   
   1867000   509.0352       1337.5493      1846.5846      129.96684      299.34629      0.11721783   
   1868000   521.31286      1328.0978      1849.4106      108.11106      297.231        0.11656447   
   1869000   509.07052      1313.3888      1822.4593      82.343184      293.93911      0.11711533   
   1870000   508.16489      1269.4178      1777.5827      60.505852      284.09832      0.11978236   
   1871000   502.91773      1312.4721      1815.3898      124.56572      293.73395      0.12560687   
   1872000   505.32716      1330.5751      1835.9023      177.5618       297.78544      0.12790763   
   1873000   518.20516      1338.5922      1856.7973      183.70709      299.57967      0.12710359   
   1874000   519.11407      1350.7341      1869.8482      179.52907      302.29706      0.12414602   
   1875000   513.97466      1346.3687      1860.3433      114.69312      301.32007      0.12046425   
   1876000   523.74237      1340.206       1863.9484      52.352681      299.94086      0.1176139    
   1877000   525.20773      1279.2398      1804.4475      39.773379      286.29648      0.11580619   
   1878000   502.81257      1368.1499      1870.9624      59.482749      306.19475      0.11593711   
   1879000   508.26434      1345.6932      1853.9575      67.259546      301.1689       0.11756184   
   1880000   525            1294.6895      1819.6895      55.005783      289.75416      0.11937189   
   1881000   516.88492      1314.4752      1831.3601      77.13687       294.18225      0.12130926   
   1882000   505.88763      1343.2503      1849.1379      88.736178      300.62218      0.12136389   
   1883000   481.87689      1314.6451      1796.522       89.962574      294.22027      0.11940357   
   1884000   543.83979      1314.2213      1858.0611      93.217689      294.12543      0.1155197    
   1885000   553.15024      1325.7873      1878.9376      126.03328      296.71393      0.11063407   
   1886000   513.661        1302.2338      1815.8948      142.35708      291.44259      0.10865713   
   1887000   540.74281      1300.6827      1841.4255      121.44825      291.09545      0.10997148   
   1888000   533.82318      1331.945       1865.7682      131.44179      298.09203      0.11275932   
   1889000   523.62936      1317.4045      1841.0339      127.01822      294.83784      0.11604489   
   1890000   508.8322       1311.1366      1819.9688      100.88694      293.43506      0.1185925    
   1891000   503.26614      1275.9817      1779.2478      60.488614      285.56732      0.12147792   
   1892000   504.85065      1307.8665      1812.7172      43.922436      292.70321      0.12282394   
   1893000   499.91232      1337.4412      1837.3535      73.700129      299.32208      0.1233459    
   1894000   526.3396       1292.9872      1819.3268      86.603954      289.37319      0.1230662    
   1895000   516.01167      1324.9407      1840.9523      139.04513      296.52444      0.12201592   
   1896000   533.41102      1347.8953      1881.3064      146.31296      301.66174      0.12015537   
   1897000   528.87888      1350.7211      1879.6         124.30379      302.29416      0.11677019   
   1898000   530.73289      1334.5665      1865.2994      101.65799      298.67872      0.11499868   
   1899000   486.12846      1340.1097      1826.2381      61.728811      299.91929      0.11730922   
   1900000   521.06869      1335.6977      1856.7664      34.925003      298.93188      0.12280129   
   1901000   528.66226      1351.4185      1880.0808      55.741706      302.45024      0.12652693   
   1902000   512.84048      1419.5343      1932.3748      110.05439      317.69469      0.12672184   
   1903000   512.30287      1370.1948      1882.4976      137.72612      306.6524       0.1252321    
   1904000   523.1125       1360.8166      1883.9291      100.86891      304.55355      0.12331272   
   1905000   525.84246      1365.3747      1891.2172      82.538199      305.57367      0.12395272   
   1906000   521.58696      1361.2154      1882.8024      79.091041      304.6428       0.12653082   
   1907000   530.20888      1301.6802      1831.8891      80.016988      291.3187       0.12974612   
   1908000   478.40644      1316.7441      1795.1506      115.88667      294.69004      0.13321372   
   1909000   476.60899      1319.0306      1795.6396      107.62018      295.20175      0.13330003   
   1910000   487.78696      1316.0504      1803.8373      95.511669      294.53477      0.1300217    
   1911000   513.29492      1318.1614      1831.4563      95.897991      295.00722      0.12543229   
   1912000   513.22314      1319.6435      1832.8666      74.157976      295.33892      0.12304012   
   1913000   528.88276      1316.6626      1845.5454      68.639491      294.67179      0.12309308   
   1914000   520.19961      1311.9076      1832.1073      91.61341       293.60762      0.12485212   
   1915000   524.84141      1315.1771      1840.0185      142.3283       294.33934      0.12855547   
   1916000   502.78249      1337.467       1840.2495      167.92293      299.32785      0.13165038   
   1917000   509.51007      1363.0921      1872.6022      140.76226      305.06281      0.13431294   
   1918000   539.92354      1376.878       1916.8015      136.20478      308.14811      0.13349347   
   1919000   523.54321      1343.4352      1866.9784      85.299093      300.66355      0.12517197   
   1920000   515.76154      1361.9496      1877.7112      78.478445      304.80712      0.12040132   
   1921000   514.19291      1313.0346      1827.2276      56.132176      293.85985      0.11980185   
   1922000   496.10382      1333.5106      1829.6144      79.404525      298.44241      0.12052276   
   1923000   506.18154      1321.5957      1827.7772      97.719441      295.77582      0.12095777   
   1924000   506.78201      1326.0101      1832.7921      128.92793      296.76378      0.12034084   
   1925000   516.26853      1313.8324      1830.1009      114.93725      294.03838      0.11822628   
   1926000   536.28052      1296.3024      1832.5829      81.496862      290.11513      0.11498594   
   1927000   530.43945      1304.0476      1834.4871      89.797504      291.84853      0.1140802    
   1928000   487.49862      1349.6519      1837.1505      146.14543      302.05486      0.1147348    
   1929000   504.04853      1342.3496      1846.3981      170.9714       300.4206       0.11894866   
   1930000   504.57085      1330.2336      1834.8045      184.84494      297.70901      0.12474755   
   1931000   508.52821      1328.7796      1837.3078      151.20435      297.38359      0.12618377   
   1932000   530.672        1296.5717      1827.2437      73.558206      290.1754       0.12534853   
   1933000   502.16479      1285.8699      1788.0346      60.491702      287.78031      0.12306099   
   1934000   540.85505      1309.379       1850.234       28.436861      293.04171      0.11832109   
   1935000   553.7571       1313.47        1867.2271      41.162908      293.95729      0.1142181    
   1936000   523.6319       1341.5825      1865.2144      61.441467      300.24892      0.11303354   
   1937000   542.07734      1382.0418      1924.1191      72.386974      309.30378      0.11394366   
   1938000   558.74494      1371.359       1930.1039      111.85323      306.91295      0.11600772   
   1939000   536.62145      1378.8896      1915.5111      133.93323      308.59833      0.11858622   
   1940000   517.73251      1357.9719      1875.7044      137.72647      303.9169       0.12117753   
   1941000   539.09581      1329.5023      1868.5981      125.43974      297.54534      0.12374522   
   1942000   523.78147      1354.7329      1878.5144      101.09831      303.19201      0.12510445   
   1943000   500.80457      1329.2851      1830.0897      65.157293      297.49673      0.12380267   
   1944000   539.22296      1312.7061      1851.929       23.096816      293.78631      0.11783209   
   1945000   524.13384      1321.6141      1845.748       36.179349      295.77996      0.11183389   
   1946000   504.46226      1334.5299      1838.9922      54.654192      298.67054      0.11105841   
   1947000   536.13637      1312.7242      1848.8606      111.15825      293.79037      0.11274645   
   1948000   510.50808      1351.446       1861.9541      120.40515      302.4564       0.11378587   
   1949000   510.60024      1343.5807      1854.181       141.03503      300.69612      0.11641354   
   1950000   544.03714      1366.45        1910.4872      137.44324      305.81433      0.11958735   
   1951000   526.81996      1378.8407      1905.6607      109.53092      308.58738      0.12160258   
   1952000   501.43273      1380.6981      1882.1309      78.590766      309.00307      0.12066521   
   1953000   518.63652      1350.3538      1868.9903      58.485642      302.21196      0.11740867   
   1954000   524.97522      1366.7534      1891.7286      48.124828      305.88222      0.1119155    
   1955000   547.33642      1371.5795      1918.9159      68.525951      306.96231      0.10826676   
   1956000   517.49999      1361.0799      1878.5799      85.11885       304.61249      0.1082448    
   1957000   515.55202      1390.8288      1906.3808      114.25077      311.27033      0.11206976   
   1958000   533.21401      1353.1023      1886.3163      117.937        302.82708      0.11560359   
   1959000   522.62725      1349.7133      1872.3405      111.06073      302.0686       0.11762572   
   1960000   537.01735      1336.9861      1874.0034      89.284773      299.22023      0.11928959   
   1961000   539.30109      1327.189       1866.4901      100.8492       297.02763      0.12146522   
   1962000   486.18287      1356.407       1842.5899      100.77549      303.56668      0.12375673   
   1963000   524.63826      1309.9808      1834.6191      96.880021      293.17639      0.12563644   
   1964000   504.5362       1333.6516      1838.1878      92.186         298.47396      0.12445492   
   1965000   542.70288      1329.8098      1872.5127      77.186393      297.61417      0.12171654   
   1966000   541.29488      1342.6953      1883.9902      101.32546      300.49796      0.11903043   
   1967000   547.81296      1359.5663      1907.3793      79.674628      304.27374      0.11497864   
   1968000   558.12159      1376.1837      1934.3053      80.237985      307.99274      0.11199678   
   1969000   543.25153      1360.274       1903.5255      89.61101       304.43211      0.11017271   
   1970000   572.73242      1363.8427      1936.5752      105.03085      305.23081      0.11218499   
   1971000   492.36204      1356.8448      1849.2069      106.37011      303.66466      0.11640701   
   1972000   512.57749      1328.7007      1841.2782      109.00595      297.36595      0.12117743   
   1973000   527.7905       1272.7327      1800.5232      95.563999      284.84018      0.12221718   
   1974000   518.137        1327.4723      1845.6093      114.16105      297.09102      0.12249356   
   1975000   518.93355      1315.6484      1834.5819      115.69827      294.44481      0.12149032   
   1976000   505.08083      1323.1702      1828.2511      107.22671      296.12822      0.11974275   
   1977000   510.66101      1318.477       1829.138       67.887771      295.07785      0.11891418   
   1978000   499.72877      1323.8735      1823.6022      79.795242      296.2856       0.11936176   
   1979000   497.22512      1336.0412      1833.2663      82.651142      299.00876      0.12130771   
   1980000   499.67123      1338.946       1838.6172      86.120443      299.65885      0.12495626   
   1981000   490.74818      1340.6466      1831.3948      137.98054      300.03947      0.129642     
   1982000   490.27561      1353.164       1843.4396      148.10075      302.84089      0.13126267   
   1983000   516.70424      1369.7104      1886.4146      143.28548      306.54399      0.12924501   
   1984000   497.34482      1359.5115      1856.8563      103.63068      304.26147      0.12327642   
   1985000   516.22179      1310.8802      1827.102       65.878138      293.37769      0.11907456   
   1986000   513.33934      1326.6435      1839.9828      57.112231      296.90553      0.1177089    
   1987000   536.51198      1331.5811      1868.0931      68.156803      298.01058      0.11728321   
   1988000   543.29617      1312.8422      1856.1384      127.88311      293.81678      0.11899725   
   1989000   499.68114      1349.6908      1849.3719      173.3326       302.06357      0.12102404   
   1990000   509.08653      1320.1066      1829.1932      187.4055       295.44258      0.12449859   
   1991000   496.64147      1361.7217      1858.3632      164.1923       304.75612      0.12769272   
   1992000   515.75669      1345.2572      1861.0139      117.22326      301.07133      0.13058964   
   1993000   508.30739      1373.7952      1882.1026      80.387634      307.45818      0.13279479   
   1994000   502.41218      1346.9396      1849.3518      91.484658      301.44786      0.13082693   
   1995000   528.99037      1325.4821      1854.4725      107.09319      296.64562      0.12448403   
   1996000   508.77287      1313.791       1822.5639      116.66234      294.02913      0.12064637   
   1997000   516.47074      1313.9904      1830.4611      122.91611      294.07374      0.11830883   
   1998000   507.27918      1330.1064      1837.3856      115.03905      297.68055      0.11604375   
   1999000   505.25911      1307.0548      1812.3139      92.189713      292.52154      0.11530808   
   2000000   500.50261      1351.7927      1852.2953      77.723013      302.53397      0.11797558   
Loop time of 13065.1 on 8 procs for 2000000 steps with 1500 atoms

Performance: 6.613 ns/day, 3.629 hours/ns, 153.079 timesteps/s, 229.619 katom-step/s
99.4% CPU use with 8 MPI tasks x 1 OpenMP threads

MPI task timing breakdown:
Section |  min time  |  avg time  |  max time  |%varavg| %total
---------------------------------------------------------------
Pair    | 273.51     | 285.7      | 298.44     |  44.9 |  2.19
Bond    | 22.104     | 22.916     | 23.721     |  10.2 |  0.18
Kspace  | 5858.6     | 5872       | 5883.5     |  10.0 | 44.94
Neigh   | 5.3677     | 5.3752     | 5.3843     |   0.3 |  0.04
Comm    | 132.94     | 134.53     | 135.22     |   7.0 |  1.03
Output  | 0.18799    | 0.95937    | 6.3579     | 208.3 |  0.01
Modify  | 5999.9     | 6356.8     | 6693       | 315.8 | 48.65
Other   |            | 386.9      |            |       |  2.96

Nlocal:          187.5 ave         225 max         144 min
Histogram: 1 0 0 1 0 2 3 0 0 1
Nghost:        1383.75 ave        1439 max        1346 min
Histogram: 1 0 1 4 0 0 1 0 0 1
Neighs:        10360.2 ave       14175 max        6758 min
Histogram: 1 0 0 2 1 3 0 0 0 1

Total # of neighbors = 82882
Ave neighs/atom = 55.254667
Ave special neighs/atom = 2
Neighbor list builds = 12569
Dangerous builds = 0
System init for write_data ...
PPPM initialization ...
  using 12-bit tables for long-range coulomb (src/kspace.cpp:342)
  G vector (1/distance) = 0.26891858
  grid = 54 54 54
  stencil order = 5
  estimated absolute RMS force accuracy = 0.00033041023
  estimated relative force accuracy = 9.9502058e-07
  using single precision FFTW3
  3d grid and FFT values/proc = 39304 20412
Generated 1 of 1 mixed pair_coeff terms from arithmetic mixing rule
Last active /omp style is kspace_style pppm/omp
